TITLE="results for TO code"
VARIABLES = "x", "y", "z", "density", "sigmaxx", "sigmayy", "sigmazz", "sigmaxy", "sigmaxz", "sigmayz"
ZONE T="load step 1", NODES= 12221, ELEMENTS= 10000, DATAPACKING=POINT, ZONETYPE=FEBRICK
               0.00000000                0.00000000                0.00000000                1.00000000               -0.00000000               -0.00000000                0.10637508                0.00000000                0.04443483                0.04464786
               1.00000000                0.00000000                0.00000000                1.00000000               -0.00000000                0.00000000                0.07507800                0.00000000                0.01362986                0.04270324
               2.00000000                0.00000000                0.00000000                1.00000000                0.00000000                0.00000000                0.02642931               -0.00000000               -0.00505391                0.02140260
               3.00000000                0.00000000                0.00000000                1.00000000                0.00000000                0.00000000               -0.00017714                0.00000000               -0.00176801                0.00125924
               4.00000000                0.00000000                0.00000000                1.00000000               -0.00000000                0.00000000               -0.00008964                0.00000000                0.00274934               -0.00022253
               5.00000000                0.00000000                0.00000000                1.00000000                0.00000000                0.00000000                0.00304028                0.00000000                0.01153278                0.00695074
               6.00000000                0.00000000                0.00000000                1.00000000               -0.00000000               -0.00000000                0.05842657               -0.00000000                0.02458796                0.04020826
               7.00000000                0.00000000                0.00000000                1.00000000               -0.00000000                0.00000000                0.10703838               -0.00000000                0.01329774                0.06258457
               8.00000000                0.00000000                0.00000000                1.00000000               -0.00000000                0.00000000                0.12082756               -0.00000000               -0.00701245                0.07050383
               9.00000000                0.00000000                0.00000000                1.00000000               -0.00000000                0.00000000                0.12323496               -0.00000000               -0.03254863                0.07110505
              10.00000000                0.00000000                0.00000000                1.00000000                0.00000000               -0.00000000                0.14605424                0.00000000               -0.07445422                0.07189596
               0.00000000                1.00000000                0.00000000                1.00000000               -0.00000000               -0.00000000                0.07339571               -0.00000000                0.04144789                0.01402287
               1.00000000                1.00000000                0.00000000                1.00000000                0.00000000                0.00000000                0.03957877               -0.00000000                0.01274700                0.01331357
               2.00000000                1.00000000                0.00000000                1.00000000               -0.00000000                0.00000000                0.00698967                0.00000000                0.00361962                0.00503679
               3.00000000                1.00000000                0.00000000                1.00000000                0.00000000                0.00000000               -0.00007337                0.00000000                0.00220295                0.00092352
               4.00000000                1.00000000                0.00000000                1.00000000                0.00000000               -0.00000000                0.00005182                0.00000000                0.00106098               -0.00078109
               5.00000000                1.00000000                0.00000000                1.00000000               -0.00000000               -0.00000000               -0.00012496               -0.00000000                0.00188218                0.00143144
               6.00000000                1.00000000                0.00000000                1.00000000                0.00000000                0.00000000                0.02151130               -0.00000000                0.00763676                0.00632036
               7.00000000                1.00000000                0.00000000                1.00000000                0.00000000               -0.00000000                0.04942706                0.00000000                0.00425485                0.01533179
               8.00000000                1.00000000                0.00000000                1.00000000               -0.00000000               -0.00000000                0.07919794               -0.00000000               -0.00700299                0.02678133
               9.00000000                1.00000000                0.00000000                1.00000000               -0.00000000               -0.00000000                0.10213096               -0.00000000               -0.03325240                0.03082464
              10.00000000                1.00000000                0.00000000                1.00000000                0.00000000                0.00000000                0.13094012               -0.00000000               -0.07371231                0.03039858
               0.00000000                2.00000000                0.00000000                1.00000000                0.00000000                0.00000000                0.02520544                0.00000000                0.02043328               -0.00434706
               1.00000000                2.00000000                0.00000000                1.00000000               -0.00000000               -0.00000000                0.00678577                0.00000000                0.00478394                0.00389147
               2.00000000                2.00000000                0.00000000                1.00000000                0.00000000               -0.00000000               -0.00097647                0.00000000                0.00271558                0.00280068
               3.00000000                2.00000000                0.00000000                1.00000000                0.00000000               -0.00000000                0.00030914               -0.00000000                0.00126992                0.00065895
               4.00000000                2.00000000                0.00000000                1.00000000               -0.00000000               -0.00000000               -0.00005270               -0.00000000                0.00045752                0.00001977
               5.00000000                2.00000000                0.00000000                1.00000000               -0.00000000                0.00000000                0.00036906               -0.00000000               -0.00006094                0.00001463
               6.00000000                2.00000000                0.00000000                1.00000000                0.00000000                0.00000000               -0.00112250                0.00000000               -0.00150514                0.00134800
               7.00000000                2.00000000                0.00000000                1.00000000                0.00000000               -0.00000000               -0.00653272               -0.00000000               -0.00117446                0.00507847
               8.00000000                2.00000000                0.00000000                1.00000000               -0.00000000                0.00000000                0.02362416               -0.00000000                0.00016316                0.00183537
               9.00000000                2.00000000                0.00000000                1.00000000                0.00000000                0.00000000                0.06559577                0.00000000               -0.02315710                0.00273271
              10.00000000                2.00000000                0.00000000                1.00000000               -0.00000000               -0.00000000                0.10359762               -0.00000000               -0.06790065               -0.00113212
               0.00000000                3.00000000                0.00000000                1.00000000                0.00000000               -0.00000000               -0.00013272                0.00000000                0.00119825               -0.00120535
               1.00000000                3.00000000                0.00000000                1.00000000               -0.00000000                0.00000000               -0.00006668                0.00000000                0.00081147                0.00238056
               2.00000000                3.00000000                0.00000000                1.00000000               -0.00000000               -0.00000000                0.00030531               -0.00000000                0.00060305                0.00134591
               3.00000000                3.00000000                0.00000000                1.00000000               -0.00000000               -0.00000000               -0.00002167                0.00000000                0.00049481                0.00055145
               4.00000000                3.00000000                0.00000000                1.00000000               -0.00000000                0.00000000                0.00005389               -0.00000000                0.00014412                0.00012372
               5.00000000                3.00000000                0.00000000                1.00000000                0.00000000               -0.00000000               -0.00001151                0.00000000               -0.00029686                0.00022189
               6.00000000                3.00000000                0.00000000                1.00000000               -0.00000000               -0.00000000                0.00002259                0.00000000               -0.00058009                0.00089003
               7.00000000                3.00000000                0.00000000                1.00000000               -0.00000000                0.00000000                0.00139953               -0.00000000               -0.00061996                0.00126090
               8.00000000                3.00000000                0.00000000                1.00000000                0.00000000               -0.00000000               -0.00245373                0.00000000               -0.00281561                0.00180276
               9.00000000                3.00000000                0.00000000                1.00000000               -0.00000000               -0.00000000                0.00297393               -0.00000000               -0.00571481                0.00107706
              10.00000000                3.00000000                0.00000000                1.00000000                0.00000000               -0.00000000                0.02542926                0.00000000               -0.02571256               -0.01428695
               0.00000000                4.00000000                0.00000000                1.00000000                0.00000000                0.00000000               -0.00005584                0.00000000                0.00005196                0.00393336
               1.00000000                4.00000000                0.00000000                1.00000000               -0.00000000               -0.00000000                0.00005752               -0.00000000               -0.00072368                0.00142153
               2.00000000                4.00000000                0.00000000                1.00000000                0.00000000               -0.00000000               -0.00009058                0.00000000               -0.00006903                0.00063895
               3.00000000                4.00000000                0.00000000                1.00000000               -0.00000000                0.00000000                0.00006214                0.00000000                0.00004741                0.00020350
               4.00000000                4.00000000                0.00000000                1.00000000                0.00000000                0.00000000                0.00000878                0.00000000                0.00004177                0.00007044
               5.00000000                4.00000000                0.00000000                1.00000000                0.00000000                0.00000000                0.00002356                0.00000000               -0.00009687                0.00014508
               6.00000000                4.00000000                0.00000000                1.00000000                0.00000000               -0.00000000                0.00007554               -0.00000000               -0.00021549                0.00028318
               7.00000000                4.00000000                0.00000000                1.00000000               -0.00000000                0.00000000               -0.00015302                0.00000000               -0.00046593                0.00061470
               8.00000000                4.00000000                0.00000000                1.00000000                0.00000000                0.00000000                0.00044484               -0.00000000               -0.00048191                0.00101882
               9.00000000                4.00000000                0.00000000                1.00000000                0.00000000               -0.00000000               -0.00000054                0.00000000               -0.00075394                0.00109662
              10.00000000                4.00000000                0.00000000                1.00000000                0.00000000                0.00000000               -0.00109484               -0.00000000               -0.00047794               -0.00470982
               0.00000000                5.00000000                0.00000000                1.00000000               -0.00000000               -0.00000000                0.00553248                0.00000000                0.01046219                0.01476127
               1.00000000                5.00000000                0.00000000                1.00000000                0.00000000               -0.00000000               -0.00005311               -0.00000000                0.00175898                0.00356975
               2.00000000                5.00000000                0.00000000                1.00000000               -0.00000000                0.00000000                0.00058343                0.00000000               -0.00028387                0.00023110
               3.00000000                5.00000000                0.00000000                1.00000000               -0.00000000                0.00000000               -0.00007536                0.00000000                0.00015013               -0.00027380
               4.00000000                5.00000000                0.00000000                1.00000000               -0.00000000                0.00000000                0.00003258               -0.00000000                0.00010940               -0.00007255
               5.00000000                5.00000000                0.00000000                1.00000000                0.00000000               -0.00000000                0.00001937               -0.00000000               -0.00001102                0.00000197
               6.00000000                5.00000000                0.00000000                1.00000000                0.00000000               -0.00000000                0.00001117               -0.00000000               -0.00011677                0.00006140
               7.00000000                5.00000000                0.00000000                1.00000000                0.00000000               -0.00000000                0.00006556               -0.00000000               -0.00012121                0.00012817
               8.00000000                5.00000000                0.00000000                1.00000000               -0.00000000                0.00000000               -0.00001849                0.00000000               -0.00001119                0.00024057
               9.00000000                5.00000000                0.00000000                1.00000000               -0.00000000                0.00000000                0.00001939                0.00000000                0.00058418               -0.00017664
              10.00000000                5.00000000                0.00000000                1.00000000                0.00000000               -0.00000000               -0.00009154               -0.00000000                0.00048422               -0.00121535
               0.00000000                6.00000000                0.00000000                1.00000000                0.00000000                0.00000000                0.07485522               -0.00000000                0.04535418                0.02818704
               1.00000000                6.00000000                0.00000000                1.00000000               -0.00000000                0.00000000                0.03287490                0.00000000                0.00651828                0.01150120
               2.00000000                6.00000000                0.00000000                1.00000000                0.00000000                0.00000000               -0.00247013               -0.00000000                0.00116072               -0.00147363
               3.00000000                6.00000000                0.00000000                1.00000000               -0.00000000               -0.00000000                0.00019069                0.00000000                0.00079985               -0.00049040
               4.00000000                6.00000000                0.00000000                1.00000000                0.00000000               -0.00000000                0.00004740                0.00000000                0.00025538               -0.00020839
               5.00000000                6.00000000                0.00000000                1.00000000               -0.00000000                0.00000000                0.00001430               -0.00000000                0.00004097               -0.00010059
               6.00000000                6.00000000                0.00000000                1.00000000               -0.00000000                0.00000000                0.00002980                0.00000000               -0.00013089               -0.00012356
               7.00000000                6.00000000                0.00000000                1.00000000                0.00000000                0.00000000                0.00002094               -0.00000000               -0.00022512               -0.00031470
               8.00000000                6.00000000                0.00000000                1.00000000               -0.00000000               -0.00000000                0.00007167               -0.00000000                0.00002848               -0.00056596
               9.00000000                6.00000000                0.00000000                1.00000000               -0.00000000               -0.00000000                0.00003701               -0.00000000                0.00033954               -0.00062211
              10.00000000                6.00000000                0.00000000                1.00000000                0.00000000                0.00000000               -0.00032840                0.00000000                0.00057404               -0.00064949
               0.00000000                7.00000000                0.00000000                1.00000000                0.00000000               -0.00000000                0.11120719               -0.00000000                0.06322856                0.01436324
               1.00000000                7.00000000                0.00000000                1.00000000               -0.00000000               -0.00000000                0.05784794                0.00000000                0.01631736                0.00508555
               2.00000000                7.00000000                0.00000000                1.00000000               -0.00000000                0.00000000               -0.00585569                0.00000000                0.00477856               -0.00049292
               3.00000000                7.00000000                0.00000000                1.00000000                0.00000000               -0.00000000                0.00130683               -0.00000000                0.00120328               -0.00065585
               4.00000000                7.00000000                0.00000000                1.00000000                0.00000000               -0.00000000               -0.00012907                0.00000000                0.00054809               -0.00040328
               5.00000000                7.00000000                0.00000000                1.00000000               -0.00000000               -0.00000000                0.00005572                0.00000000                0.00011036               -0.00011258
               6.00000000                7.00000000                0.00000000                1.00000000               -0.00000000               -0.00000000                0.00002230               -0.00000000               -0.00033058               -0.00021798
               7.00000000                7.00000000                0.00000000                1.00000000                0.00000000                0.00000000                0.00011243               -0.00000000               -0.00078109               -0.00078363
               8.00000000                7.00000000                0.00000000                1.00000000               -0.00000000                0.00000000               -0.00001999               -0.00000000               -0.00101931               -0.00204257
               9.00000000                7.00000000                0.00000000                1.00000000                0.00000000                0.00000000                0.00037050                0.00000000                0.00035333               -0.00249826
              10.00000000                7.00000000                0.00000000                1.00000000               -0.00000000               -0.00000000                0.00039736               -0.00000000                0.00126779               -0.00051499
               0.00000000                8.00000000                0.00000000                1.00000000               -0.00000000                0.00000000                0.11556581               -0.00000000                0.06934769               -0.00503077
               1.00000000                8.00000000                0.00000000                1.00000000               -0.00000000               -0.00000000                0.08004638                0.00000000                0.02685634               -0.00704386
               2.00000000                8.00000000                0.00000000                1.00000000               -0.00000000                0.00000000                0.02875401               -0.00000000                0.00090599               -0.00130385
               3.00000000                8.00000000                0.00000000                1.00000000                0.00000000                0.00000000               -0.00238856                0.00000000                0.00145227               -0.00267069
               4.00000000                8.00000000                0.00000000                1.00000000               -0.00000000                0.00000000                0.00031185               -0.00000000                0.00103490               -0.00040015
               5.00000000                8.00000000                0.00000000                1.00000000                0.00000000               -0.00000000                0.00000411                0.00000000                0.00015339                0.00003666
               6.00000000                8.00000000                0.00000000                1.00000000                0.00000000               -0.00000000                0.00006851                0.00000000               -0.00056505               -0.00000941
               7.00000000                8.00000000                0.00000000                1.00000000               -0.00000000                0.00000000               -0.00001948               -0.00000000               -0.00202743               -0.00102096
               8.00000000                8.00000000                0.00000000                1.00000000                0.00000000               -0.00000000                0.00117765               -0.00000000               -0.00407516               -0.00405889
               9.00000000                8.00000000                0.00000000                1.00000000               -0.00000000                0.00000000               -0.00187783                0.00000000               -0.00594396               -0.00908104
              10.00000000                8.00000000                0.00000000                1.00000000               -0.00000000               -0.00000000               -0.00491180               -0.00000000               -0.00414326                0.00047413
               0.00000000                9.00000000                0.00000000                1.00000000               -0.00000000               -0.00000000                0.11693613               -0.00000000                0.06873113               -0.02851934
               1.00000000                9.00000000                0.00000000                1.00000000                0.00000000                0.00000000                0.09666188                0.00000000                0.02996278               -0.03184201
               2.00000000                9.00000000                0.00000000                1.00000000               -0.00000000               -0.00000000                0.05843387                0.00000000                0.00266921               -0.02427739
               3.00000000                9.00000000                0.00000000                1.00000000               -0.00000000                0.00000000               -0.00337177               -0.00000000                0.00279034               -0.00457602
               4.00000000                9.00000000                0.00000000                1.00000000               -0.00000000                0.00000000                0.00047238                0.00000000                0.00093211                0.00007864
               5.00000000                9.00000000                0.00000000                1.00000000               -0.00000000                0.00000000               -0.00001671                0.00000000               -0.00012206                0.00038763
               6.00000000                9.00000000                0.00000000                1.00000000               -0.00000000                0.00000000                0.00004224               -0.00000000               -0.00055256                0.00028371
               7.00000000                9.00000000                0.00000000                1.00000000                0.00000000                0.00000000                0.00037390                0.00000000               -0.00246275                0.00034401
               8.00000000                9.00000000                0.00000000                1.00000000               -0.00000000                0.00000000               -0.00188691                0.00000000               -0.00904899               -0.00584533
               9.00000000                9.00000000                0.00000000                1.00000000                0.00000000               -0.00000000                0.03523397               -0.00000000               -0.01999403               -0.01971163
              10.00000000                9.00000000                0.00000000                1.00000000                0.00000000                0.00000000                0.10660008                0.00000000               -0.06007861               -0.01331635
               0.00000000               10.00000000                0.00000000                1.00000000                0.00000000               -0.00000000                0.13539982               -0.00000000                0.07102806               -0.06644247
               1.00000000               10.00000000                0.00000000                1.00000000                0.00000000                0.00000000                0.11889829                0.00000000                0.03104277               -0.06782346
               2.00000000               10.00000000                0.00000000                1.00000000               -0.00000000                0.00000000                0.08349741               -0.00000000               -0.00186108               -0.05919372
               3.00000000               10.00000000                0.00000000                1.00000000                0.00000000               -0.00000000                0.00501080               -0.00000000               -0.00840719               -0.01120054
               4.00000000               10.00000000                0.00000000                1.00000000                0.00000000               -0.00000000               -0.00019996                0.00000000               -0.00234258                0.00041032
               5.00000000               10.00000000                0.00000000                1.00000000                0.00000000               -0.00000000               -0.00016020               -0.00000000               -0.00059797                0.00041440
               6.00000000               10.00000000                0.00000000                1.00000000               -0.00000000                0.00000000               -0.00028859                0.00000000               -0.00053377                0.00053618
               7.00000000               10.00000000                0.00000000                1.00000000                0.00000000               -0.00000000                0.00038772               -0.00000000               -0.00050846                0.00127104
               8.00000000               10.00000000                0.00000000                1.00000000               -0.00000000               -0.00000000               -0.00490078               -0.00000000                0.00043718               -0.00401175
               9.00000000               10.00000000                0.00000000                1.00000000                0.00000000                0.00000000                0.10559978                0.00000000               -0.01300539               -0.05929182
              10.00000000               10.00000000                0.00000000                1.00000000               -0.00000000               -0.00000000                0.21855157                0.00000000               -0.07633310               -0.07710888
               0.00044435                0.00044648                1.00106375                0.99976872               -0.03080497               -0.03062500                0.09098016               -0.00493156               -0.00175153               -0.00200704
               1.00013630                0.00042703                1.00075078                0.61978472               -0.02474437               -0.02938967                0.09139960               -0.01250550               -0.02424411               -0.00279566
               1.99994946                0.00021403                1.00026429                0.17767967               -0.00769894               -0.01636581                0.10174084               -0.01204848               -0.03708990                0.01195582
               2.99998232                0.00001259                0.99999823                0.01000000                0.00390163               -0.00033571                0.11467233               -0.00684160               -0.01914953                0.02562778
               4.00002749               -0.00000223                0.99999910                0.06777684                0.00665040               -0.00055856                0.13202679                0.00115739                0.02851648                0.02107116
               5.00011533                0.00006951                1.00003040                0.31032685                0.01091931               -0.00551930                0.11249539                0.01056479                0.06883091                0.02230160
               6.00024588                0.00040208                1.00058427                0.81132942                0.00088248               -0.03388789                0.11001442                0.01086571                0.07717045               -0.00144311
               7.00013298                0.00062585                1.00107038                0.99963908               -0.01580021               -0.04725278                0.10740746                0.00610489                0.03894073               -0.01657398
               7.99992988                0.00070504                1.00120828                0.99999999               -0.02292319               -0.04372249                0.11296697                0.00426970               -0.00180928                0.00314540
               8.99967451                0.00071105                1.00123235                1.00000000               -0.03372088               -0.04028041                0.12514357               -0.00000770               -0.01633332                0.02365369
               9.99925546                0.00071896                1.00146054                0.99798856               -0.04190559               -0.04149738                0.13598800                0.00153283               -0.02441268                0.02917776
               0.00041448                1.00014023                1.00073396                0.61783621               -0.02870089               -0.02449746                0.08942198               -0.01271007               -0.00354368               -0.02323104
               1.00012747                1.00013314                1.00039579                0.01000001               -0.01891414               -0.01940589                0.08715715               -0.00891600               -0.01869834               -0.01725735
               2.00003620                1.00005037                1.00006990                0.01000001               -0.00527202               -0.00930096                0.09283659               -0.00231028               -0.01904306                0.00057173
               3.00002203                1.00000924                0.99999927                0.01000001               -0.00127932               -0.00030014                0.10639424               -0.00138998               -0.00787491                0.01549316
               4.00001061                0.99999219                1.00000052                0.01000000               -0.00016038                0.00012115                0.12705183               -0.00089195                0.02675164                0.01421895
               5.00001882                1.00001431                0.99999875                0.01000000                0.00328789               -0.00346806                0.10847818               -0.00224613                0.04615710                0.01014271
               6.00007637                1.00006320                1.00021511                0.01047476                0.00118633               -0.01943013                0.10226131               -0.00609638                0.04707532               -0.01579753
               7.00004255                1.00015332                1.00049427                0.16719901               -0.00731988               -0.02875305                0.10969496                0.00299438                0.03200104               -0.03517518
               7.99992997                1.00026781                1.00079198                0.85303434               -0.01875362               -0.03433423                0.11507441                0.01133423                0.01327870               -0.02227350
               8.99966748                1.00030825                1.00102131                0.99999999               -0.03335466               -0.03418617                0.11808053                0.00650439               -0.00470976               -0.00317086
               9.99926288                1.00030399                1.00130940                0.99999999               -0.04045991               -0.03651404                0.12587883                0.00285073               -0.02059287                0.00483112
               0.00020433                1.99995653                1.00025205                0.17989724               -0.01564934               -0.00761411                0.09764827               -0.01188628                0.00983662               -0.03403740
               1.00004784                2.00003891                1.00006786                0.01000001               -0.00885885               -0.00546651                0.09180996               -0.00239390               -0.00160914               -0.01623091
               2.00002716                2.00002801                0.99999024                0.01000001               -0.00175701               -0.00184544                0.11292325               -0.00312454                0.00485875                0.00859204
               3.00001270                2.00000659                1.00000309                0.01000001               -0.00112903               -0.00018604                0.05302963               -0.00224452                0.01060836                0.00875940
               4.00000458                2.00000020                0.99999947                0.01000001               -0.00066543                0.00045241                0.06251160               -0.00078059                0.00567255                0.00360487
               4.99999939                2.00000015                1.00000369                0.01000000               -0.00098133               -0.00060477                0.06957896               -0.00042540                0.00442661                0.00682153
               5.99998495                2.00001348                0.99998877                0.01000000               -0.00055676               -0.00271517                0.06481599               -0.00157650               -0.00065776               -0.00312752
               6.99998826                2.00005078                0.99993467                0.01000000                0.00083415               -0.00703545                0.18382323               -0.00219372               -0.00053929                0.00133396
               8.00000163                2.00001835                1.00023624                0.01000000               -0.01099132               -0.01248929                0.12311830                0.00092080                0.02614505               -0.03586410
               8.99976843                2.00002733                1.00065596                0.50724511               -0.03403190               -0.01487379                0.11957664                0.01228505                0.00819294               -0.04538445
               9.99932099                1.99998868                1.00103598                0.98979596               -0.04474354               -0.02234276                0.13306827                0.02013505               -0.01334028               -0.04592978
               0.00001198                2.99998795                0.99999867                0.01388282               -0.00038679                0.00414021                0.11062883               -0.00660476                0.02215266               -0.01411066
               1.00000811                3.00002381                0.99999933                0.01000001               -0.00029760               -0.00123497                0.10668824               -0.00147818                0.01098551               -0.00191983
               2.00000603                3.00001346                1.00000305                0.01000001               -0.00015833               -0.00108086                0.05399008               -0.00230686                0.00225294                0.01610538
               3.00000495                3.00000551                0.99999978                0.01000001               -0.00022946               -0.00022773                0.06658217               -0.00122235               -0.00069831                0.00589031
               4.00000144                3.00000124                1.00000054                0.01000001               -0.00039584                0.00002534                0.06731688               -0.00037266               -0.00097615                0.00182582
               4.99999703                3.00000222                0.99999988                0.01000001               -0.00036211                0.00006523                0.06878531                0.00036519               -0.00296400               -0.00228176
               5.99999420                3.00000890                1.00000023                0.01000001               -0.00016155               -0.00053241                0.07653151                0.00116433               -0.00458092               -0.00144302
               6.99999380                3.00001261                1.00001400                0.01000001               -0.00111776               -0.00223189                0.07714103                0.00081063               -0.00944094                0.00336437
               7.99997184                3.00001803                0.99997546                0.01548571               -0.00254743               -0.00040828                0.05046551               -0.00041445               -0.01762913               -0.00526411
               8.99994285                3.00001077                1.00002974                0.01060478               -0.01144847               -0.00081804                0.14691017                0.00315673               -0.02039188               -0.03797242
               9.99974287                2.99985713                1.00025429                0.04054730               -0.01999774               -0.00178885                0.15897531                0.01834735               -0.02319784               -0.05671227
               0.00000052                4.00003933                0.99999944                0.08386264               -0.00077563                0.00798331                0.13411695                0.00212014                0.01528021                0.03779723
               0.99999276                4.00001422                1.00000058                0.01000000               -0.00006049                0.00059460                0.13947382               -0.00117345                0.00693704                0.03659153
               1.99999931                4.00000639                0.99999909                0.01000001                0.00038554               -0.00055741                0.06610724               -0.00105248               -0.00535125                0.01070640
               3.00000047                4.00000203                1.00000062                0.01000001                0.00005540               -0.00041263                0.06770649               -0.00045660               -0.00579746                0.00431874
               4.00000042                4.00000070                1.00000009                0.01258947               -0.00007214               -0.00009813                0.05284353               -0.00004657               -0.00563775               -0.00065234
               4.99999903                4.00000145                1.00000024                0.01104595               -0.00012863               -0.00010996                0.06327353                0.00024929               -0.00957929               -0.00332643
               5.99999785                4.00000283                1.00000076                0.01000001               -0.00018453               -0.00041431                0.08945485                0.00046647               -0.01443595               -0.00717825
               6.99999534                4.00000615                0.99999847                0.01000000               -0.00013321               -0.00056637                0.10045133                0.00061719               -0.02124181               -0.00896293
               7.99999518                4.00001019                1.00000445                0.01164423               -0.00014400               -0.00078109                0.05872527                0.00164317               -0.02142181               -0.01383619
               8.99999246                4.00001097                0.99999999                0.01000000                0.00000199               -0.00062685                0.04610791                0.00028518               -0.04494426               -0.01661627
               9.99999522                3.99995290                0.99998905                0.03945634                0.00027600                0.00653580                0.09467855                0.00729195               -0.08781621               -0.02037221
               0.00010462                5.00014761                1.00005532                0.36333844               -0.00870321                0.01212684                0.11332430                0.01145959                0.01332460                0.08491216
               1.00001759                5.00003570                0.99999947                0.01000000               -0.00537303                0.00503984                0.11987902               -0.00364411                0.00077763                0.05914267
               1.99999716                5.00000231                1.00000583                0.01000000               -0.00080442               -0.00105629                0.06071331               -0.00130691               -0.00318394                0.00626204
               3.00000150                4.99999726                0.99999925                0.01000001                0.00019663               -0.00034695                0.07434355                0.00022439               -0.01016068               -0.00022350
               4.00000109                4.99999927                1.00000033                0.01104662               -0.00008057               -0.00013942                0.06243788                0.00024469               -0.00832796               -0.00717894
               4.99999989                5.00000002                1.00000019                0.01215251               -0.00011309               -0.00012284                0.06901994                0.00013589               -0.01260407               -0.00937951
               5.99999883                5.00000061                1.00000011                0.01000000               -0.00005509               -0.00020337                0.09011285                0.00010540               -0.01935868               -0.01292183
               6.99999879                5.00000128                1.00000066                0.01000000                0.00005279               -0.00046470                0.09565949                0.00020998               -0.02497320               -0.02004597
               7.99999989                5.00000241                0.99999982                0.01000001                0.00035269               -0.00079239                0.06298893                0.00010279               -0.04159163               -0.02023450
               9.00000584                4.99999823                1.00000019                0.01000001                0.00024771               -0.00085937                0.09603602               -0.00018122               -0.06565054               -0.01742533
              10.00000484                4.99998785                0.99999908                0.01000000               -0.00009996                0.00203016                0.13492825               -0.00051272               -0.07929439               -0.01625181
               0.00045354                6.00028187                1.00074855                0.92761414               -0.03883590               -0.00019901                0.10800325                0.00969735               -0.01172261                0.08276308
               1.00006518                6.00011501                1.00032875                0.01000000               -0.02209673                0.00075790                0.10598719               -0.00755115               -0.03171103                0.05534775
               2.00001161                5.99998526                0.99997530                0.01000000               -0.00285922               -0.00036201                0.16706163               -0.00346459               -0.01082311               -0.00006164
               3.00000800                5.99999510                1.00000191                0.01000001               -0.00045267               -0.00019102                0.06721581                0.00115920               -0.00800591               -0.00414705
               4.00000255                5.99999792                1.00000047                0.01000001               -0.00037944               -0.00016536                0.08851338                0.00041425               -0.01280970               -0.01327648
               5.00000041                5.99999899                1.00000014                0.01000000               -0.00019314               -0.00005728                0.08922431                0.00010310               -0.01719852               -0.01744286
               5.99999869                5.99999876                1.00000030                0.01668721               -0.00013305               -0.00013969                0.04704205               -0.00021396               -0.01789230               -0.01570495
               6.99999775                5.99999685                1.00000021                0.01049493                0.00007969               -0.00045590                0.04379440               -0.00055114               -0.02837428               -0.01351960
               8.00000028                5.99999434                1.00000072                0.01138599                0.00028233               -0.00114157                0.06751679               -0.00065777               -0.04504772               -0.01782261
               9.00000340                5.99999378                1.00000037                0.01278575                0.00027278               -0.00116081                0.08483494               -0.00015719               -0.06508041               -0.02245048
              10.00000574                5.99999351                0.99999672                0.07732253                0.00023450                0.00035018                0.12521963                0.00036441               -0.08789794               -0.01826246
               0.00063229                7.00014363                1.00111207                0.99528001               -0.04691120               -0.01660891                0.10290824                0.00271907               -0.01745819                0.03309133
               1.00016317                7.00005086                1.00057848                0.29399768               -0.02922500               -0.00927253                0.11522492                0.00274095               -0.04194877                0.02848709
               2.00004779                6.99999507                0.99994144                0.01000000               -0.00755704                0.00008489                0.18508751               -0.00299806               -0.01291261                0.00300187
               3.00001203                6.99999344                1.00001307                0.01000001               -0.00211524               -0.00109014                0.07989841                0.00037103               -0.00364551               -0.01156157
               4.00000548                6.99999597                0.99999871                0.01000000               -0.00054646               -0.00009588                0.09788825                0.00066139               -0.01401207               -0.02130312
               5.00000110                6.99999887                1.00000056                0.01000000               -0.00043934                0.00006863                0.09446501                0.00014886               -0.02351000               -0.02437214
               5.99999669                6.99999782                1.00000022                0.01049635               -0.00044572                0.00005708                0.04287424               -0.00055260               -0.01604916               -0.02687304
               6.99999219                6.99999216                1.00000112                0.01000001               -0.00034436               -0.00035313                0.05458055               -0.00181345               -0.02928816               -0.02641705
               7.99998981                6.99997957                0.99999980                0.01000000                0.00056721               -0.00174646                0.06059216               -0.00290914               -0.04190304               -0.02390589
               9.00000353                6.99997502                1.00000370                0.01000001                0.00114355               -0.00422946                0.07458754               -0.00237796               -0.06758906               -0.02907589
              10.00001268                6.99999485                1.00000397                0.08864535                0.00091446                0.00056181                0.11661753               -0.00037539               -0.09129222               -0.03929172
               0.00069348                7.99994969                1.00115566                1.00000000               -0.04249135               -0.02144129                0.10859171                0.00073820                0.00608939               -0.00046915
               1.00026856                7.99992956                1.00080046                0.89752133               -0.03422085               -0.01846378                0.11389011                0.00868617               -0.01948413                0.00943284
               2.00000906                7.99998696                1.00028754                0.01000000               -0.01270204               -0.01189224                0.12230309                0.00113191               -0.03858037                0.02076498
               3.00001452                7.99997329                0.99997611                0.01549103                0.00006446               -0.00196008                0.04625674                0.00124538               -0.01023896               -0.02477054
               4.00001035                7.99999600                1.00000312                0.01164920               -0.00064944                0.00024096                0.05689800                0.00154569               -0.01270000               -0.02498513
               5.00000153                8.00000037                1.00000004                0.01000001               -0.00079997                0.00025011                0.06065068                0.00007917               -0.01936851               -0.04131744
               5.99999435                7.99999991                1.00000069                0.01140206               -0.00109041                0.00025084                0.06739493               -0.00063980               -0.01725335               -0.03887442
               6.99997973                7.99998979                0.99999981                0.01000000               -0.00175506                0.00056382                0.06522004               -0.00286557               -0.03949891               -0.03457636
               7.99995925                7.99995941                1.00001178                0.01000000               -0.00195827               -0.00190138                0.10199137               -0.00804488               -0.08488953                0.00804277
               8.99994056                7.99990919                0.99998122                0.01564403               -0.00003405               -0.00860669                0.15598737               -0.00790717               -0.07839480               -0.02194897
               9.99995857                8.00000474                0.99995088                0.67556372                0.00180070               -0.00640068                0.19318698               -0.02111804               -0.06872445                0.00900595
               0.00068731                8.99971481                1.00116936                1.00000000               -0.03876836               -0.03070585                0.11823105               -0.00248249                0.02423697               -0.01081437
               1.00029963                8.99968158                1.00096662                0.99402754               -0.03303096               -0.03038980                0.10947071                0.00421419               -0.00266127               -0.00654756
               2.00002669                8.99975723                1.00058434                0.29419238               -0.01358622               -0.02894494                0.10617853                0.01224947               -0.04476985               -0.00468464
               3.00002790                8.99995424                0.99996628                0.01061419               -0.00086855               -0.00426493                0.15483253                0.00724828               -0.02560178               -0.04266455
               4.00000932                9.00000079                1.00000472                0.01000000               -0.00145620                0.00040524                0.04166699                0.00079309               -0.01023911               -0.04647521
               4.99999878                9.00000388                0.99999983                0.01000001               -0.00074234                0.00018887                0.08853165               -0.00027314               -0.01275973               -0.06476477
               5.99999447                9.00000284                1.00000042                0.01278082               -0.00117035                0.00027279                0.08147785               -0.00000617               -0.01283894               -0.05724717
               6.99997537                9.00000344                1.00000374                0.01000001               -0.00424822                0.00114600                0.11058302               -0.00230504               -0.00968280               -0.04801034
               7.99990951                8.99994155                0.99998113                0.01498613               -0.00876564                0.00002357                0.19725323               -0.00777165               -0.01739145               -0.01864579
               8.99980006                8.99980288                1.00035234                0.99999999               -0.02551481               -0.02510539                0.11434082               -0.00726623                0.00487810                0.00710639
               9.99939921                8.99986684                1.00106600                0.99953790               -0.04008458               -0.03879150                0.15710370               -0.02969964               -0.01076738                0.06096890
               0.00071028                9.99933558                1.00135400                0.99850244               -0.03998529               -0.03792313                0.12426889                0.00091593                0.03103389               -0.01887344
               1.00031043                9.99932177                1.00118898                0.99999999               -0.03644457               -0.03598145                0.11530188                0.00470436                0.00564639               -0.02081934
               1.99998139                9.99940806                1.00083497                0.95240107               -0.01972498               -0.03491634                0.11844691                0.02378118               -0.04201120               -0.02688247
               2.99991593                9.99988799                1.00005011                0.05978993               -0.00024075               -0.00662452                0.16211650                0.01860449               -0.02906059               -0.04333788
               3.99997657               10.00000410                0.99999800                0.03935066                0.00390461                0.00033168                0.08795078                0.00253278               -0.00721280               -0.08667017
               4.99999402               10.00000414                0.99999840                0.01000000                0.00090440                0.00002677                0.12399348               -0.00041298               -0.01324446               -0.07644231
               5.99999466               10.00000536                0.99999711                0.07717976                0.00004475                0.00025247                0.11876374                0.00044711               -0.01212568               -0.08504906
               6.99999492               10.00001271                1.00000388                0.09039385                0.00048548                0.00092703                0.16765230               -0.00031968               -0.00783684               -0.05972647
               8.00000437                9.99995988                0.99995099                0.69397735               -0.00624846                0.00183358                0.20741522               -0.02079526                0.05082985               -0.08696396
               8.99986995                9.99940708                1.00105600                0.99953728               -0.03838514               -0.03958019                0.15518444               -0.02955992                0.06124833               -0.00883907
               9.99923667                9.99922891                1.00218552                0.99940351               -0.06332771               -0.06379252                0.19611540               -0.03407154                0.03481572                0.03334792
               0.00059091                0.00061945                2.00181960                0.98879259               -0.02763356               -0.02723711                0.08782426                0.00491786                0.00923619                0.00887783
               1.00031458                0.00065407                2.00182799                0.87174715               -0.02900789               -0.03162961                0.10021213               -0.00202506                0.01969617                0.00508194
               2.00001075                0.00062791                2.00203482                0.34772837               -0.02161884               -0.03424170                0.12082939               -0.00668887                0.02815332                0.00631466
               2.99988220                0.00051048                2.00229345                0.13840860                0.02637010               -0.02054797                0.12985727               -0.00749762                0.02406069                0.01637060
               4.00053816                0.00041859                2.00264054                0.22284107                0.04546286               -0.01345843                0.12835532               -0.00031784                0.02705243                0.01640252
               5.00079146                0.00050934                2.00224991                0.49570510               -0.00173637               -0.02797704                0.13294456                0.00625158                0.00473714                0.01525017
               6.00050343                0.00070944                2.00220029                0.95857830               -0.03183257               -0.04299031                0.12643524                0.00982633                0.00403810               -0.00177923
               7.00015480                0.00082075                2.00214815                0.99999999               -0.03507897               -0.03885393                0.11347399                0.00013782                0.00047377                0.01154052
               7.99980185                0.00089550                2.00225934                1.00000000               -0.03668690               -0.03689365                0.11788858               -0.00261098                0.00608920                0.01204756
               8.99942107                0.00089515                2.00250287                1.00000000               -0.03732439               -0.03821792                0.12678456               -0.00375151                0.00463262               -0.00247030
               9.99905536                0.00088584                2.00271976                0.99577568               -0.03657060               -0.03646490                0.12439082               -0.00527178                0.00518360               -0.00567583
               0.00060547                1.00034708                2.00178844                0.87073602               -0.03153715               -0.02824551                0.09832273               -0.00221931                0.00446632                0.01925148
               1.00029009                1.00033778                2.00174314                0.07664234               -0.02949024               -0.02911174                0.11317447               -0.00732612                0.01274888                0.01453030
               2.00001566                1.00028549                2.00185673                0.01000000               -0.01891066               -0.01946125                0.12543364                0.00592067                0.01870702                0.03298168
               2.99991188                1.00030500                2.00212788                0.01000000                0.02599442               -0.01679045                0.12149026                0.01596240                0.02615232               -0.03685786
               4.00053555                1.00028401                2.00254104                0.01000000                0.03983334               -0.01732586                0.12529568               -0.02503689                0.03199513               -0.05204618
               5.00070855                1.00022957                2.00216956                0.01000000               -0.00447812               -0.01870203                0.13131745               -0.03483476                0.00435096               -0.02493365
               6.00044599                1.00027954                2.00204523                0.01000000               -0.03226964               -0.02785533                0.14593202               -0.01224621                0.01489332               -0.03064233
               7.00006315                1.00043221                2.00219390                0.79386509               -0.03537256               -0.01568961                0.14190411               -0.00830167                0.01021424                0.08664788
               7.99973854                1.00052656                2.00230149                0.98495324               -0.03373856               -0.03981329                0.13624008                0.00402675               -0.00664494                0.01970194
               8.99938838                1.00051297                2.00236161                0.99999999               -0.03632879               -0.04056364                0.13461103               -0.00311589               -0.00991856                0.00559441
               9.99901196                1.00052119                2.00251758                0.99999999               -0.03764238               -0.03746623                0.12858369               -0.00328878               -0.00446248                0.01116240
               0.00056513                2.00005454                2.00195297                0.35290261               -0.03354894               -0.01883380                0.11624395               -0.00645661                0.00649576                0.02986451
               1.00022964                2.00007184                2.00183620                0.01000000               -0.02015922               -0.01544445                0.12386035                0.00546922                0.03102683                0.02398395
               2.00016194                2.00023868                2.00225846                0.01000001               -0.00133534                0.00138782                0.09072451                0.00658916               -0.02628030               -0.02141489
               3.00020293                2.00017467                2.00106059                0.01000000               -0.00245448               -0.00923621                0.14137995               -0.00449699               -0.03807598               -0.02324887
               4.00011285                2.00007208                2.00125023                0.01000001               -0.00518496               -0.01240540                0.14137538               -0.02972741                0.02042033               -0.05022974
               5.00009923                2.00013530                2.00139158                0.01000000               -0.00284946               -0.01358733                0.15169179               -0.03436272                0.00662799               -0.02855392
               6.00005586                2.00015234                2.00129632                0.01000001               -0.01787413               -0.01601905                0.16873024               -0.00900283                0.10470879               -0.01202906
               6.99974175                2.00050695                2.00367646                0.01000000               -0.01271232               -0.02143585                0.17317171               -0.01401560                0.05738879               -0.03618922
               7.99980162                2.00009923                2.00246237                0.01000000               -0.01888117               -0.02000265                0.16346490               -0.02649676               -0.08284678               -0.05918391
               8.99936412                2.00008388                2.00239153                1.00000000               -0.04142294               -0.03082301                0.14562829               -0.00188859               -0.01849637                0.03381189
               9.99897316                2.00013651                2.00266137                1.00000000               -0.03909669               -0.03042547                0.13192429                0.00901207                0.00299677                0.04110083
               0.00044173                2.99997040                2.00221258                0.15362361               -0.02264027                0.03223782                0.12479131               -0.00724078                0.01691742                0.03404220
               1.00021533                3.00002889                2.00213376                0.01000000               -0.01985619                0.03299292                0.12070067                0.01261505               -0.04029432                0.04537353
               2.00004461                3.00031325                2.00107980                0.01000000               -0.01133910               -0.00136687                0.14341634               -0.00888112               -0.03608213               -0.02400816
               2.99998855                3.00012028                2.00133164                0.01000001               -0.00321167               -0.00438797                0.12796307               -0.02986097                0.01056740                0.02500021
               3.99998038                3.00003590                2.00134634                0.01000001               -0.00237575               -0.00424553                0.13047329               -0.01938387               -0.00400947               -0.00645856
               4.99994103                2.99995782                2.00137571                0.01000000               -0.00430520               -0.01010668                0.14515841               -0.01841131               -0.00063543               -0.00739005
               5.99989427                2.99995916                2.00153063                0.01000001               -0.00525443               -0.01478938                0.16486868               -0.01485726               -0.00983015                0.02026741
               6.99983594                3.00000349                2.00154282                0.01000000               -0.01312990               -0.03364367                0.19208979               -0.00014625               -0.05728549               -0.08778863
               7.99963167                3.00012651                2.00100931                0.01000000               -0.02613058               -0.02001553                0.19505430               -0.01692764                0.02382598               -0.06269053
               8.99931333                2.99989651                2.00293820                0.01000000               -0.02723683               -0.01933306                0.16202176               -0.02307222                0.06096359               -0.08460617
               9.99908694                2.99991268                2.00317951                0.01983980               -0.02263959               -0.01443747                0.16420970               -0.03376331               -0.01890331               -0.03846476
               0.00030334                4.00069929                2.00268234                0.24358029               -0.01642489                0.04893664                0.13230408                0.00006378                0.02090493                0.03947165
               1.00013909                4.00073169                2.00278948                0.01000000               -0.02052041                0.04128967                0.14102180               -0.03191163               -0.06958963                0.05297308
               1.99989293                4.00021135                2.00132214                0.01000000               -0.01280155               -0.00821062                0.14624646               -0.03764242               -0.08035418                0.02034403
               2.99988306                4.00008691                2.00135413                0.01000001               -0.00026490               -0.00630159                0.13274813               -0.02052168               -0.02430708                0.01126459
               3.99988763                3.99998717                2.00105687                0.01000000               -0.00376553               -0.00899333                0.14133355               -0.01508154               -0.02149688               -0.01055290
               4.99980775                3.99993316                2.00126547                0.01603204               -0.00872920               -0.00726587                0.12374926               -0.01617587                0.01279752               -0.00739219
               5.99971305                3.99985655                2.00178910                0.01657071               -0.01181378               -0.01085692                0.12103198               -0.01904941                0.00613745                0.00136408
               6.99957147                3.99983408                2.00200903                0.01012345               -0.00715039               -0.02030747                0.16191029               -0.02463684               -0.06976482                0.00321234
               7.99957004                3.99969892                2.00117451                0.01000001               -0.02274796               -0.02637346                0.18394893               -0.02999527               -0.10526566               -0.00380244
               8.99911651                3.99969722                2.00092216                0.01000002               -0.06522386               -0.01226984                0.18624113               -0.02383866               -0.03911848               -0.06855563
               9.99826556                3.99984776                2.00189357                0.01000000               -0.08509497               -0.01226899                0.19926476               -0.01847593               -0.01088850               -0.02750448
               0.00037820                5.00094913                2.00226649                0.54934585               -0.03131608               -0.00503891                0.13389870                0.00564555                0.01641632                0.01054369
               1.00006504                5.00085468                2.00239758                0.01000000               -0.02208301               -0.01018752                0.14508405               -0.04000757               -0.05455236                0.00525675
               1.99993654                5.00014904                2.00121427                0.01000000               -0.01313741               -0.00740942                0.16732108               -0.03214920               -0.05061051                0.10225096
               2.99980229                4.99999424                2.00148687                0.01000000               -0.00520251               -0.00918373                0.14801371               -0.01806761               -0.01522500               -0.00330108
               3.99983249                4.99985603                2.00124876                0.01603338               -0.00270811               -0.01255396                0.12320288               -0.01619015               -0.02246988                0.01802882
               4.99974813                4.99981250                2.00138040                0.01457851               -0.01100645               -0.01411917                0.10765265               -0.01327775                0.00045454                0.00468221
               5.99961236                4.99974202                2.00180226                0.01000000               -0.01236501               -0.00853796                0.11863226               -0.01430603               -0.00680108               -0.06075832
               6.99950083                4.99959734                2.00191319                0.01000000               -0.02218677               -0.00524709                0.14945125               -0.01411771               -0.07515404               -0.07874314
               7.99916863                4.99959904                2.00125978                0.01000001               -0.04065565               -0.00276806                0.15945692               -0.02086886               -0.07095966               -0.02112965
               8.99868772                4.99965112                2.00192072                0.02209680               -0.03761492               -0.00748704                0.12662706               -0.01729307               -0.02876183                0.01753719
               9.99841633                4.99966730                2.00269856                0.07674998               -0.02713889               -0.01089510                0.15046695                0.00080753               -0.03301804                0.01603162
               0.00060515                6.00059851                2.00216006                0.99485240               -0.04661212               -0.03472058                0.12312955                0.00993387               -0.00963954                0.01008135
               1.00013903                6.00052794                2.00211974                0.04946306               -0.02473871               -0.03783262                0.15603436               -0.01343729                0.05587741                0.01589154
               2.00011038                6.00006316                2.00334123                0.01000001               -0.01621633               -0.02006201                0.15591800               -0.01270461               -0.05973196                0.11145242
               2.99981471                5.99990324                2.00134432                0.01000001               -0.01824050               -0.00998417                0.17384394               -0.01297713               -0.09319410               -0.01042420
               3.99974557                5.99973609                2.00177027                0.01657383               -0.00792503               -0.01423710                0.11857746               -0.01763408                0.00089692                0.00675745
               4.99965621                5.99965078                2.00178449                0.01000000               -0.00517412               -0.01499216                0.11768206               -0.01350719               -0.06606937               -0.00472359
               5.99964209                5.99968579                2.00094084                0.01000001               -0.01120550               -0.01399343                0.14719246                0.00722226               -0.08433623               -0.08159643
               6.99943210                5.99972914                2.00087589                0.01000001               -0.02716014               -0.00626388                0.15951371               -0.00641999               -0.03689104               -0.07941274
               7.99909888                5.99964356                2.00135034                0.01000001               -0.03648516               -0.00441097                0.16181929               -0.00954653               -0.04345474               -0.03986546
               8.99870239                5.99954748                2.00169670                0.01000001               -0.04247677               -0.01067436                0.14113881               -0.00286876               -0.04927083               -0.05344028
               9.99824935                5.99962986                2.00250439                0.06011032               -0.04530430               -0.02036499                0.15230459               -0.00389737               -0.03641199               -0.04226105
               0.00071802                7.00025472                2.00205816                0.99999999               -0.03863678               -0.03325934                0.10920112               -0.00431825                0.01800214                0.01134835
               1.00033165                7.00009803                2.00230450                0.95554486               -0.02054312               -0.03637135                0.14189418               -0.00837612                0.07909200                0.01397599
               2.00030716                6.99974780                2.00370175                0.01000000               -0.02309149               -0.01453772                0.17979866               -0.01805520               -0.04916635               -0.04203126
               2.99986982                6.99979456                2.00159797                0.01000000               -0.02874446               -0.01759309                0.19151253                0.00442165               -0.10396850               -0.05111383
               3.99973227                6.99957129                2.00195777                0.01012896               -0.01707687               -0.01209021                0.15897108               -0.01526993               -0.01023553               -0.07182062
               4.99952829                6.99951266                2.00188930                0.01000000               -0.00269100               -0.02382019                0.14627788               -0.00751417               -0.08354155               -0.07445072
               5.99967845                6.99946215                2.00085748                0.01000001               -0.00568132               -0.02317388                0.15779636               -0.00137572               -0.08243779               -0.03394148
               6.99941466                6.99947206                2.00109161                0.01000000               -0.02595456               -0.02116406                0.13621241               -0.00922476               -0.04118373               -0.03197252
               7.99915936                6.99951082                2.00121184                0.01000002               -0.03853072                0.02679809                0.18130001               -0.04062622               -0.06208700               -0.01372182
               8.99864405                6.99943763                2.00149175                0.02163744               -0.04928702               -0.01675467                0.14484151               -0.02301084               -0.05042668                0.00853828
               9.99817362                6.99926000                2.00233235                0.21123064               -0.04704270               -0.02558850                0.15095888                0.00407893               -0.03918579               -0.00434775
               0.00083218                7.99993333                2.00217183                1.00000000               -0.03537412               -0.03346741                0.11212285               -0.00467087                0.01172688                0.01810897
               1.00047844                7.99980052                2.00227780                0.95288492               -0.03897173               -0.03087487                0.13101143                0.00196100                0.01681617               -0.01111014
               2.00005274                7.99977240                2.00244606                0.01000000               -0.01993964               -0.01944614                0.15965363               -0.02256808               -0.06744068               -0.09201129
               3.00007964                7.99955138                2.00092513                0.01000000               -0.01653343               -0.03609228                0.19400205               -0.00401827               -0.07169981                0.02637641
               3.99972207                7.99949428                2.00113796                0.01000001               -0.02322896               -0.02478395                0.17857830               -0.01738011               -0.01080479               -0.11114179
               4.99961506                7.99917438                2.00121301                0.01000001               -0.00334522               -0.04031556                0.15241392               -0.00255750               -0.02216423               -0.07607790
               5.99965517                7.99922231                2.00134790                0.01000001               -0.02080665               -0.03017622                0.15779822                0.00961740               -0.03527075               -0.04256891
               6.99919893                7.99930586                2.00130440                0.01000002               -0.06671880               -0.02181710                0.19273453                0.06840940               -0.01447155               -0.01668336
               7.99832079                8.00017952                2.00203983                0.02886489               -0.03529659                0.00885230                0.11572837                0.00253697                0.01074987                0.04863368
               8.99849300                7.99921239                2.00311975                0.14947585                0.01826987               -0.01851395                0.12603119               -0.03463930               -0.02069862               -0.02184044
               9.99868619                7.99911809                2.00386374                0.65239790                0.01931919               -0.01376276                0.16693201               -0.00024381               -0.02628744               -0.03027328
               0.00089022                8.99958537                2.00236462                1.00000000               -0.03584272               -0.03400351                0.11779409               -0.00455770               -0.00485497                0.01231531
               1.00053180                8.99948053                2.00218941                0.99999999               -0.03926424               -0.03308162                0.12634667               -0.00364913                0.00076959               -0.00999911
               2.00010494                8.99935887                2.00212357                0.79185048               -0.02321089               -0.04056621                0.14092608               -0.00809527                0.05216684               -0.02892174
               3.00006758                8.99907272                2.00309665                0.01000000               -0.01716361               -0.02928922                0.15784184               -0.00535700               -0.07724217                0.05930931
               3.99976167                8.99907561                2.00083334                0.01000002               -0.01592363               -0.06071197                0.17594105               -0.00904935               -0.08176828               -0.04871554
               4.99974911                8.99870635                2.00177063                0.02224382               -0.00111761               -0.03501760                0.11543388               -0.00480263                0.01912424               -0.03405688
               5.99973932                8.99885863                2.00162956                0.01000001                0.00382644               -0.04583385                0.13656546                0.02131058               -0.01156618               -0.04933568
               6.99982564                8.99903572                2.00221166                0.02310431               -0.02178724               -0.02503320                0.15450242                0.07598478                0.04468251                0.01548197
               7.99930357                8.99968787                2.00394506                0.01000001               -0.04064717               -0.09292632                0.27467693                0.08376570               -0.07895841                0.00996827
               8.99901269                8.99906735                2.00228682                1.00000000               -0.04731201               -0.03982418                0.20272482               -0.01028397               -0.12015320               -0.07445738
               9.99835733                8.99898474                2.00314207                1.00000000               -0.06553619               -0.03450815                0.20274677               -0.02070634               -0.00481127               -0.07744082
               0.00095071                9.99925326                2.00248538                0.99578163               -0.03187563               -0.03321152                0.11190135               -0.00538883                0.00376366                0.01026303
               1.00063195                9.99913889                2.00230604                0.99999999               -0.03260287               -0.03416446                0.11671398               -0.00459339                0.01672545               -0.00038776
               2.00029865                9.99896108                2.00236894                0.98868376               -0.01880951               -0.03977934                0.12793095                0.01070642                0.06539692               -0.00146901
               3.00025576                9.99896559                2.00324233                0.01000000               -0.01955984               -0.01071246                0.16436625               -0.01523358               -0.02548363               -0.03879585
               3.99990745                9.99828004                2.00175902                0.01000000               -0.02598823               -0.07955706                0.18574773               -0.00999970               -0.03929440               -0.01731455
               4.99973600                9.99847402                2.00247987                0.07692695               -0.00777234               -0.02323244                0.13700532               -0.00003138                0.01332286               -0.03517512
               5.99975201                9.99830564                2.00237527                0.05993490                0.00766940               -0.05529924                0.14644497                0.01782774                0.01565889               -0.03357558
               6.99988939                9.99880519                2.00335305                0.21278323                0.01062346               -0.02305270                0.16592753                0.00714311                0.01665711                0.01738581
               7.99996448                9.99832100                2.00414830                0.66956725               -0.04494710               -0.13668703                0.31054113                0.04662602               -0.10050965               -0.07078454
               8.99899044                9.99841590                2.00310369                1.00000000               -0.07635988               -0.06514494                0.20040598                0.00312165               -0.09262879               -0.00238274
               9.99843728                9.99842793                2.00392231                0.99999999               -0.05531645               -0.05568156                0.17959094                0.00919749                0.00351517                0.00066998
               0.00061229                0.00068636                3.00282024                1.00000000               -0.02972862               -0.02944662                0.09523829               -0.00058890               -0.00426296               -0.00444642
               1.00031501                0.00069837                3.00275502                0.74005153               -0.02826110               -0.02828347                0.09623174                0.00042105               -0.00546690               -0.00230034
               2.00004707                0.00069649                3.00268088                0.21737362               -0.02285969               -0.02101356                0.08976061               -0.00350987               -0.00714659                0.00048570
               2.99985781                0.00067113                3.00259537                0.03847221                0.02825041               -0.01661957                0.08910573               -0.00828761               -0.01249576                0.00225694
               4.00061208                0.00052482                3.00256621                0.10471320                0.03962518               -0.01832544                0.08695213               -0.00712116                0.01860378                0.00437538
               5.00065032                0.00053520                3.00268929                0.31046272               -0.00918403               -0.01612291                0.10454160                0.00272325                0.02226715               -0.00254110
               6.00042840                0.00067662                3.00311297                0.83602886               -0.02834581               -0.03222964                0.11888998                0.00364767                0.02471901               -0.00180906
               7.00008340                0.00076516                3.00333986                0.97981590               -0.03657315               -0.04071961                0.12764375               -0.00002958                0.01376138               -0.00387411
               7.99969694                0.00086169                3.00356605                0.99917376               -0.03883282               -0.04028662                0.13004960                0.00219276                0.01129843               -0.00516455
               8.99930675                0.00094417                3.00376804                1.00000000               -0.03857924               -0.04126932                0.12932798                0.00203301                0.00869549                0.00060478
               9.99892535                0.00100981                3.00394836                1.00000000               -0.03813930               -0.04241812                0.12798127                0.00019859                0.00590923                0.00571608
               0.00059440                1.00039190                3.00270041                0.74255950               -0.02802432               -0.02783398                0.09454668                0.00013814               -0.00322323               -0.00543098
               1.00031416                1.00041553                3.00265928                0.01000000               -0.02844020               -0.02851985                0.09764490                0.00711627               -0.00480823               -0.00292882
               2.00002559                1.00048635                3.00257857                0.01000000               -0.02266922               -0.01599249                0.09488485                0.01597407               -0.01219813               -0.03378391
               2.99986077                1.00050493                3.00242907                0.01000000                0.02916195               -0.01666371                0.09378157                0.01284070               -0.01281569                0.02046170
               4.00060883                1.00034157                3.00250643                0.01000000                0.03704401               -0.01672610                0.09586233               -0.03305239                0.02469504                0.00186529
               5.00060165                1.00037397                3.00262510                0.01000000               -0.01294676               -0.01561369                0.11309411               -0.02758494                0.02546910                0.01093390
               6.00034990                1.00035433                3.00313375                0.01000001               -0.03055400               -0.01945636                0.12826838               -0.03250856                0.02400083                0.01041462
               6.99999057                1.00035796                3.00333235                0.58084113               -0.03602692               -0.03935386                0.12678123               -0.00044586                0.00837008               -0.00012732
               7.99962936                1.00045883                3.00351678                0.96087653               -0.03687774               -0.03674190                0.12689696                0.00531017                0.00588327               -0.00408980
               8.99925302                1.00053147                3.00371353                0.99999998               -0.03838325               -0.04085971                0.13185045                0.00097799                0.00355385               -0.00410960
               9.99886169                1.00058563                3.00388108                0.99602774               -0.03913216               -0.04305218                0.13284982                0.00121112                0.00157391               -0.00229428
               0.00056778                2.00012968                3.00257693                0.22561646               -0.02049040               -0.02262395                0.08646858               -0.00449325               -0.00005023               -0.00429748
               1.00036288                2.00012797                3.00254506                0.01000000               -0.01453120               -0.02187677                0.09306656                0.01339022               -0.03595616               -0.00683751
               2.00027716                2.00037664                3.00180473                0.01000001               -0.00517320               -0.00083686                0.08008115                0.01353981                0.01270838                0.02203338
               3.00025941                2.00033785                3.00283069                0.01000000               -0.00975807               -0.01464752                0.13236704               -0.00486742                0.04550629                0.01070132
               4.00008200                2.00019030                3.00282698                0.01000000               -0.00867749               -0.01380709                0.13948409               -0.04232864                0.00111592                0.00282476
               5.00008586                2.00022293                3.00303753                0.01166226               -0.01438781               -0.01967217                0.13701738               -0.03522139                0.01118009                0.01476066
               5.99979424                2.00028749                3.00336338                0.01000000               -0.00579389               -0.02164273                0.17058421               -0.04821316                0.00178159                0.00836932
               6.99996998                1.99997808                3.00339811                0.01337959               -0.00823056               -0.02168428                0.06057672               -0.03909011                0.00534305                0.00165050
               7.99962963                2.00012685                3.00350554                0.01000001               -0.03852413               -0.02033739                0.11775293               -0.02137431               -0.01302026                0.01910276
               8.99919950                2.00012697                3.00356852                0.68265762               -0.03941819               -0.03717256                0.12563541               -0.01195881               -0.00957194               -0.01404857
               9.99884126                2.00014877                3.00367446                0.93596017               -0.03582383               -0.03649994                0.12175945                0.00320481               -0.00853226               -0.00573214
               0.00050795                2.99993942                3.00249450                0.05073559               -0.01729515                0.03225873                0.08296549               -0.01431365                0.00083169                0.00088146
               1.00033500                2.99997800                3.00241335                0.01000000               -0.02107227                0.03409446                0.08896346                0.00642438                0.01877980                0.01041269
               2.00008651                3.00046962                3.00287138                0.01000000               -0.01926216               -0.00489169                0.13374015               -0.01078006               -0.00205169                0.06262385
               2.99994976                3.00021198                3.00255904                0.01000000               -0.01046601               -0.01328771                0.13004318               -0.04419973               -0.02177956               -0.00360209
               3.99987719                3.00006543                3.00261000                0.01000000               -0.00748649               -0.01515376                0.14123395               -0.03271555                0.00379637                0.00051839
               4.99980003                2.99998053                3.00290305                0.01000001               -0.01233537               -0.01870054                0.14292305               -0.03535318                0.01390761               -0.02467957
               5.99963048                2.99992147                3.00329760                0.01172251               -0.02153099               -0.02645041                0.16238333               -0.02367264                0.02764529               -0.04838039
               6.99936941                2.99992427                3.00385579                0.01621312               -0.02887505               -0.01390272                0.16307786               -0.03123712               -0.00039610               -0.01357354
               7.99905298                3.00005208                3.00387655                0.01323433               -0.01887413               -0.02215913                0.17662174               -0.03945721               -0.05979142               -0.00062894
               8.99899193                2.99978802                3.00327017                0.01287026               -0.00853889               -0.02348177                0.09418026               -0.04524624               -0.03569791                0.00518445
               9.99888220                2.99985563                3.00353849                0.04356917               -0.01097250               -0.01325063                0.09491584               -0.04357115               -0.00503232                0.01635615
               0.00020434                4.00077486                3.00264552                0.12220355               -0.02431783                0.04706719                0.09260156               -0.01335933                0.00109882                0.03683231
               0.99996116                4.00080986                3.00282101                0.01000000               -0.01883852                0.04162830                0.10508012               -0.04261463               -0.02613057                0.05066752
               1.99982757                4.00027881                3.00292402                0.01000000               -0.00907792               -0.02206868                0.14472560               -0.04643054               -0.03173059                0.02585590
               2.99977961                4.00007210                3.00265558                0.01000000               -0.00842169               -0.01354638                0.14400085               -0.03394146               -0.02139358                0.01869591
               3.99965914                3.99988723                3.00282676                0.01246003               -0.01284255               -0.02094867                0.14583957               -0.02211026               -0.02519347               -0.01088770
               4.99952276                3.99984891                3.00247522                0.01000000               -0.01410505               -0.02029391                0.14146350               -0.02366443               -0.04296173               -0.04222554
               5.99937704                3.99975849                3.00242139                0.01000000               -0.01540597               -0.01438838                0.12508017               -0.02246761                0.00494868               -0.05482451
               6.99921464                3.99970002                3.00323668                0.01000001               -0.02001511               -0.01823585                0.13243498               -0.02030204                0.02699592               -0.05525047
               7.99897674                3.99968367                3.00368343                0.01000001               -0.03618054               -0.03240477                0.18885565               -0.02612522               -0.02735578               -0.03644837
               8.99849103                3.99965734                3.00372482                0.01000001               -0.05710554               -0.01067925                0.20148446               -0.04000132               -0.02882367               -0.04250074
               9.99783463                3.99988375                3.00397435                0.04141835               -0.06564001               -0.00789862                0.16239575               -0.03202885                0.00863378               -0.02446612
               0.00017076                5.00088076                3.00273330                0.35095510               -0.01919974               -0.00415191                0.11044389               -0.00016706               -0.00790256                0.03923851
               0.99997876                5.00081057                3.00290115                0.01000000               -0.01375496               -0.01419683                0.12297936               -0.04060598               -0.00306266                0.03538015
               1.99989566                5.00002824                3.00335226                0.01166585               -0.01581262               -0.02759887                0.15514934               -0.05523442               -0.01732756                0.00467974
               2.99966251                4.99994105                3.00295952                0.01000001               -0.01187459               -0.01982923                0.14129754               -0.02231569               -0.05768803                0.02906854
               3.99965817                4.99964645                3.00246438                0.01000000               -0.01035143               -0.02315844                0.14158672               -0.02226112               -0.05766823               -0.03551368
               4.99945548                4.99957465                3.00215325                0.01000000               -0.01640745               -0.02266469                0.13351411               -0.00135284               -0.03482800               -0.02739396
               5.99933002                4.99963370                3.00237276                0.01316966               -0.02086479               -0.02234394                0.12012538               -0.00857823                0.00330998                0.00128267
               6.99903819                4.99955956                3.00298968                0.01073683               -0.03784276               -0.02349238                0.14503957               -0.02969622               -0.00912192               -0.01885712
               7.99857316                4.99940398                3.00318895                0.01000001               -0.05231833               -0.02193522                0.19812747               -0.03257386               -0.06716116               -0.03381167
               8.99799182                4.99957444                3.00253274                0.01325271               -0.03921860               -0.01516968                0.13017958               -0.01667141               -0.04899108               -0.05132064
               9.99778879                4.99969766                3.00300842                0.07800301               -0.02030266               -0.01846275                0.07380551                0.00369646               -0.01047646               -0.03885352
               0.00034139                6.00069182                3.00321114                0.96903647               -0.03398297               -0.02609653                0.11652580               -0.00014434               -0.00333232                0.03922988
               1.00000156                6.00052592                3.00344944                0.01000000               -0.03744987               -0.03191241                0.13085277               -0.04211625               -0.03001556                0.02623671
               1.99959240                5.99972683                3.00309366                0.01000000               -0.01432411                0.00106870                0.06997884               -0.04875409               -0.02303511                0.00262974
               2.99971508                5.99967551                3.00347879                0.01172708               -0.00060367               -0.02753538                0.17322232               -0.01443162               -0.05717454                0.02797064
               3.99958032                5.99942406                3.00237202                0.01000000               -0.01033161               -0.02272958                0.12488175               -0.02143122               -0.07582344                0.00658166
               4.99950845                5.99939562                3.00235378                0.01317147               -0.01798789               -0.02466579                0.11883647               -0.00686891               -0.00234762                0.00447977
               5.99922056                5.99931161                3.00294415                0.01000000               -0.03290079               -0.03608853                0.17254457               -0.01749179               -0.00430747               -0.00207857
               6.99885043                5.99923018                3.00319048                0.01000001               -0.04550926               -0.03176784                0.18666934               -0.01453354               -0.03569416               -0.05518641
               7.99831038                5.99924497                3.00323710                0.01332834               -0.04932556               -0.01941680                0.16820511               -0.00507355               -0.06174174               -0.01071189
               8.99786392                5.99935394                3.00282315                0.01000000               -0.03241331               -0.04258512                0.13361064                0.00761026               -0.05944187               -0.00224503
               9.99766211                5.99951450                3.00304281                0.04144035               -0.02018087               -0.05745547                0.09774073                0.00400404               -0.03662476               -0.01464897
               0.00049966                7.00035883                3.00329609                0.98568353               -0.03982329               -0.03432017                0.12364102                0.00008296               -0.00672754                0.01946684
               1.00010143                7.00017232                3.00341636                0.72525879               -0.03643361               -0.03517409                0.12068127                0.00099410               -0.00647006                0.00177054
               1.99977099                7.00004962                3.00353742                0.01338794               -0.02123900               -0.00009563                0.06018105               -0.01807263               -0.01433859                0.02450694
               2.99967665                6.99939035                3.00384332                0.01622017               -0.01307752               -0.03366879                0.15421705               -0.03421035               -0.03416000               -0.00896634
               3.99950944                6.99919186                3.00317813                0.01000001               -0.01230476               -0.02632349                0.12968963               -0.01914808               -0.06530998                0.02342331
               4.99943055                6.99908133                3.00292611                0.01074287               -0.01819054               -0.03990725                0.14027154               -0.02200339               -0.02364779               -0.01334737
               5.99914563                6.99891193                3.00315615                0.01000001               -0.03081984               -0.04675763                0.18473644               -0.00900746               -0.05677291               -0.03580672
               6.99881416                6.99892420                3.00272537                0.01000000               -0.03988502               -0.03470516                0.18742185                0.01258230               -0.02254200               -0.01236394
               7.99834793                6.99901565                3.00362580                0.01000001               -0.04698319               -0.05230517                0.18016454               -0.00764733               -0.04359679               -0.09582797
               8.99787449                6.99872273                3.00290054                0.01000001               -0.04000825               -0.03383139                0.21249740               -0.03141723               -0.07997285               -0.04934397
               9.99754776                6.99854855                3.00302315                0.03415921               -0.03267299               -0.04624731                0.17038460               -0.00328260               -0.05471426               -0.00209483
               0.00071608                8.00000542                3.00339812                1.00000000               -0.03854195               -0.03556304                0.12266811                0.00375097               -0.00648426                0.02029696
               1.00033066                7.99982244                3.00342069                0.95134546               -0.03515825               -0.03594774                0.12143869                0.00870710               -0.00550720                0.00378731
               2.00001291                7.99972492                3.00348061                0.01000001               -0.02210155               -0.03968507                0.11704640               -0.02142501                0.01444412               -0.02068887
               2.99988863                7.99900214                3.00385616                0.01324499               -0.02532696               -0.02835578                0.19160308               -0.03653424               -0.01429535               -0.06172977
               3.99950637                7.99889759                3.00357468                0.01000001               -0.02701588               -0.03932212                0.17571682               -0.01070641               -0.04903066               -0.03192170
               4.99934831                7.99859748                3.00304832                0.01000001               -0.01544136               -0.05127249                0.19056997               -0.01833192               -0.04090690               -0.07499247
               5.99919755                7.99837646                3.00315665                0.01334677               -0.01749724               -0.04615929                0.16059524                0.00575469                0.00049408               -0.06700296
               6.99899837                7.99853607                3.00385450                0.01000001               -0.04193242               -0.03298832                0.17406371               -0.02191165               -0.07536289               -0.03890857
               7.99835890                7.99819886                3.00232634                0.01000001               -0.06478451               -0.04916055                0.25617035                0.00242502               -0.05065706               -0.00071352
               8.99770268                7.99867732                3.00250185                0.05252830               -0.02070324               -0.01964698               -0.00074321                0.03580915               -0.00228340               -0.01048448
               9.99794483                7.99858955                3.00328952                0.56190043                0.02421585               -0.01445482               -0.02288561               -0.00654076               -0.01468251                0.01025753
               0.00094063                8.99964757                3.00352524                1.00000000               -0.03845554               -0.03530466                0.11889819                0.00198706                0.00126605                0.01802583
               1.00055607                8.99945336                3.00349355                0.99999997               -0.03889165               -0.03708397                0.12628903                0.00195314               -0.00204559                0.00285281
               2.00016279                8.99925591                3.00340286                0.51467813               -0.03913895               -0.04184840                0.12760928               -0.01450049               -0.01164997               -0.01580164
               2.99977329                8.99882323                3.00312312                0.01291039               -0.02314097               -0.00907101                0.07129599               -0.03614725               -0.00457177               -0.03665026
               3.99969997                8.99840542                3.00352354                0.01000001               -0.00941219               -0.05455636                0.19156638               -0.01602879               -0.04859061               -0.03680601
               4.99958505                8.99805588                3.00230851                0.01329101               -0.01889249               -0.03576537                0.12248345               -0.00603826               -0.05602050               -0.05411655
               5.99932212                8.99798875                3.00273173                0.01000000               -0.05157660               -0.02670205                0.12844180                0.02228340               -0.00003149               -0.06337139
               6.99855352                8.99826443                3.00309379                0.01000001               -0.05334686               -0.02292090                0.16409595               -0.01998249                0.07621041               -0.09038355
               7.99825519                8.99803244                3.00547467                0.09462581               -0.01767644               -0.00305757                0.05894560               -0.00250013                0.00370936                0.07761088
               8.99819999                8.99832979                3.00440684                0.99999999               -0.03313565               -0.04758166                0.21071592                0.03838537               -0.09166363                0.06272032
               9.99759247                8.99825945                3.00512094                1.00000000               -0.06075131               -0.04538548                0.19835548               -0.02078933               -0.00058781                0.05792896
               0.00114423                9.99929932                3.00359203                0.99475446               -0.03828578               -0.03482470                0.11523559               -0.00149502                0.01051521                0.01338811
               1.00076138                9.99908076                3.00352326                0.99904332               -0.03955994               -0.03725988                0.12160633               -0.00003811                0.00547575               -0.00035869
               2.00035304                9.99888795                3.00339359                0.92397530               -0.03725992               -0.03679675                0.11618351                0.00602205                0.00456308               -0.01181955
               3.00001618                9.99882072                3.00333743                0.03071215               -0.01999443               -0.00025121                0.07386938               -0.02978563                0.01226932               -0.00835557
               3.99995315                9.99780646                3.00371296                0.04143675               -0.01859799               -0.05989594                0.15081802               -0.02161016               -0.02853765                0.00247137
               4.99964422                9.99788217                3.00273850                0.07795144               -0.02592414               -0.01737144                0.06839362                0.00771481               -0.04349694               -0.01118897
               5.99943466                9.99784241                3.00292601                0.04145860               -0.05445951               -0.01463328                0.09084531                0.02102841               -0.00465452               -0.03087091
               6.99855503                9.99807766                3.00332243                0.03604081               -0.05955639               -0.01867786                0.11450116                0.01491617                0.09892599               -0.06289462
               7.99824354                9.99813771                3.00616181                0.59990716               -0.01558307                0.01052768                0.07874246               -0.01876369               -0.00760519                0.02778141
               8.99824337                9.99772568                3.00506412                1.00000000               -0.02869010               -0.06041127                0.19604510               -0.01845542               -0.08898899                0.00235812
               9.99766973                9.99768184                3.00577733                1.00000000               -0.05736328               -0.05776089                0.18555739                0.00334214                0.00073702               -0.00169206
               0.00063608                0.00077017                4.00372437                0.96641787               -0.02914861               -0.02884081                0.09719191                0.00165793                0.00319234                0.00298088
               1.00034459                0.00079956                4.00375263                0.77982107               -0.03043044               -0.03103987                0.10181131                0.00072182                0.00452740                0.00239905
               2.00002747                0.00084225                4.00383003                0.27317781               -0.02988192               -0.03562765                0.10721910                0.00187675                0.01333621                0.00134547
               2.99974695                0.00088822                4.00407556                0.06917344                0.03944206               -0.04093058                0.11621640               -0.01275443                0.01948522                0.00264013
               4.00081631                0.00062566                4.00437958                0.13994208                0.04715421               -0.05651130                0.13124844               -0.01335495                0.01283596                0.00245633
               5.00069004                0.00058690                4.00434074                0.36992021               -0.02345363               -0.04868919                0.13605045               -0.00964117                0.00337421                0.00104949
               6.00034724                0.00063170                4.00457809                0.93877153               -0.03565414               -0.03942730                0.12659813               -0.00427979                0.00671110               -0.00340846
               6.99997696                0.00075829                4.00470102                1.00000000               -0.03737993               -0.03868685                0.12776981                0.00000948                0.00280464                0.00130758
               7.99959964                0.00089074                4.00486033                0.99999999               -0.03821455               -0.03854662                0.12951345                0.00043752                0.00866852                0.00138065
               8.99921266                0.00101627                4.00508943                1.00000000               -0.03933653               -0.03859706                0.13170681                0.00044938                0.01006195               -0.00012887
               9.99881291                0.00113473                4.00527939                0.99991269               -0.03997556               -0.03855268                0.13340355                0.00138947                0.00722344                0.00429719
               0.00062327                1.00048176                4.00367937                0.78483107               -0.03074983               -0.02978337                0.09977710                0.00032875                0.00156559                0.00429505
               1.00031577                1.00048916                4.00369604                0.01640486               -0.03106833               -0.03092691                0.10329372               -0.00288304                0.00211943                0.00374425
               2.00000190                1.00048597                4.00375443                0.01000000               -0.02940336               -0.02278523                0.10879676                0.00463875                0.01253244                0.00642839
               2.99972770                1.00047892                4.00400352                0.01000000                0.04157592               -0.03147497                0.12129244               -0.00407895                0.02667519               -0.01286139
               4.00083342                1.00006054                4.00445828                0.01000000                0.04314518               -0.03003293                0.13954416               -0.06334415                0.02162174               -0.03253511
               5.00059061                1.00010001                4.00443145                0.01000000               -0.03073361               -0.02171741                0.14366585               -0.03633635               -0.00410082               -0.02538422
               6.00021875                1.00023742                4.00461059                0.01000000               -0.03715398               -0.02379098                0.12726945               -0.01724594               -0.00144533               -0.00016191
               6.99984753                1.00037142                4.00472952                0.70099854               -0.03718632               -0.03708800                0.12705365               -0.00013277               -0.00441794                0.01030091
               7.99947502                1.00050528                4.00483943                0.97850385               -0.03761811               -0.03846097                0.12795059                0.00150184               -0.00283968                0.00251496
               8.99909517                1.00063030                4.00499862                0.99999996               -0.03833376               -0.03850026                0.12886573                0.00175115               -0.00002930                0.00072606
               9.99870835                1.00074920                4.00517457                0.99761844               -0.03868182               -0.03851339                0.13113990                0.00077630                0.00043017                0.00664420
               0.00062786                2.00017450                4.00368234                0.28392712               -0.03451371               -0.02811598                0.10297355                0.00052186                0.00120205                0.01413838
               1.00028272                2.00018102                4.00369753                0.01000000               -0.02486874               -0.02639815                0.10634261                0.00551580                0.00479980                0.01636283
               2.00013048                2.00038654                4.00386009                0.01000001               -0.00959604               -0.00197710                0.13316829               -0.00331594               -0.00966775                0.00302182
               3.00009080                2.00025872                4.00370793                0.01000000               -0.01010745               -0.01277886                0.11120180               -0.01374573               -0.00491269               -0.00472053
               3.99992833                2.00002500                4.00403991                0.01130218               -0.01521836               -0.00070268                0.11683651               -0.06136481                0.00520351               -0.02281704
               4.99978643                2.00015256                4.00413193                0.01000000               -0.00987102               -0.00367391                0.11684332               -0.04640699                0.00960114               -0.01702214
               5.99973091                2.00015588                4.00470800                0.01739996               -0.00399921               -0.01519437                0.09645917               -0.04301699                0.02406212               -0.00535259
               6.99970645                2.00001653                4.00488800                0.01014840               -0.01800598               -0.02389833                0.11798072               -0.03164049               -0.01833747                0.00653204
               7.99937079                2.00012152                4.00481742                0.01000000               -0.03513427               -0.02846151                0.12343456               -0.01119112               -0.02327147               -0.01169404
               8.99900376                2.00024627                4.00490424                0.75054776               -0.03900795               -0.03931950                0.13080618                0.00426038               -0.00816825                0.00191074
               9.99859064                2.00036446                4.00509655                0.95367783               -0.04131279               -0.04046413                0.13728693               -0.00111472               -0.00469608                0.01257888
               0.00062067                2.99991944                4.00387189                0.08403555               -0.04066265                0.05113199                0.10841010               -0.02850057                0.00302569                0.04263413
               1.00021405                2.99996119                4.00391303                0.01000000               -0.03813975                0.05381125                0.11534809               -0.02088779               -0.01137610                0.06139962
               1.99985788                3.00044643                4.00375460                0.01000000               -0.01998567               -0.00694763                0.11182179               -0.02222958               -0.01721930                0.01973363
               2.99981433                3.00022334                4.00393251                0.01000000               -0.00727912               -0.00991853                0.13756392               -0.04691431                0.00029614                0.02315853
               3.99971229                3.00004649                4.00417102                0.01000001               -0.01413708               -0.00549829                0.13631548               -0.02805085               -0.00722592               -0.00688544
               4.99953159                3.00002653                4.00423417                0.01000000               -0.01089276               -0.01570488                0.14113479               -0.02727561                0.00516306               -0.00610081
               5.99949444                2.99993354                4.00477830                0.01000000               -0.01412586               -0.02354878                0.12189020               -0.04067155                0.00678621               -0.02753240
               6.99924907                2.99989345                4.00480438                0.01174958               -0.02364888               -0.02106720                0.10966716               -0.04272913               -0.03107322               -0.01958978
               7.99902146                2.99993604                4.00454175                0.01000000               -0.01558182               -0.02319853                0.16947819               -0.04427769               -0.01867077                0.00456581
               8.99893744                2.99984391                4.00482181                0.01637786               -0.02858975               -0.03308104                0.13916035               -0.03753863                0.00649492                0.01092896
               9.99844967                2.99993992                4.00507782                0.04856848               -0.04877703               -0.02379773                0.14047116               -0.02297211               -0.00719952                0.01470293
              -0.00002566                4.00119714                4.00453437                0.16096397               -0.06363608                0.06244218                0.13772356               -0.03080076               -0.00105024                0.04652352
               0.99933798                4.00125724                4.00489108                0.01000000               -0.02752966                0.04863319                0.14930944               -0.08893812               -0.06431864                0.06513615
               1.99942374                4.00024759                4.00421666                0.01130433                0.01072368               -0.01867159                0.12021399               -0.07615715               -0.06440925                0.02807523
               2.99955245                4.00006035                4.00423415                0.01000001                0.00701901               -0.02354638                0.13674028               -0.03052403               -0.03525281                0.01339085
               3.99956412                3.99991503                4.00397366                0.01000000               -0.00992872               -0.02229972                0.14612775               -0.02243937               -0.02727220               -0.00915412
               4.99935388                3.99983846                4.00409474                0.01000000               -0.02567795               -0.03202371                0.18156981               -0.03092618               -0.00783236               -0.02181576
               5.99905057                3.99968490                4.00429070                0.01000000               -0.02522593               -0.03443071                0.20626502               -0.04477922               -0.00555118               -0.04211788
               6.99884936                3.99959518                4.00465773                0.01523910               -0.02578920               -0.03135303                0.15253273               -0.03871126               -0.00359506               -0.01198632
               7.99853478                3.99965755                4.00495162                0.01262202               -0.03001194               -0.02834560                0.11954727               -0.03748239               -0.01863366                0.02576280
               8.99824912                3.99958464                4.00495185                0.01000001               -0.02978016               -0.01587671                0.11407620               -0.04090281               -0.00720477               -0.01053358
               9.99793918                3.99988850                4.00514149                0.04655889               -0.03099400               -0.00590747                0.08133421               -0.02932613                0.02072467               -0.03653282
              -0.00011555                5.00116828                4.00447536                0.41165950               -0.04996178               -0.01884113                0.13906169               -0.01906328               -0.00263044                0.01507052
               0.99938483                5.00093386                4.00485717                0.01000000               -0.01764145               -0.03598882                0.14973684               -0.03885285               -0.05410204               -0.00371323
               1.99953162                5.00007300                4.00431725                0.01000000                0.00757868               -0.01584981                0.11215227               -0.04924300               -0.06072561                0.02579331
               2.99953641                4.99975241                4.00431282                0.01000000               -0.00231095               -0.02407513                0.14118827               -0.03160490               -0.03426663                0.01483220
               3.99948540                4.99960050                4.00408049                0.01000000               -0.01966038               -0.03805304                0.18211881               -0.02881879               -0.04301813                0.00389619
               4.99914320                4.99938606                4.00405068                0.01000000               -0.03216362               -0.04354758                0.20795796               -0.03361607               -0.02708955               -0.01587847
               5.99884213                4.99924492                4.00420476                0.01233610               -0.03205008               -0.04120379                0.19229374               -0.02254980               -0.00590658               -0.02428869
               6.99850220                4.99926639                4.00481398                0.01000000               -0.02798895               -0.03527316                0.15197510               -0.01499444                0.00869246               -0.02980804
               7.99828235                4.99936913                4.00522233                0.01000001               -0.03068849               -0.03325366                0.14862230               -0.00217045               -0.03883357               -0.02072295
               8.99788843                4.99952638                4.00452431                0.01000001               -0.05134635               -0.02249330                0.18941684               -0.00443169               -0.05656755               -0.03468135
               9.99725542                4.99982177                4.00417468                0.08594441               -0.06330034               -0.02831748                0.16857545               -0.01354313               -0.05740158               -0.02865578
               0.00006192                6.00082032                4.00449058                0.96632335               -0.04057156               -0.03555984                0.12707082               -0.00536097               -0.00543116                0.01421701
               0.99965621                6.00053747                4.00473680                0.01000000               -0.02207968               -0.03858379                0.12848161               -0.01568134               -0.01853548               -0.00792315
               1.99962033                5.99993059                4.00474081                0.01740598               -0.01316776               -0.01110075                0.11270928               -0.04484025               -0.00975660                0.03297899
               2.99939285                5.99957885                4.00480876                0.01000000               -0.01331128               -0.02572745                0.11329347               -0.03835587               -0.05030152                0.00570205
               3.99935410                5.99915397                4.00426790                0.01000000               -0.01778609               -0.03816996                0.20584070               -0.03767367               -0.06221462                0.00012878
               4.99903713                5.99896751                4.00416122                0.01233874               -0.03174319               -0.04174416                0.19053963               -0.01795177               -0.03556805               -0.00202142
               5.99871924                5.99886083                4.00439173                0.01000000               -0.03059359               -0.03557033                0.15258622               -0.00880921               -0.02188140               -0.01879976
               6.99842526                5.99888972                4.00460927                0.01000001               -0.02439257               -0.03528090                0.15641012                0.00618126               -0.02174036               -0.02616364
               7.99823139                5.99899248                4.00471444                0.01179551               -0.03587039               -0.04320558                0.16755587                0.00374842               -0.02873255               -0.04049484
               8.99770785                5.99913478                4.00436891                0.01000000               -0.05769279               -0.03771619                0.20137484                0.00442429               -0.02281677                0.03980949
               9.99707753                5.99932215                4.00445921                0.05595406               -0.06303181               -0.04251897                0.18503811               -0.00232856               -0.02323054                0.06182580
               0.00034293                7.00045709                4.00453099                1.00000000               -0.03820031               -0.03550992                0.12413573                0.00028032                0.00132504                0.01714884
               0.99996093                7.00016218                4.00471812                0.82756154               -0.03747511               -0.03691957                0.12444437                0.00117411                0.00301294               -0.00300726
               1.99959343                6.99985098                4.00490537                0.01015724               -0.02075105               -0.02187048                0.11502500               -0.03192422               -0.01822970               -0.01502605
               2.99954591                6.99923786                4.00468231                0.01175707               -0.01250784               -0.02709359                0.10830793               -0.03535352               -0.03823982               -0.01914072
               3.99934327                6.99883710                4.00455156                0.01524543               -0.02342990               -0.03217690                0.14293826               -0.02457473               -0.02304245               -0.00941461
               4.99907731                6.99855118                4.00469473                0.01000000               -0.02997703               -0.03376881                0.14878178               -0.00628756               -0.03636986                0.00593476
               5.99874373                6.99853352                4.00455221                0.01000001               -0.02915707               -0.02770769                0.15329628                0.00746158               -0.02876327               -0.02317297
               6.99849417                6.99856077                4.00484005                0.01046126               -0.03157368               -0.03652236                0.17673485                0.00341133               -0.01859552               -0.01824743
               7.99811226                6.99850502                4.00481513                0.01342023               -0.04234662               -0.03380468                0.16139814                0.03200972                0.01288910                0.08069555
               8.99764724                6.99877205                4.00574170                0.01000000               -0.06390796               -0.08191916                0.19935377                0.01213349                0.02263132               -0.07724185
               9.99683410                6.99897139                4.00574004                0.06832638               -0.08131363               -0.10483488                0.22346817                0.00691644               -0.03523720               -0.05079764
               0.00065734                8.00011012                4.00462520                0.99181949               -0.03715429               -0.03525533                0.12240690                0.00069531                0.00124911                0.02116711
               1.00028579                7.99979907                4.00470658                0.96362873               -0.03755876               -0.03635830                0.12391483                0.00177014                0.00223735               -0.00181741
               1.99990616                7.99949318                4.00478699                0.01880082               -0.02930650               -0.03605603                0.12304748               -0.00565762               -0.00458827               -0.02929143
               2.99969966                7.99903698                4.00475720                0.01000000               -0.01784326               -0.01897158                0.09181418               -0.03365989               -0.02385722               -0.01586669
               3.99954930                7.99851043                4.00465230                0.01263404               -0.02423516               -0.03179372                0.11424673               -0.02418299                0.00058971               -0.02116596
               4.99921496                7.99829213                4.00502441                0.01000001               -0.03452109               -0.03086722                0.14327003                0.00697178               -0.02437086               -0.04470869
               5.99885887                7.99830667                4.00455980                0.01181652               -0.03464911               -0.03558398                0.15813720                0.00384080               -0.04274453               -0.03100572
               6.99852198                7.99815927                4.00478567                0.01345194               -0.00992862               -0.04003271                0.13578409                0.00612246                0.08348555               -0.00019600
               7.99866030                7.99831638                4.00716323                0.01720208               -0.05189130               -0.05502031                0.17343311               -0.03552139               -0.09528082               -0.00230839
               8.99748415                7.99749640                4.00310488                0.01000000               -0.09215574               -0.05062829                0.46710527               -0.06025061               -0.23420301               -0.05991711
               9.99681719                7.99722546                4.00340603                0.66090674               -0.06669651               -0.06579387                0.45416959               -0.02293018               -0.05768207               -0.03553391
               0.00097893                8.99975198                4.00474258                0.99999999               -0.03656589               -0.03613314                0.12218697                0.00036373                0.00145452                0.01892859
               1.00061327                8.99943502                4.00471519                0.99999995               -0.03682769               -0.03633919                0.12275666                0.00159932                0.00178360                0.00052136
               2.00024237                8.99912986                4.00467576                0.54300975               -0.03789044               -0.03749799                0.12614237                0.00464988               -0.00282012               -0.01709767
               2.99985546                8.99885843                4.00452257                0.01642211               -0.03189547               -0.03335641                0.13400616               -0.02232571                0.00752942               -0.01413360
               3.99960446                8.99820122                4.00466467                0.01000001               -0.02174747               -0.02798924                0.10377927               -0.02691337               -0.01881694               -0.00369874
               4.99942051                8.99793383                4.00422030                0.01000001               -0.03255277               -0.04509372                0.18321865                0.00293260               -0.03977159               -0.06188651
               5.99895341                8.99782184                4.00419839                0.01000000               -0.04068021               -0.05035092                0.18280698                0.00212027                0.03033744               -0.02725412
               6.99860691                8.99776012                4.00549358                0.01000000               -0.04443497               -0.05346255                0.17375473               -0.01535476                0.02743562                0.00890987
               7.99806471                8.99740462                4.00512398                0.03769638               -0.05368765               -0.04070245                0.19006400               -0.02951254                0.00259118               -0.12282983
               8.99753315                8.99775949                4.00650113                0.99999999               -0.05736676               -0.01739466                0.20931519                0.01809437                0.03748706                0.14527406
               9.99691737                8.99765551                4.00710918                0.98926590               -0.06157790               -0.00720831                0.19896624                0.00002236               -0.00142397                0.15779364
               0.00129854                9.99938746                4.00479009                1.00000000               -0.03586387               -0.03645236                0.12064322                0.00044458                0.01099865                0.01457225
               1.00093990                9.99907229                4.00473816                0.99774760               -0.03613980               -0.03627252                0.12175075                0.00045148                0.01215608                0.00142899
               2.00057574                9.99874322                4.00469261                0.95571649               -0.03790565               -0.03866370                0.12758189               -0.00178509                0.01798128               -0.01097049
               3.00018179                9.99836985                4.00471972                0.03562946               -0.03200561               -0.04885812                0.13481951               -0.00699597                0.02126046               -0.01150317
               3.99993563                9.99795065                4.00477538                0.04659017               -0.02643931               -0.02505732                0.07604120               -0.01586320               -0.03657257                0.01834301
               4.99965300                9.99739026                4.00384774                0.08587072               -0.04303181               -0.05435759                0.15720474               -0.00930085               -0.03232705               -0.05475314
               5.99907499                9.99729965                4.00419218                0.05593062               -0.05104481               -0.05221828                0.16668737               -0.00285325                0.05898992               -0.02845903
               6.99863210                9.99709002                4.00564307                0.07086871               -0.05021552               -0.06700974                0.17498906                0.01265393                0.05551029               -0.03125826
               7.99807068                9.99750234                4.00572315                0.67915859               -0.05184800                0.00977207                0.17204695                0.00352150                0.02635803                0.01382955
               8.99759514                9.99714850                4.00702459                0.98926677               -0.05225492               -0.06109841                0.19624093               -0.01485315                0.03616758                0.00128544
               9.99702558                9.99708129                4.00763346                1.00000000               -0.05695588               -0.05742201                0.18593670                0.00409999                0.00141058               -0.00126480
               0.00061963                0.00083597                5.00476407                0.96422643               -0.03197297               -0.03161423                0.10453862               -0.00037007                0.00021886                0.00010292
               1.00029990                0.00085952                5.00479125                0.76519531               -0.03143819               -0.03140056                0.10479175                0.00009059               -0.00054006                0.00025512
               1.99999086                0.00087460                5.00482526                0.26324297               -0.03009635               -0.02897365                0.10224543               -0.00178448                0.00277843               -0.00101468
               2.99969797                0.00086802                5.00491970                0.06092229                0.03063797               -0.02526883                0.09204057               -0.02365782                0.01312243               -0.00234428
               4.00060362                0.00041654                5.00519118                0.12879230                0.04106615               -0.03860090                0.09591433               -0.02369047                0.00710053               -0.00316484
               5.00051929                0.00037478                5.00541030                0.34521533               -0.02006419               -0.02996781                0.11309838               -0.00885177                0.00721085               -0.00479957
               6.00020234                0.00054344                5.00564493                0.88290956               -0.03310207               -0.03222697                0.11570996                0.00003419                0.00901229               -0.00157343
               6.99985725                0.00073431                5.00589526                0.99589348               -0.03602184               -0.03573050                0.12220465                0.00099631                0.01038665               -0.00172853
               7.99948190                0.00093111                5.00615632                1.00000000               -0.03841605               -0.03790808                0.12804051                0.00160213                0.01040971               -0.00239165
               8.99908893                0.00112321                5.00640218                0.99999999               -0.03959944               -0.03920276                0.13107695                0.00154875                0.00822376                0.00010092
               9.99868991                0.00130538                5.00661643                1.00000000               -0.03990181               -0.04040346                0.13422678                0.00106453                0.00670290                0.00582088
               0.00059238                1.00051983                5.00469595                0.77114708               -0.03108865               -0.03080170                0.10260340               -0.00034086               -0.00029040               -0.00056000
               1.00028149                1.00054552                5.00472515                0.01000000               -0.03118035               -0.03106429                0.10359549                0.00231291               -0.00048072                0.00069759
               1.99996877                1.00058486                5.00475450                0.01000000               -0.02955341               -0.02188495                0.10210759                0.00761761                0.00306367               -0.00999581
               2.99969042                1.00061533                5.00485492                0.01000000                0.03222853               -0.02767840                0.09200586               -0.01354837                0.02299205                0.01499404
               4.00061334                1.00003053                5.00529732                0.01000000                0.03384520               -0.01976564                0.09645394               -0.06908917                0.01374403               -0.01140302
               5.00036732                1.00007510                5.00549842                0.01000000               -0.02952125               -0.01475078                0.11207738               -0.03594285               -0.00201279               -0.00970574
               6.00002291                1.00022117                5.00567914                0.01000000               -0.03469728               -0.02653505                0.11487970               -0.01905118               -0.00176304               -0.02171703
               6.99967338                1.00037700                5.00587343                0.64161798               -0.03597216               -0.03502214                0.11939886               -0.00162883               -0.00038402               -0.00585759
               7.99930347                1.00055203                5.00607579                0.96111073               -0.03780471               -0.03702285                0.12533790                0.00101181                0.00073906               -0.00317113
               8.99891728                1.00073118                5.00629084                0.99268768               -0.03925398               -0.03906071                0.13011283                0.00086947                0.00106648                0.00004672
               9.99851839                1.00090134                5.00650387                0.99999997               -0.03988938               -0.04041421                0.13390478                0.00065611                0.00037977                0.00629259
               0.00056144                2.00021994                5.00463640                0.27521081               -0.02803135               -0.02898813                0.09806139               -0.00348022               -0.00113683                0.00406396
               1.00028112                2.00023824                5.00467192                0.01000000               -0.02440183               -0.02665365                0.09954313                0.00801184               -0.01135442                0.00641475
               2.00007340                2.00043690                5.00446809                0.01066089               -0.01498944               -0.00385710                0.10386214               -0.00849507                0.01072071                0.02277370
               2.99998133                2.00031445                5.00505473                0.01086123               -0.01556633               -0.02331966                0.11925266               -0.02834108                0.01799922                0.02306169
               3.99976207                2.00002123                5.00516371                0.01000001               -0.01857687               -0.00182805                0.11632495               -0.07085098               -0.00310761               -0.00412069
               4.99960980                2.00007976                5.00537439                0.01000000               -0.01213314               -0.00897010                0.12091326               -0.05399002               -0.00987931               -0.00509360
               5.99951941                2.00001274                5.00529256                0.01000000               -0.00579903               -0.02165224                0.10039690               -0.04364068               -0.00209378               -0.00759561
               6.99949381                2.00003387                5.00575772                0.01438978               -0.01857264               -0.03071259                0.10783483               -0.02554831                0.01060641                0.00908389
               7.99914796                2.00019066                5.00597423                0.02846018               -0.03684037               -0.02714156                0.12210832               -0.01666020               -0.00429941                0.06543664
               8.99875701                2.00034200                5.00618465                0.73389722               -0.03926205               -0.03860947                0.12963556               -0.00125486               -0.00415995               -0.00142794
               9.99836272                2.00049709                5.00642020                0.93630243               -0.03942919               -0.03982934                0.13394982                0.00089929               -0.00227089                0.00724060
               0.00048617                2.99994007                5.00466270                0.07592018               -0.02614108                0.04409564                0.08639978               -0.04733801               -0.00252142                0.04158874
               1.00022476                3.00001244                5.00472031                0.01000000               -0.03817617                0.04651075                0.08754620               -0.03604811                0.01772857                0.06304269
               1.99972265                3.00050772                5.00510782                0.01086212               -0.03427459               -0.00796190                0.11933186               -0.03702913                0.01117024                0.04410349
               2.99953927                3.00014894                5.00531032                0.01277731               -0.01458198               -0.01774254                0.11549332               -0.05887687               -0.01378051                0.01062488
               3.99943101                2.99999397                5.00533631                0.01000000               -0.01216298               -0.01132795                0.10974375               -0.03811066               -0.00777970                0.01702918
               4.99929601                2.99989570                5.00572575                0.01361537               -0.01175076               -0.02418376                0.13340762               -0.03832846               -0.00481586                0.01476879
               5.99919600                2.99978813                5.00573540                0.01288952               -0.01557568               -0.02615395                0.12244637               -0.04746625               -0.01954687                0.04885811
               6.99898450                2.99976275                5.00604913                0.01718744               -0.02669304               -0.02915855                0.11396194               -0.03954622                0.04215273                0.01786079
               7.99866213                3.00000920                5.00726611                0.01000000               -0.01993746               -0.03361555                0.15998707               -0.03208858               -0.02271997                0.00386228
               8.99858575                2.99995899                5.00605338                0.01000000               -0.02179754               -0.02989180                0.12775048               -0.02521941               -0.07869229                0.00201502
               9.99822618                3.00010476                5.00634791                0.04861079               -0.03595645               -0.02204247                0.13172244               -0.01006747                0.00043779               -0.02518322
              -0.00053008                4.00110185                5.00539999                0.14770809               -0.04774159                0.06429471                0.10039850               -0.04992144               -0.00343460                0.04053069
               0.99899251                4.00116845                5.00580720                0.01000000               -0.01368008                0.04390686                0.10203043               -0.09970594               -0.04483315                0.05758086
               1.99919632                4.00027766                5.00532830                0.01000001                0.01625196               -0.02438819                0.11540930               -0.08530026               -0.05008233                0.02453809
               2.99931754                3.99995960                5.00539039                0.01000000                0.00283906               -0.02429285                0.10908158               -0.04041629               -0.00902024                0.01283541
               3.99925310                3.99979467                5.00574931                0.01272463               -0.01342374               -0.02819166                0.14491700               -0.03672897                0.00130238                0.01867277
               4.99904907                3.99959609                5.00610662                0.01088650               -0.02750361               -0.03525462                0.16581548               -0.04058004                0.00748486                0.00552502
               5.99870303                3.99948966                5.00654670                0.01391787               -0.02836266               -0.03706144                0.16416624               -0.04463995               -0.01501938                0.00689140
               6.99848182                3.99945069                5.00628733                0.01000000               -0.01965436               -0.03754518                0.13931109               -0.03806718               -0.04787300               -0.00930222
               7.99830994                3.99951834                5.00607437                0.01702572               -0.01623773               -0.03912484                0.09551639               -0.01412528               -0.03348795               -0.05564080
               8.99815706                3.99974416                5.00600634                0.01000001               -0.02200501               -0.02476246                0.10417647               -0.00698636               -0.04083136                0.01986106
               9.99786984                4.00005624                5.00560103                0.05411823               -0.02872208               -0.01489682                0.12499366               -0.01309917               -0.06838217                0.01404658
              -0.00064546                5.00122596                5.00551453                0.37921639               -0.02997112               -0.00906562                0.11460667               -0.02001745               -0.00666914                0.02426805
               0.99905483                5.00089058                5.00589589                0.01000000               -0.00645247               -0.03309726                0.11434872               -0.04089423               -0.03571734                0.00583600
               1.99922549                5.00001996                5.00559530                0.01000000                0.00795530               -0.02396860                0.12357310               -0.05492589               -0.04550327                0.00010785
               2.99921394                4.99966308                5.00578329                0.01361827               -0.00827735               -0.02697666                0.13164835               -0.03627030               -0.01229198                0.00727282
               3.99905995                4.99943014                5.00610676                0.01088816               -0.02122602               -0.04195505                0.16597597               -0.03710011               -0.01324455                0.01800965
               4.99878942                4.99919060                5.00631241                0.01315639               -0.03056797               -0.04424718                0.18009224               -0.03795256               -0.02405334               -0.01145771
               5.99844859                4.99904690                5.00621863                0.01000001               -0.02974733               -0.04507486                0.17698624               -0.02734538               -0.03813868               -0.03602280
               6.99819447                4.99901185                5.00602918                0.01700597               -0.01812126               -0.03849286                0.12393304               -0.01045455               -0.02363778               -0.01154328
               7.99808616                4.99922670                5.00616140                0.01000000               -0.01431753               -0.03380401                0.08096256                0.00590237               -0.00488645                0.00988386
               8.99790812                4.99946375                5.00632107                0.01000000               -0.03730640               -0.04057077                0.15085463                0.00429360               -0.00307948                0.03584680
               9.99734003                4.99980682                5.00637993                0.01000000               -0.05680865               -0.04352988                0.22335883               -0.00833900               -0.00454777                0.05479224
              -0.00025967                6.00092054                5.00575256                0.99837021               -0.03597077               -0.03293845                0.12102222               -0.00153618               -0.00439809                0.02244412
               0.99938063                6.00050651                5.00601907                0.01000000               -0.02075164               -0.03740925                0.12149345               -0.01948896               -0.04810995               -0.00249505
               1.99932530                5.99979829                5.00534784                0.01000000               -0.00993338               -0.01585206                0.10510548               -0.04348608               -0.04299425                0.00401271
               2.99918196                5.99942007                5.00574466                0.01289450               -0.01708616               -0.03019917                0.11699394               -0.03954976                0.03344607               -0.00652318
               3.99898358                5.99895557                5.00648884                0.01392161               -0.02543497               -0.04054805                0.16137038               -0.03663527               -0.01211159               -0.01157069
               4.99867326                5.99871114                5.00616458                0.01000001               -0.03243498               -0.04268868                0.17586777               -0.02271610               -0.05046226               -0.02885412
               5.99833488                5.99858816                5.00599587                0.01685915               -0.02901690               -0.03832477                0.14431060               -0.00269235               -0.01737787               -0.01005016
               6.99809292                5.99868084                5.00631869                0.01000000               -0.01793929               -0.03144980                0.11129059                0.01194771                0.00578742               -0.00222240
               7.99797609                5.99884226                5.00658822                0.01680398               -0.02150515               -0.05229713                0.13138044               -0.00650975               -0.00413955                0.01449176
               8.99766282                5.99893275                5.00685064                0.01000000               -0.04795900               -0.05109096                0.19289919               -0.00812639               -0.01398245                0.01044755
               9.99701691                5.99918565                5.00674357                0.06148929               -0.06459058               -0.06105227                0.24517280                0.00060488               -0.03052956                0.04851198
               0.00015188                7.00056719                5.00577881                0.99759401               -0.03645834               -0.03516898                0.12082278               -0.00058121               -0.00546526                0.01500319
               0.99978730                7.00014240                5.00590525                0.76680414               -0.03548374               -0.03587408                0.11955492               -0.00156446               -0.01359783               -0.00782157
               1.99944221                6.99970291                5.00583792                0.01439856               -0.02608178               -0.02147939                0.11218905               -0.02690344               -0.01136562                0.01634072
               2.99926567                6.99905910                5.00600948                0.01719497               -0.02030209               -0.02877620                0.10999339               -0.03597595               -0.01317556               -0.01078775
               3.99903617                6.99861918                5.00603690                0.01000000               -0.02815827               -0.02972043                0.13270068               -0.02274464               -0.02980242               -0.03769371
               4.99870250                6.99833683                5.00590175                0.01701222               -0.03055612               -0.02667055                0.12221127               -0.00293228               -0.01867652               -0.01881396
               5.99842505                6.99828040                5.00622208                0.01000000               -0.02615871               -0.02390011                0.10863580                0.01462696               -0.00656290                0.00308592
               6.99817933                6.99838285                5.00626007                0.01000001               -0.03604933               -0.04011076                0.13030352               -0.00639582                0.00162568               -0.00398416
               7.99770406                6.99818076                5.00685376                0.01000001               -0.03885578               -0.04992056                0.15919484                0.01085285               -0.00278612               -0.05452779
               8.99740221                6.99844193                5.00688761                0.01000001               -0.04288642               -0.11066047                0.15456123               -0.02409903               -0.00460069                0.20983610
               9.99684633                6.99858577                5.00749251                0.06381545               -0.05558797               -0.13379571                0.24196304               -0.02701550                0.03237933                0.22809924
               0.00057830                8.00021716                5.00584625                0.99999999               -0.03646890               -0.03529718                0.12150992                0.00081716               -0.00136309                0.01951155
               1.00021361                7.99978902                5.00589899                1.00000000               -0.03538868               -0.03550970                0.11878464                0.00114068               -0.00124451                0.00039496
               1.99987053                7.99936870                5.00594156                0.01000000               -0.03337177               -0.03472859                0.11493342               -0.00438373               -0.01541241               -0.00931901
               2.99954618                7.99884454                5.00569244                0.01000000               -0.03097880               -0.02405304                0.11006214               -0.01691199               -0.01583565               -0.02641022
               3.99925095                7.99836116                5.00585962                0.01703923               -0.02963953               -0.02054053                0.09213976               -0.00385389               -0.01276338               -0.02668059
               4.99895339                7.99817773                5.00591372                0.01000000               -0.03347786               -0.01710033                0.07783916                0.01511963               -0.00282774               -0.00539117
               5.99858139                7.99811016                5.00631939                0.01682026               -0.04443704               -0.02345576                0.12376739               -0.00342799                0.00401330               -0.01031968
               6.99806465                7.99787862                5.00657018                0.01000001               -0.02236603               -0.03988073                0.14079145               -0.01344952               -0.05849600               -0.00514999
               7.99813407                7.99784385                5.00579501                0.01417426               -0.06444116               -0.05824206                0.09337182               -0.07818447                0.16314027                0.07193978
               8.99677582                7.99671954                5.01184395                0.09980679               -0.09725852               -0.05631789                0.45450564               -0.08859047                0.25801264                0.08354895
               9.99618890                7.99650973                5.01237291                0.59364715               -0.05869184               -0.06989395                0.45993558               -0.04590210                0.00913436                0.08270714
               0.00102450                8.99986125                5.00596898                0.99999999               -0.03659253               -0.03607002                0.12218134                0.00158313                0.00279319                0.01783549
               1.00065857                8.99943220                5.00594869                0.99922331               -0.03627407               -0.03628099                0.12113656                0.00177310                0.00276583                0.00133206
               2.00029901                8.99900834                5.00592571                0.54825234               -0.03618012               -0.03669342                0.12146108                0.00032080               -0.00199502               -0.01317556
               2.99993497                8.99857804                5.00580324                0.01000000               -0.03365558               -0.03240917                0.13044111                0.00062325               -0.01037749               -0.00977314
               3.99962590                8.99820837                5.00559913                0.01000001               -0.03395392               -0.02046277                0.09791303                0.01297525               -0.00009776               -0.03748719
               4.99925589                8.99799482                5.00597288                0.01000000               -0.04851543               -0.03227529                0.14389979                0.01152035                0.02198156               -0.00771879
               5.99865559                8.99781129                5.00638787                0.01000000               -0.05396230               -0.04122521                0.17301333               -0.00859231                0.00436552               -0.01400275
               6.99817664                8.99758524                5.00656888                0.01000001               -0.06780699               -0.03625555                0.13271263               -0.03628761                0.10032026               -0.00497547
               7.99729945                8.99701592                5.00927595                0.14015823               -0.06060618               -0.03139519                0.17767639               -0.05072842                0.03029162                0.15431289
               8.99696452                8.99731557                5.00859314                0.99453434               -0.04757793               -0.00075289                0.21002626                0.02262849               -0.06063484               -0.18062705
               9.99634790                8.99718790                5.00910026                0.99540018               -0.06166243                0.00491346                0.20049217                0.00179830               -0.00172262               -0.18423917
               0.00146806                9.99949576                5.00600489                0.99999999               -0.03660785               -0.03654901                0.12206025                0.00112082                0.01212383                0.01351767
               1.00110198                9.99906340                5.00595828                0.99999997               -0.03684751               -0.03687970                0.12347633                0.00129464                0.01325717               -0.00095346
               2.00073111                9.99863483                5.00594523                0.95585403               -0.03716798               -0.03735096                0.12679703               -0.00014285                0.01952642               -0.01087406
               3.00035862                9.99819636                5.00603382                0.03960445               -0.03187183               -0.03816766                0.13192475                0.00821864               -0.01875210                0.00078874
               4.00009367                9.99795190                5.00523378                0.05416467               -0.03888737               -0.02564621                0.11816392                0.01357003               -0.00571832               -0.05303358
               4.99958087                9.99753223                5.00588260                0.01000000               -0.06372680               -0.04625982                0.20418545               -0.00081409                0.03775211               -0.01086105
               5.99881913                9.99728566                5.00625976                0.06138592               -0.07233054               -0.05256299                0.21840290               -0.00258165                0.03147888               -0.02284981
               6.99813426                9.99715351                5.00682221                0.06570979               -0.07149800               -0.04317261                0.18280664               -0.00772366                0.12033807                0.01463768
               7.99738917                9.99721595                5.00960275                0.63385793               -0.05389227                0.02000295                0.16534784               -0.01347957                0.04143331                0.00112359
               8.99705642                9.99670448                5.00898894                0.99540132               -0.04544800               -0.06110893                0.19798238               -0.02120780               -0.05419455                0.00097580
               9.99648021                9.99660800                5.00949607                0.99501988               -0.05762009               -0.05798939                0.18840471                0.00358420                0.00068927               -0.00185545
               0.00058611                0.00090847                6.00581514                0.96977865               -0.03135041               -0.03102375                0.10394314                0.00013446               -0.00065882               -0.00058382
               1.00027260                0.00093685                6.00584846                0.76397180               -0.03157609               -0.03144118                0.10510907                0.00025046               -0.00044120                0.00001797
               1.99995459                0.00096347                6.00587494                0.26260526               -0.03145579               -0.03202441                0.10544518               -0.00041527               -0.00035646                0.00078959
               2.99964349                0.00097090                6.00591637                0.06201711                0.02565677               -0.03271273                0.10095542               -0.03054426                0.01606818                0.00156721
               4.00046772                0.00035009                6.00629786                0.12941894                0.03685072               -0.04901362                0.10915176               -0.03310223                0.01628510               -0.00044403
               5.00038050                0.00031469                6.00660271                0.34871419               -0.02125966               -0.03728785                0.11780901               -0.01211162                0.01136031               -0.00043125
               6.00004253                0.00053181                6.00689229                0.89766946               -0.03535977               -0.03763567                0.12158690               -0.00076995                0.00797198               -0.00090946
               6.99967331                0.00076738                6.00714512                0.99716355               -0.03708052               -0.03755793                0.12398880                0.00059638                0.00658349               -0.00041116
               7.99930092                0.00100395                6.00742114                1.00000000               -0.03781397               -0.03800172                0.12673573                0.00082529                0.00846077               -0.00058354
               8.99891703                0.00124095                6.00771097                0.99999999               -0.03912277               -0.03921889                0.13070875                0.00075402                0.00763124                0.00064974
               9.99851846                0.00147626                6.00796392                0.99787296               -0.03985647               -0.04049765                0.13469579                0.00067292                0.00586642                0.00573472
               0.00055907                1.00059823                6.00573144                0.77076086               -0.03114598               -0.03097175                0.10296483               -0.00017940               -0.00030486               -0.00025794
               1.00024761                1.00062244                6.00576795                0.01233234               -0.03128291               -0.03113483                0.10410431               -0.00018304               -0.00052869                0.00024888
               1.99993341                1.00064323                6.00579658                0.01000000               -0.03014356               -0.02373823                0.10478216                0.00144185                0.00001444                0.01041226
               2.99964473                1.00064377                6.00584363                0.01000000                0.02656992               -0.03531731                0.10019645               -0.03357974                0.02518124                0.01441044
               4.00046481                0.99985995                6.00638736                0.01000000                0.02618950               -0.02232512                0.10796070               -0.08115858                0.02244758               -0.00819304
               5.00016852                0.99994181                6.00667299                0.01000000               -0.03281636               -0.02456674                0.11626309               -0.03125031                0.00243929               -0.01226428
               5.99980848                1.00015545                6.00690819                0.01000000               -0.03626637               -0.02920531                0.12041926               -0.01434104               -0.00192748               -0.01267506
               6.99944320                1.00039180                6.00711750                0.65693410               -0.03680469               -0.03724440                0.12331296                0.00160439               -0.00279365               -0.00314021
               7.99907239                1.00062394                6.00734619                0.96416239               -0.03773910               -0.03820098                0.12673880                0.00069617               -0.00067230               -0.00123847
               8.99868842                1.00084876                6.00760088                0.99121676               -0.03912493               -0.03928917                0.13095601                0.00024558                0.00052062                0.00095022
               9.99828989                1.00107128                6.00785267                1.00000000               -0.03985286               -0.04055116                0.13512444                0.00003412                0.00038910                0.00738726
               0.00053410                2.00028903                6.00564356                0.27586474               -0.03101503               -0.03053024                0.10123853               -0.00268942                0.00074723                0.00136496
               1.00022395                2.00031416                6.00568839                0.01000000               -0.02860039               -0.02678379                0.10218995                0.00377846                0.00964156                0.00310753
               1.99996209                2.00048870                6.00593733                0.01069387               -0.02343904               -0.00874699                0.13074643               -0.02458705                0.00963139                0.02110101
               2.99975516                2.00026456                6.00609299                0.01140559               -0.02077860               -0.02717994                0.10316939               -0.04598150                0.00421758                0.01873977
               3.99954652                1.99990359                6.00636641                0.01000001               -0.01475851               -0.00292403                0.11464977               -0.08823679                0.00205480               -0.00878117
               4.99945999                1.99982335                6.00655019                0.01000000               -0.01204032               -0.01760611                0.12139320               -0.05441117               -0.00399892               -0.00774790
               5.99930571                1.99994770                6.00671594                0.01000000               -0.01115428               -0.02494435                0.13661208               -0.04146091               -0.00034753                0.00706780
               6.99923691                2.00002250                6.00704470                0.01445127               -0.02239145               -0.03353733                0.12316903               -0.02947733               -0.00202032               -0.00082879
               7.99885788                2.00023994                6.00725959                0.03640230               -0.03811571               -0.03553942                0.12691149               -0.00384482               -0.00761911                0.02584563
               8.99847459                2.00045517                6.00749695                0.74442104               -0.03918849               -0.03931240                0.13121115                0.00093387               -0.00420723                0.00028834
               9.99807411                2.00066523                6.00777555                0.93972478               -0.04004840               -0.04079293                0.13562548               -0.00001959               -0.00240333                0.00967670
               0.00045503                2.99998762                6.00559988                0.07804218               -0.03315271                0.04334452                0.09492988               -0.06222902                0.00128900                0.05100886
               1.00012350                3.00008676                6.00566396                0.01000000               -0.04818812                0.04595627                0.09543497               -0.06151397                0.01884649                0.07072129
               1.99949127                3.00046829                6.00614124                0.01140647               -0.04066395               -0.01189196                0.10325802               -0.05548844                0.00798588                0.03137375
               2.99931022                3.00010018                6.00624237                0.01000001               -0.01749960               -0.02102280                0.10093920               -0.07354717               -0.01128005                0.01418639
               3.99914127                2.99980147                6.00636589                0.01000000               -0.01370194               -0.01927714                0.11320121               -0.05915308                0.00742413                0.00767896
               4.99903618                2.99958969                6.00690232                0.01601022               -0.01805791               -0.02305248                0.10955339               -0.04493545                0.01557266                0.01879333
               5.99878012                2.99965657                6.00722722                0.01488756               -0.02373826               -0.03041014                0.11914716               -0.03024361               -0.02276027                0.03036910
               6.99856142                2.99972106                6.00708362                0.01000001               -0.01086508               -0.02967030                0.11944469               -0.03080527               -0.00226510                0.01790542
               7.99856281                2.99991315                6.00774149                0.01000000               -0.01398126               -0.02952434                0.05837500               -0.01852054               -0.00485279               -0.02274018
               8.99828179                3.00006252                6.00737682                0.01000000               -0.03467244               -0.03704972                0.13169734               -0.01132446               -0.03563960               -0.01202446
               9.99786937                3.00025542                6.00771227                0.05103164               -0.04124276               -0.02639107                0.13561575               -0.01530715               -0.00243029                0.00932671
              -0.00090877                4.00115592                6.00654234                0.14892854               -0.05782296                0.06567272                0.11206826               -0.06559753               -0.00143640                0.05982823
               0.99851300                4.00123328                6.00693169                0.01000000               -0.01261631                0.03759724                0.11185515               -0.12194203               -0.04433646                0.07688487
               1.99883891                4.00025087                6.00652484                0.01000001                0.02190151               -0.02063368                0.11463871               -0.10731456               -0.05818114                0.03124968
               2.99895103                3.99984410                6.00641578                0.01000000                0.00175184               -0.02782857                0.11432690               -0.06319680               -0.02222435                0.02871474
               3.99887394                3.99951804                6.00687200                0.01588144               -0.01224216               -0.02901527                0.10816619               -0.04658403                0.01435740                0.02821505
               4.99870619                3.99936230                6.00741105                0.01436038               -0.01522400               -0.02453699                0.10199331               -0.03322334                0.00472927                0.01855309
               5.99856946                3.99933950                6.00757403                0.01712017               -0.01709856               -0.02906381                0.08723345               -0.01753739               -0.01532812                0.01506425
               6.99836422                3.99942909                6.00744395                0.01000000               -0.02117266               -0.03584445                0.11515228               -0.00823983               -0.05201893                0.00984343
               7.99814601                3.99964945                6.00686195                0.01000000               -0.02291940               -0.04300933                0.14360785               -0.01924980               -0.04200924               -0.03647120
               8.99790583                3.99971418                6.00703538                0.01000000               -0.03819281               -0.03317532                0.13379493               -0.00927619                0.00196789                0.00982269
               9.99738216                4.00013741                6.00764136                0.05900327               -0.05236770               -0.02401744                0.17873214                0.00119285                0.01331891                0.04445303
              -0.00101164                5.00130108                6.00676750                0.38137366               -0.03986424               -0.00754995                0.12042341               -0.02875147               -0.00225000                0.02503190
               0.99858972                5.00083871                6.00714414                0.01000000               -0.01271016               -0.03775399                0.12025562               -0.03298741               -0.04116497                0.00708740
               1.99873416                5.00005561                6.00678872                0.01000000                0.00946954               -0.02413169                0.12259892               -0.05495782               -0.05262781                0.01278209
               2.99877911                4.99954360                6.00694579                0.01601309               -0.00213825               -0.03109515                0.10759809               -0.04323501               -0.00774045                0.02434491
               3.99869139                4.99922117                6.00740001                0.01436203               -0.01144242               -0.02628105                0.10060617               -0.03133271                0.00359807                0.01391748
               4.99855026                4.99909895                6.00765253                0.01696161               -0.01644058               -0.02806109                0.10213200               -0.01656094               -0.00445919                0.00502120
               5.99836258                4.99907529                6.00774449                0.01000000               -0.02317929               -0.03415613                0.11402657               -0.02233345               -0.02866099               -0.01393533
               6.99808667                4.99900417                6.00729264                0.01000000               -0.02349237               -0.04073528                0.12465211               -0.02189449               -0.05437437               -0.02426298
               7.99789273                4.99905296                6.00684158                0.01000000               -0.02391846               -0.05297493                0.12252764               -0.00672658               -0.01488267                0.02160485
               8.99760831                4.99939901                6.00754140                0.01157736               -0.04229925               -0.04684922                0.15829787                0.00445644                0.04176838                0.05217481
               9.99704675                4.99977507                6.00864185                0.01000000               -0.05615573               -0.04788004                0.18797014                0.00255293                0.07109566                0.07438991
              -0.00055906                6.00100492                6.00691103                1.00000000               -0.03422200               -0.03188109                0.11466023               -0.00305291               -0.00425437                0.01665159
               0.99909872                6.00047820                6.00716667                0.01000000               -0.02030431               -0.03564397                0.11494164               -0.00982714               -0.03238480               -0.00547856
               1.99903486                5.99976823                6.00684292                0.01000000               -0.00889715               -0.02357673                0.13938897               -0.03641350               -0.03161004                0.00992072
               2.99892078                5.99922220                6.00714864                0.01489246               -0.01714537               -0.02346393                0.11257341               -0.02357495                0.00764760               -0.01804453
               3.99869195                5.99899242                6.00749531                0.01712387               -0.01999651               -0.02543624                0.08488103               -0.01287779                0.00304516               -0.01259766
               4.99852085                5.99880108                6.00767857                0.01000000               -0.02371885               -0.03365958                0.11337371               -0.01838519               -0.02506199               -0.02113689
               5.99821757                5.99865638                6.00727794                0.01000000               -0.02860960               -0.04017889                0.12761097               -0.01475596               -0.05032236               -0.04025703
               6.99794866                5.99861438                6.00683509                0.01000000               -0.03004665               -0.03872858                0.11831149               -0.01290533               -0.01192953                0.00748241
               7.99761664                5.99858995                6.00734205                0.01000001               -0.03379037               -0.04226417                0.12862240               -0.01504646                0.03058664                0.04691620
               8.99727285                5.99877719                6.00822690                0.01028238               -0.04677764               -0.07117717                0.18100803               -0.00509855                0.04801309                0.06470536
               9.99668109                5.99917981                6.00936266                0.06580883               -0.05917639               -0.09355220                0.22337573                0.00151872                0.07909605                0.10464148
              -0.00001925                7.00066346                6.00694744                0.99803346               -0.03508791               -0.03473735                0.11664888                0.00042033               -0.00173484                0.01547188
               0.99962987                7.00012583                6.00710922                0.78171216               -0.03594268               -0.03573313                0.11883086               -0.00062539               -0.00711587               -0.00710206
               1.99926189                6.99958408                6.00714915                0.01445985               -0.02732238               -0.02746101                0.12322509               -0.01409490               -0.02853301               -0.00002178
               2.99908342                6.99907433                6.00688218                0.01000001               -0.02034694               -0.02535930                0.10624441               -0.01637607               -0.01532182               -0.02149509
               3.99885495                6.99871244                6.00720557                0.01000000               -0.02824087               -0.02889169                0.11904155               -0.01338868               -0.00155897               -0.05170057
               4.99851860                6.99842575                6.00713896                0.01000000               -0.03003981               -0.03439528                0.12261625               -0.01314740               -0.03609136               -0.04596304
               5.99825416                6.99827171                6.00672493                0.01000000               -0.03118024               -0.03609477                0.11527366               -0.00655228                0.00073361               -0.01111386
               6.99789500                6.99822960                6.00744612                0.01000000               -0.04125800               -0.04334623                0.14431143               -0.00681224                0.03403459                0.02415306
               7.99742900                6.99820768                6.00799903                0.01000000               -0.04892620               -0.06284779                0.16196742               -0.06107181                0.03136800                0.07285160
               8.99691647                6.99797547                6.00883292                0.01000000               -0.05785585               -0.06576730                0.23129855               -0.07550014                0.07126036                0.18842115
               9.99627188                6.99790403                6.01057930                0.06805494               -0.06445922               -0.09539794                0.24906054               -0.04410057                0.12485636                0.17364904
               0.00052460                8.00031018                6.00705539                0.99999999               -0.03590085               -0.03567020                0.11968098                0.00006826               -0.00323415                0.01998941
               1.00016559                7.99976354                6.00708227                0.95176162               -0.03600699               -0.03617306                0.12027404               -0.00045854               -0.00408202               -0.00176549
               1.99980446                7.99921901                6.00708566                0.01000001               -0.03503502               -0.03606984                0.12055097                0.00187483               -0.01341592               -0.01640206
               2.99946489                7.99871501                6.00695844                0.01000000               -0.03658576               -0.03763698                0.17366228                0.00433232               -0.03449896               -0.01679400
               3.99907275                7.99841459                6.00649509                0.01000000               -0.03831313               -0.03175611                0.13228794               -0.00119609               -0.02878128               -0.03533941
               4.99869863                7.99811317                6.00658120                0.01000000               -0.03950323               -0.03075884                0.11661507                0.00363465                0.01317489               -0.01455216
               5.99828268                7.99793448                6.00703515                0.01000001               -0.04110928               -0.03351492                0.12152438               -0.00875756                0.03054177                0.02559897
               6.99787645                7.99774746                6.00760150                0.01000000               -0.08166745               -0.04105101                0.15203583               -0.03856260                0.07003083                0.01991023
               7.99664933                7.99733299                6.00903067                0.01000000               -0.09049742               -0.07622769                0.25886563               -0.05341639                0.15792863                0.01721242
               8.99606650                7.99746184                6.01219500                0.13365206               -0.03536928               -0.04867530                0.06059377               -0.02407342                0.12804651                0.13206972
               9.99594195                7.99727185                6.01260474                0.62312478               -0.01245488               -0.05282283                0.05205396               -0.03915919                0.00454211                0.06590995
               0.00107538                8.99995005                6.00718621                0.99999999               -0.03635253               -0.03620904                0.12089801                0.00071343                0.00000064                0.01646850
               1.00071186                8.99940237                6.00713793                0.99787900               -0.03637344               -0.03647506                0.12157967                0.00058674                0.00080942                0.00214766
               2.00034792                8.99886268                6.00710498                0.57260105               -0.03686862               -0.03661580                0.12277922                0.00027395                0.00344911               -0.00890499
               2.99997449                8.99832159                6.00713139                0.01000000               -0.04575242               -0.03952729                0.12889137                0.01339708               -0.02112542               -0.00745256
               3.99943287                8.99807732                6.00662293                0.01000000               -0.04515434               -0.03969542                0.13363436                0.01943654               -0.00978414                0.00224144
               4.99907140                8.99781058                6.00709830                0.01161423               -0.04940737               -0.03797853                0.14439841                0.01037616                0.03217016                0.03497127
               5.99844472                8.99760141                6.00765866                0.01027185               -0.06730838               -0.04178026                0.16224088                0.00401392                0.04411914                0.04338247
               6.99772523                8.99740858                6.00814783                0.01000000               -0.08992183               -0.04356696                0.19527460               -0.05494308                0.03845891                0.05619436
               7.99664628                8.99668313                6.00867750                0.01000001               -0.06145442               -0.02308975                0.09841876               -0.01616641                0.11313967                0.00144551
               8.99649614                8.99700196                6.01070166                0.98600159               -0.03888022               -0.05427094                0.21288084                0.03579442                0.07967292               -0.08684389
               9.99586868                8.99684757                6.01111903                0.99386036               -0.06274651               -0.05096431                0.20373333               -0.01128089               -0.00146840               -0.08918434
               0.00163424                9.99958599                6.00723129                0.99787529               -0.03695376               -0.03640576                0.12256118                0.00068963                0.01333182                0.01213456
               1.00126470                9.99903404                6.00720769                1.00000000               -0.03717570               -0.03683313                0.12442569                0.00031918                0.01537932                0.00258618
               2.00089072                9.99848670                6.00722855                0.97182166               -0.03732525               -0.03759850                0.12688636               -0.00119778                0.02292420               -0.00408702
               3.00051820                9.99792446                6.00735821                0.04288954               -0.04591186               -0.03971213                0.12952124                0.01107016                0.01050121               -0.00425588
               3.99997249                9.99762068                6.00713865                0.05907432               -0.05680679               -0.04566389                0.16864539                0.02541891                0.01263176                0.01722702
               4.99938206                9.99735360                6.00793145                0.01000000               -0.06037630               -0.04569735                0.17082865                0.00497585                0.04157496                0.05793237
               5.99876496                9.99709888                6.00856024                0.06573544               -0.08430941               -0.05025362                0.19108194                0.00814996                0.06319457                0.07201995
               6.99769587                9.99687612                6.00929920                0.07025840               -0.10161693               -0.05324568                0.21025240               -0.01431995                0.03390308                0.09073216
               7.99673262                9.99687120                6.00903011                0.66803469               -0.05389671                0.01880738                0.09162583               -0.01635079                0.08359157               -0.01202793
               8.99661794                9.99637643                6.01098424                0.99386164               -0.03537587               -0.06255342                0.20255779               -0.01875222                0.07921359                0.00078751
               9.99602511                9.99625257                6.01140155                0.99594993               -0.05928329               -0.05950059                0.19340569                0.00325671                0.00095841               -0.00197947
               0.00053981                0.00099169                7.00684294                0.97596316               -0.03085330               -0.03054482                0.10160385                0.00026577               -0.00066439               -0.00035544
               1.00023128                0.00102090                7.00689343                0.76420938               -0.03119936               -0.03103405                0.10370259                0.00022038               -0.00060370               -0.00020962
               1.99991582                0.00104710                7.00693417                0.25826491               -0.03174354               -0.03163903                0.10559673               -0.00104779               -0.00262206                0.00008455
               2.99959641                0.00104484                7.00693881                0.05984614                0.01635834               -0.03179159                0.10332716               -0.04023611                0.01643345                0.00016253
               4.00024299                0.00022867                7.00737421                0.12841597                0.02778355               -0.04305428                0.10666278               -0.04196901                0.01828113               -0.00322900
               5.00015208                0.00022558                7.00776648                0.34827858               -0.02118107               -0.03432513                0.11507341               -0.01243997                0.01088775               -0.00208215
               5.99981937                0.00049345                7.00807667                0.89353126               -0.03460049               -0.03494352                0.11851609               -0.00016418                0.00637236               -0.00179150
               6.99946007                0.00078132                7.00837504                0.99887754               -0.03670519               -0.03666969                0.12284030                0.00073926                0.00701711               -0.00160941
               7.99908526                0.00106935                7.00869103                1.00000000               -0.03806457               -0.03805409                0.12690554                0.00089238                0.00824737               -0.00129900
               8.99869878                0.00135639                7.00901635                0.99999999               -0.03919629               -0.03921875                0.13056181                0.00090509                0.00699352                0.00090616
               9.99830134                0.00164258                7.00931035                1.00000000               -0.03974374               -0.04051186                0.13448499                0.00074337                0.00553969                0.00603040
               0.00051326                1.00068625                7.00675525                0.77148307               -0.03074838               -0.03064495                0.10162581               -0.00022274               -0.00029166               -0.00014617
               1.00020578                1.00071056                7.00680724                0.01502368               -0.03099425               -0.03082617                0.10360663               -0.00033111               -0.00039403               -0.00011261
               1.99989337                1.00073071                7.00685015                0.01000000               -0.03012559               -0.02664228                0.10560739               -0.00190124               -0.00243558                0.01604963
               2.99960326                1.00072693                7.00685885                0.01000000                0.01697781               -0.03771676                0.10308231               -0.04461971                0.02500499                0.01703907
               4.00023293                0.99979812                7.00745653                0.01000000                0.01460103               -0.01807956                0.10688085               -0.08708127                0.02353796               -0.00322341
               4.99989528                0.99988233                7.00782368                0.01000000               -0.03465369               -0.02650514                0.11429847               -0.03129480                0.00287697               -0.00455940
               5.99953986                1.00014402                7.00808753                0.01000000               -0.03578881               -0.03291954                0.11819783               -0.01345598               -0.00281565               -0.00452628
               6.99917951                1.00041462                7.00833968                0.64778198               -0.03666036               -0.03650717                0.12232453               -0.00027552               -0.00237995               -0.00540802
               7.99880665                1.00068881                7.00861057                0.96293266               -0.03791471               -0.03785432                0.12645882                0.00038197               -0.00022882               -0.00217157
               8.99842121                1.00096421                7.00890996                0.99479186               -0.03920309               -0.03922857                0.13072315                0.00033872                0.00092887                0.00123345
               9.99802259                1.00123746                7.00920636                0.99999999               -0.03986261               -0.04057764                0.13498210                0.00013096                0.00086674                0.00768481
               0.00048672                2.00037880                7.00666117                0.27223903               -0.03065368               -0.03123893                0.10152990               -0.00391454                0.00018939               -0.00056076
               1.00018019                2.00040438                7.00671572                0.01000000               -0.03126455               -0.02634940                0.10298961               -0.00049901                0.01592217                0.00000324
               1.99986143                2.00051426                7.00708302                0.01019263               -0.02717922               -0.00915153                0.11078095               -0.03516468                0.01085669                0.02010352
               2.99963660                2.00029051                7.00711811                0.01090200               -0.02577352               -0.03085259                0.10251195               -0.05807137                0.00641735                0.02516933
               3.99934596                1.99986707                7.00745671                0.01000001               -0.02281573               -0.00780812                0.11757717               -0.09542072                0.01976558               -0.00352921
               4.99918029                1.99969548                7.00780226                0.01000000               -0.01640036               -0.02358116                0.12993305               -0.05905835                0.00625785               -0.00315696
               5.99901796                1.99983506                7.00802480                0.01000000               -0.01352642               -0.03032950                0.12861817               -0.03123329               -0.00604378               -0.00357991
               6.99890976                2.00005117                7.00822110                0.01257952               -0.02373188               -0.03465066                0.11980974               -0.01386838               -0.00958149                0.00729403
               7.99854332                2.00031227                7.00851246                0.03420744               -0.03764284               -0.03683854                0.12570594               -0.00070621               -0.00439092               -0.00187111
               8.99815690                2.00057182                7.00880887                0.75143166               -0.03929331               -0.03920627                0.13089483               -0.00001422               -0.00287494                0.00057408
               9.99775745                2.00083102                7.00913271                0.94699079               -0.03994514               -0.04059881                0.13526935                0.00012441               -0.00134923                0.00935863
               0.00038380                3.00006147                7.00656130                0.07666995               -0.03234690                0.03760017                0.09727025               -0.07900062                0.00003992                0.05669554
               1.00006033                3.00018357                7.00662901                0.01000000               -0.05399247                0.04107923                0.09786418               -0.07853489                0.02377447                0.07571790
               1.99930395                3.00054768                7.00717298                0.01090286               -0.04856561               -0.01295381                0.10253395               -0.06932628                0.01604705                0.03536989
               2.99908902                3.00010987                7.00732911                0.01000001               -0.01922026               -0.02300133                0.11425971               -0.10082135               -0.00487233                0.02572681
               3.99891955                2.99964196                7.00760034                0.01000000               -0.01714442               -0.02711124                0.12192102               -0.07500777                0.00152869                0.01501854
               4.99874613                2.99941070                7.00791682                0.01584793               -0.01800269               -0.02392675                0.09701798               -0.04215952                0.00035719                0.00715927
               5.99855949                2.99953743                7.00811835                0.01427898               -0.01605993               -0.02806894                0.09416304               -0.01717418                0.00146658                0.00627310
               6.99842493                2.99972161                7.00843803                0.01709292               -0.01438079               -0.03063182                0.11143395               -0.01708132               -0.00652760                0.01575859
               7.99827188                2.99995204                7.00843361                0.01000000               -0.02613811               -0.03117196                0.09456523               -0.01032580               -0.02238223                0.02567832
               8.99790217                3.00018008                7.00868733                0.01000000               -0.03826032               -0.03978967                0.13089888               -0.01332270               -0.00804019                0.00543442
               9.99750667                3.00042548                7.00906022                0.01841885               -0.03955002               -0.04076499                0.13468460               -0.01711960               -0.00133854                0.01907095
              -0.00133750                4.00113080                7.00764136                0.14806575               -0.05392252                0.06482226                0.10779475               -0.08186093               -0.00386611                0.06754070
               0.99812327                4.00122596                7.00804430                0.01000000               -0.00569464                0.03068865                0.11051964               -0.13628173               -0.04231296                0.08319100
               1.99854861                4.00025518                7.00762108                0.01000001                0.02013122               -0.02950808                0.12294308               -0.11640720               -0.06342478                0.05167182
               2.99852590                3.99983048                7.00767693                0.01000000               -0.00018146               -0.03463790                0.12129766               -0.07857600               -0.01898363                0.02577420
               3.99854498                3.99932485                7.00791264                0.01627287               -0.00421330               -0.02783907                0.09844175               -0.05539574               -0.00452772                0.01642702
               4.99844163                3.99921694                7.00814648                0.01483740               -0.00907042               -0.01935988                0.07192752               -0.02207721               -0.00562454                0.01190573
               5.99836357                3.99927368                7.00829136                0.01740423               -0.01440576               -0.02365767                0.07574055               -0.00513228               -0.00261863                0.01312686
               6.99815352                3.99943854                7.00859038                0.01000000               -0.02426203               -0.02930789                0.09926887                0.00000536                0.00663886                0.00170024
               7.99787833                3.99968883                7.00894653                0.01000000               -0.03682550               -0.03866707                0.15005622               -0.01973199               -0.02648788                0.00587624
               8.99741701                3.99977603                7.00868224                0.01000000               -0.04770365               -0.04321790                0.17234177               -0.03160289               -0.03034047                0.04153197
               9.99692426                4.00001573                7.00917567                0.06194556               -0.04927521               -0.04260843                0.16161893               -0.02331129                0.00969811                0.04877297
              -0.00144375                5.00135791                7.00792300                0.37924723               -0.03459389               -0.00285867                0.11352156               -0.03198361               -0.00469805                0.02500468
               0.99821032                5.00079735                7.00830100                0.01000000               -0.00924815               -0.03970550                0.11433343               -0.03613151               -0.03367027                0.00843189
               1.99837129                4.99995752                7.00804728                0.01000000                0.01187589               -0.03094575                0.13135856               -0.06088552               -0.05765572                0.02454570
               2.99844783                4.99941712                7.00793525                0.01585073                0.00269403               -0.03538457                0.09530065               -0.03578613               -0.02567979                0.00783428
               3.99842517                4.99908518                7.00811888                0.01483901               -0.00460383               -0.02133974                0.07082277               -0.02120182               -0.00339275                0.00383693
               4.99835576                4.99902351                7.00835505                0.01769350               -0.00949601               -0.02074841                0.06873297               -0.00365775               -0.00181791                0.00617477
               5.99823525                4.99906427                7.00849916                0.01000000               -0.01729311               -0.02355489                0.07684586               -0.00398558               -0.01144277                0.00782737
               6.99800989                4.99913545                7.00852222                0.01000000               -0.03477525               -0.03807642                0.11986816               -0.01244310               -0.01516129                0.00894227
               7.99753975                4.99917870                7.00861195                0.01000000               -0.05333393               -0.05328456                0.18417579               -0.02510199                0.00986120                0.01714030
               8.99694322                4.99931572                7.00948703                0.01604174               -0.04893467               -0.04203471                0.16022963               -0.02099650                0.02209377                0.06974069
               9.99656105                4.99957331                7.01013934                0.01000000               -0.03821626               -0.03373500                0.11779885               -0.00408876                0.02372994                0.06889958
              -0.00085604                6.00107363                7.00804576                1.00000000               -0.03429239               -0.03128269                0.11324786               -0.00230870               -0.00344183                0.01490896
               0.99880104                6.00043185                7.00831790                0.01000000               -0.02164166               -0.03562969                0.11480607               -0.01022010               -0.02612089               -0.00666198
               1.99871113                5.99963627                7.00813562                0.01000000               -0.00592585               -0.02488908                0.12566809               -0.02908803               -0.04350962                0.00311069
               2.99868252                5.99912279                7.00799612                0.01428375               -0.00982879               -0.02988590                0.09248273               -0.01416178               -0.02017215               -0.00254933
               3.99851455                5.99889805                7.00818646                0.01740786               -0.01465671               -0.02498976                0.07521977                0.00011106                0.00319778                0.00051626
               4.99838938                5.99880197                7.00843205                0.01000000               -0.01713179               -0.02542813                0.07686761                0.00050431                0.00069840               -0.00741209
               5.99817191                5.99880258                7.00854809                0.01000000               -0.02995785               -0.03816767                0.11715608               -0.01138299               -0.00293584                0.00205870
               6.99779023                5.99867701                7.00868492                0.01000000               -0.04879496               -0.05179769                0.17840302               -0.03017123                0.00738770                0.03114019
               7.99719602                5.99862314                7.00916067                0.01000000               -0.05938823               -0.06147656                0.19313884               -0.01684036                0.04947295                0.07365798
               8.99660246                5.99893533                7.01047080                0.01513623               -0.04343592               -0.05367370                0.16216978                0.00109087                0.04673365                0.08494552
               9.99632730                5.99934103                7.01121108                0.06979768               -0.02751658               -0.03783172                0.11751292                0.00505121                0.03669779                0.08992583
              -0.00020638                7.00073226                7.00811179                0.99891528               -0.03503523               -0.03477253                0.11611134                0.00104493               -0.00266324                0.01520826
               0.99944327                7.00008475                7.00828187                0.77117854               -0.03475148               -0.03534216                0.11714001                0.00140768               -0.01003355               -0.00626583
               1.99909859                6.99945974                7.00830242                0.01258790               -0.02702311               -0.02757160                0.11660056               -0.01252206               -0.02620794               -0.00545476
               2.99890281                6.99881940                7.00813437                0.01710011               -0.01751930               -0.04316704                0.11517264               -0.00550551               -0.00642191                0.02470027
               3.99874821                6.99858538                7.00841773                0.01000000               -0.02207478               -0.03305202                0.10286791                0.01167824               -0.00185201               -0.00322753
               4.99846131                6.99851494                7.00835408                0.01000000               -0.03078266               -0.04373133                0.11933652                0.00014879               -0.00431369               -0.01599885
               5.99813256                6.99830092                7.00852755                0.01000000               -0.04376990               -0.05570858                0.17484633               -0.02077203                0.02326661                0.00466388
               6.99758592                6.99809950                7.00914630                0.01000000               -0.05939709               -0.05509483                0.17734500               -0.03361173                0.05023191                0.03638635
               7.99694461                6.99794917                7.01009311                0.01000000               -0.06693859               -0.05567544                0.20527323               -0.01770540                0.07957735                0.07874932
               8.99624714                6.99824225                7.01151358                0.01000000               -0.05469584               -0.07215703                0.22573138                0.00138664                0.07095717                0.12799385
               9.99585070                6.99881668                7.01247373                0.07186323               -0.03964475               -0.10264084                0.16977448                0.01409128                0.04989089                0.12302752
               0.00045987                8.00037818                7.00823987                0.99999999               -0.03581619               -0.03587707                0.11816868                0.00105631               -0.00200295                0.01931156
               1.00010171                7.99972501                7.00830447                0.95100531               -0.03669156               -0.03675105                0.12236502                0.00096903               -0.00275598               -0.00051980
               1.99972604                7.99908484                7.00835258                0.02721304               -0.03274719               -0.03861936                0.12732052               -0.00948133                0.03472372               -0.01239588
               2.99944676                7.99825945                7.00916568                0.01000000               -0.03367348               -0.03950929                0.12802338                0.01219396               -0.00203199               -0.01598036
               3.99905257                7.99823701                7.00850538                0.01000000               -0.03849699               -0.04878758                0.15484568                0.01915022               -0.04218062               -0.03441440
               4.99867682                7.99792735                7.00824602                0.01000000               -0.04403235               -0.05854752                0.17586424               -0.00731777                0.00820236                0.00447246
               5.99817192                7.99768841                7.00874988                0.01000000               -0.06035411               -0.05735349                0.18247024                0.00018266                0.05390082                0.03440615
               6.99746974                7.99757511                7.00961089                0.01000000               -0.07363839               -0.05440347                0.19745298                0.00811385                0.08396222                0.04917372
               7.99669915                7.99750963                7.01097232                0.01000000               -0.08535291               -0.04518893                0.19081656               -0.00095562                0.16599334                0.05715614
               8.99576268                7.99749219                7.01305583                0.12260105               -0.06194473               -0.07264001                0.14294543               -0.01760539                0.09885047                0.05939001
               9.99546026                7.99728821                7.01341399                0.61136333               -0.03024243               -0.11046409                0.13599426               -0.03874375               -0.01251044                0.02541261
               0.00112108                9.00001472                7.00838694                0.99999999               -0.03650872               -0.03649464                0.12005479               -0.00039703                0.00186351                0.01627866
               1.00075599                8.99934973                7.00838028                0.99999996               -0.03732749               -0.03747065                0.12431556               -0.00083813                0.00225720                0.00148699
               2.00037453                8.99868735                7.00838129                0.59102043               -0.03807415               -0.03894420                0.12776612               -0.00037443                0.00240931               -0.01036505
               2.99999451                8.99802921                7.00838107                0.01000000               -0.04556075               -0.03009226                0.12441775                0.00670265               -0.00308685               -0.05515201
               3.99946331                8.99760963                7.00827182                0.01000000               -0.05654741               -0.04860112                0.16839038                0.00176396                0.02333658               -0.02777696
               4.99886356                8.99734399                7.00886085                0.01608365               -0.04874361               -0.04513902                0.14895601               -0.00709107                0.04505882                0.01756745
               5.99848844                8.99715385                7.00963269                0.01514655               -0.04682924               -0.03827571                0.14357278                0.01053927                0.05857803                0.03411835
               6.99792698                8.99701143                7.01047437                0.01161233               -0.07400114               -0.04548490                0.19059329                0.03821250                0.06949389                0.04422203
               7.99700842                8.99704539                7.01124432                0.01000001               -0.09052605               -0.06197245                0.23423484                0.02274186                0.13149330                0.02647852
               8.99611646                8.99678945                7.01285076                0.98560798               -0.07623131               -0.06685607                0.21466492                0.00342856                0.06290079               -0.01806670
               9.99548379                8.99660740                7.01317493                0.99444716               -0.06326622               -0.06424208                0.20567000               -0.00798007               -0.00141955               -0.02247930
               0.00178190                9.99964828                7.00845611                1.00000000               -0.03695902               -0.03664354                0.12243923               -0.00118635                0.01233282                0.01233303
               1.00141231                9.99897560                7.00844679                0.99999999               -0.03714158               -0.03741347                0.12359088               -0.00148472                0.01467854                0.00098215
               2.00103907                9.99830595                7.00848296                0.98844019               -0.03768864               -0.03814017                0.12485904                0.00055428                0.02226025               -0.00658453
               3.00065854                9.99765760                7.00862425                0.04427372               -0.06330011               -0.03716096                0.12623504                0.01435490                0.01951823               -0.00253628
               3.99977307                9.99726499                7.00860669                0.06205135               -0.08338759               -0.03446403                0.15448562               -0.00067658                0.02356349                0.00499254
               4.99899079                9.99702457                7.00929917                0.01000000               -0.05288961               -0.03194276                0.11027193               -0.00438224                0.03631896                0.01861401
               5.99871528                9.99692290                7.01008140                0.06976897               -0.03241675               -0.02309518                0.09865671                0.00472571                0.05262894                0.02816946
               6.99834245                9.99666541                7.01102726                0.07414863               -0.06696527               -0.03460115                0.13907260                0.00891153                0.06554385                0.03891482
               7.99737597                9.99627018                7.01143527                0.65532629               -0.10366018               -0.07752116                0.22247010                0.01123791                0.12532650               -0.00196484
               8.99626925                9.99615507                7.01304009                0.99444847               -0.08556054               -0.06343755                0.20605152                0.00193859                0.06584979                0.00126747
               9.99566476                9.99600337                7.01336418                0.99700362               -0.06044885               -0.06040314                0.19705635                0.00292594                0.00109889               -0.00159036
               0.00047183                0.00107673                8.00784722                0.98164338               -0.03025337               -0.02996634                0.09926809                0.00057383               -0.00077008               -0.00017510
               1.00016930                0.00110504                8.00792251                0.76445281               -0.03075345               -0.03071423                0.10219328                0.00037619               -0.00074563               -0.00033284
               1.99985676                0.00113320                8.00798687                0.25182284               -0.03185954               -0.03178330                0.10507803               -0.00091643               -0.00440749                0.00013505
               2.99953211                0.00113407                8.00798292                0.05497709                0.00744533               -0.03288225                0.10576401               -0.04998143                0.01437140                0.00052705
               4.00000567                0.00012088                8.00843112                0.12559687                0.01818454               -0.04078867                0.10650533               -0.05226443                0.02120469               -0.00252250
               4.99989580                0.00015865                8.00890418                0.34593752               -0.02221242               -0.03438071                0.11395470               -0.01240391                0.01398804               -0.00131699
               5.99956142                0.00047427                8.00926261                0.89048360               -0.03482552               -0.03574734                0.11886264               -0.00016406                0.00708443               -0.00116223
               6.99919929                0.00080590                8.00960192                0.99881295               -0.03684367               -0.03683195                0.12284611                0.00055836                0.00686403               -0.00135752
               7.99882455                0.00113890                8.00995925                1.00000000               -0.03808534               -0.03798225                0.12690944                0.00059569                0.00804719               -0.00136208
               8.99843758                0.00147185                8.01032221                0.99999999               -0.03916400               -0.03909352                0.13048749                0.00065847                0.00672930                0.00098433
               9.99804127                0.00180483                8.01065362                1.00000000               -0.03963136               -0.04022203                0.13395820                0.00061417                0.00505945                0.00624340
               0.00044926                1.00077707                8.00776396                0.77187499               -0.03044298               -0.03024815                0.10020138               -0.00006810               -0.00015663                0.00005045
               1.00014483                1.00079790                8.00784008                0.01745372               -0.03080865               -0.03062969                0.10306689               -0.00052290               -0.00024655               -0.00050883
               1.99983308                1.00081536                8.00790873                0.01000000               -0.03031872               -0.02826253                0.10619123               -0.00362952               -0.00418259                0.01617972
               2.99953845                1.00080525                8.00790528                0.01000000                0.00688260               -0.04181951                0.10667893               -0.05623277                0.02279835                0.01548841
               3.99997074                0.99971299                8.00852498                0.01373224                0.00283062               -0.02158431                0.10793529               -0.08691954                0.02417303                0.00483956
               4.99959507                0.99981485                8.00895896                0.01000000               -0.03672887               -0.02457900                0.11395482               -0.02374720                0.00523135                0.00538095
               5.99923616                1.00011679                8.00927214                0.01000000               -0.03612545               -0.03144907                0.11878540               -0.00863507               -0.00216254               -0.00119506
               6.99887256                1.00043758                8.00956399                0.64036317               -0.03693151               -0.03679321                0.12275830                0.00003083               -0.00247200               -0.00574324
               7.99849753                1.00075908                8.00987536                0.96035694               -0.03806786               -0.03797147                0.12672736                0.00005415               -0.00023785               -0.00227983
               8.99811120                1.00108092                8.01021534                0.99741290               -0.03915507               -0.03912813                0.13050087                0.00014006                0.00095636                0.00127077
               9.99771443                1.00140261                8.01055231                0.99999999               -0.03967720               -0.04031444                0.13429943                0.00007864                0.00083605                0.00776681
               0.00042880                2.00047177                8.00767416                0.26598998               -0.03082574               -0.03178587                0.10120542               -0.00437410                0.00038760               -0.00199705
               1.00012054                2.00049245                8.00774819                0.01000000               -0.03259889               -0.02626833                0.10362141               -0.00306673                0.01681849               -0.00269661
               1.99977682                2.00056795                8.00815295                0.01000001               -0.03053593               -0.00888694                0.10488427               -0.04578714                0.01078180                0.01939880
               2.99950983                2.00029768                8.00814323                0.01000001               -0.02595691               -0.03746767                0.11016577               -0.08158969                0.01281786                0.03329102
               3.99925769                1.99968919                8.00871796                0.01000001               -0.02463860               -0.00335404                0.11085835               -0.10086044                0.03416561               -0.00016257
               4.99901705                1.99966707                8.00914885                0.01000000               -0.02458484               -0.02131010                0.11137626               -0.04568263                0.00342422               -0.00642208
               5.99876599                1.99984529                8.00928831                0.01000000               -0.02297150               -0.03006628                0.13819781               -0.02724813               -0.01624004               -0.00965454
               6.99855762                2.00007003                8.00944089                0.01014904               -0.02918472               -0.03853110                0.12271573               -0.01113863               -0.01311304               -0.01057151
               7.99818229                2.00037947                8.00977371                0.03402267               -0.03803882               -0.03832146                0.12654109               -0.00062022               -0.00419719               -0.00534561
               8.99779685                2.00068929                8.01011485                0.75886906               -0.03914239               -0.03915401                0.13056425                0.00011264               -0.00254801                0.00064548
               9.99739945                2.00099854                8.01048094                0.95440244               -0.03974005               -0.04043675                0.13459221                0.00004436               -0.00115601                0.00928500
               0.00032041                3.00014135                8.00754529                0.07238447               -0.03330958                0.03366330                0.09975726               -0.09792027                0.00053753                0.05901142
               0.99998731                3.00027254                8.00762124                0.01000000               -0.06041509                0.03663294                0.10112953               -0.09686204                0.02459809                0.07776532
               1.99911211                3.00063763                8.00819192                0.01000001               -0.06009501               -0.00789743                0.10944907               -0.10278363                0.02583783                0.04774349
               2.99878541                3.00005590                8.00852757                0.01300311               -0.02639846               -0.02721208                0.10770724               -0.11108687                0.00423414                0.03113369
               3.99858414                2.99964591                8.00880431                0.01000000               -0.01300470               -0.01805765                0.11060860               -0.08055524               -0.01210897                0.00677408
               4.99852532                2.99938864                8.00884268                0.01439021               -0.01479511               -0.02524433                0.09944360               -0.04662611               -0.00960776               -0.01206535
               5.99828824                2.99951547                8.00911048                0.01248414               -0.02048594               -0.03120323                0.11203736               -0.02072386               -0.00340062               -0.00960101
               6.99811560                2.99966696                8.00931230                0.01492199               -0.02111834               -0.03455678                0.11727090               -0.01193061               -0.00748065                0.00269151
               7.99786587                2.99999265                8.00963279                0.01000000               -0.03106117               -0.03954179                0.12326309               -0.00135126               -0.00816429                0.01052367
               8.99749438                3.00029784                8.00999480                0.01000000               -0.03845336               -0.04720871                0.13043558               -0.00628687               -0.00418327                0.03011813
               9.99709680                3.00059388                8.01040596                0.02047790               -0.03975751               -0.04823912                0.13429752               -0.01090557               -0.00170458                0.03645235
              -0.00179198                4.00114503                8.00869824                0.14563693               -0.05209974                0.06277085                0.10619329               -0.10109280               -0.00403963                0.07685169
               0.99768703                4.00122511                8.00914208                0.01373558               -0.01351185                0.02306067                0.11045572               -0.14651580               -0.03196830                0.08889037
               1.99793779                4.00041000                8.00898370                0.01000001                0.02963872               -0.03028231                0.11612508               -0.13184906               -0.06488418                0.06810770
               2.99827980                3.99975344                8.00884173                0.01000000                0.01880235               -0.03374022                0.10788541               -0.08367315               -0.03253992                0.01141209
               3.99831383                3.99932804                8.00884084                0.01509656               -0.00324140               -0.03109132                0.08669983               -0.04858280               -0.02248025                0.00239397
               4.99821497                3.99916219                8.00884960                0.01365683               -0.01203176               -0.02258856                0.07875563               -0.02492581               -0.01184450                0.00656759
               5.99807320                3.99922122                8.00908884                0.01616934               -0.01865708               -0.02701790                0.08559027               -0.00524897               -0.00092705                0.00571668
               6.99784183                3.99937890                8.00942933                0.01000000               -0.02744048               -0.02892407                0.09347418               -0.00387647                0.00626614                0.01654077
               7.99752439                3.99958863                8.00986307                0.01000000               -0.03859768               -0.04055084                0.11913986               -0.01872506                0.01282454                0.04243229
               8.99706988                3.99974511                8.01048221                0.01000000               -0.04675702               -0.06462878                0.17475533               -0.02632260                0.00576052                0.04546208
               9.99658925                4.00003376                8.01087374                0.06348989               -0.04806292               -0.07381117                0.16219806               -0.01513858               -0.00267960                0.04115408
              -0.00186160                5.00139677                8.00903793                0.37614896               -0.03463689               -0.00153588                0.11142993               -0.03531144               -0.00345302                0.02688733
               0.99779203                5.00073375                8.00943081                0.01000000               -0.00958043               -0.04305082                0.11277467               -0.02826849               -0.02369661                0.00845587
               1.99794679                5.00003198                8.00941589                0.01000000                0.02009379               -0.04173457                0.11021633               -0.04020004               -0.06297102                0.01575149
               2.99819391                4.99938109                8.00885180                0.01439293                0.01284725               -0.03906753                0.09878809               -0.04105967               -0.05460778                0.00341219
               3.99820374                4.99902408                8.00881647                0.01365839               -0.00301437               -0.03120679                0.07856752               -0.02190393               -0.01354623                0.00227827
               4.99813362                4.99893687                8.00902719                0.01675471               -0.01185963               -0.02541891                0.07605532               -0.00453821               -0.00092748                0.00926406
               5.99796655                4.99897511                8.00928141                0.01000000               -0.02314811               -0.02760275                0.08833057               -0.00078036                0.00314721                0.01652443
               6.99767066                4.99908847                8.00969001                0.01000000               -0.04206969               -0.03828916                0.12360101               -0.00757390                0.02578806                0.04147513
               7.99712515                4.99918163                8.01052509                0.01000000               -0.05739310               -0.05033416                0.18261605               -0.03936975                0.01672562                0.05981499
               8.99652280                4.99900526                8.01074600                0.01000001               -0.04542087               -0.06477823                0.15918830               -0.04883743               -0.01111193                0.04585782
               9.99621674                4.99911765                8.01099783                0.01030753               -0.03060625               -0.06949115                0.13623412               -0.02149900               -0.01598422                0.04265138
              -0.00117217                6.00111432                8.00917598                0.99702472               -0.03413870               -0.03116269                0.11337433               -0.00257652               -0.00348655                0.01456686
               0.99848645                6.00036409                8.00946279                0.01000000               -0.01706952               -0.03599022                0.11430563               -0.00462397               -0.02308794               -0.00693127
               1.99848644                5.99957531                8.00935628                0.01000000               -0.00099712               -0.03869777                0.13329297               -0.02267800               -0.04918670               -0.00777782
               2.99846650                5.99897209                8.00899830                0.01248877               -0.00832324               -0.04911622                0.11675896               -0.01128204               -0.04304582                0.00524378
               3.99831998                5.99870390                8.00899971                0.01617288               -0.01466593               -0.03475570                0.08674543                0.00380905               -0.00957556                0.00566209
               4.99817318                5.99865381                8.00921592                0.01000000               -0.02069932               -0.03225333                0.08833410                0.00770730                0.00727149                0.00775615
               5.99790599                5.99866917                8.00962107                0.01000000               -0.03446747               -0.04059555                0.11340341               -0.00399870                0.03010074                0.03097903
               6.99748383                5.99861311                8.01040315                0.01000000               -0.05428903               -0.05285643                0.17069824               -0.02119020                0.04550393                0.05542876
               7.99682021                5.99858195                8.01120482                0.01000000               -0.06633643               -0.06053078                0.18980083               -0.03177287                0.02161716                0.07130089
               8.99615711                5.99844955                8.01147029                0.01000001               -0.04428649               -0.05274694                0.14463105               -0.02529038               -0.00199299                0.10911783
               9.99593448                5.99864394                8.01171292                0.07314505               -0.02226259               -0.04779913                0.11922170               -0.02392729               -0.02048961                0.11868819
              -0.00041268                7.00077351                8.00926967                0.99807475               -0.03487547               -0.03465326                0.11592613                0.00041896               -0.00302322                0.01510527
               0.99923856                7.00001394                8.00945202                0.76539538               -0.03510417               -0.03546809                0.11710369               -0.00020844               -0.01067868               -0.00487348
               1.99888523                6.99925802                8.00948116                0.01015722               -0.01994461               -0.03415434                0.11880353               -0.02319472               -0.03503372               -0.00738299
               2.99883967                6.99839877                8.00918563                0.01492898               -0.01435158               -0.04116963                0.13149177               -0.00620491               -0.02717772                0.00764269
               3.99859820                6.99832897                8.00926293                0.01000000               -0.02585831               -0.04158466                0.09234511                0.03609290                0.00149369                0.00618271
               4.99832251                6.99829181                8.00952569                0.01000000               -0.03354684               -0.04789808                0.12317191                0.01396097                0.02938681                0.01989400
               5.99792727                6.99816320                8.01022186                0.01000000               -0.04942167               -0.05758503                0.16842015               -0.00853123                0.05058275                0.03587042
               6.99733407                6.99803135                8.01099302                0.01000000               -0.06370031               -0.06051284                0.18393996               -0.01713838                0.06842292                0.04897218
               7.99665326                6.99797101                8.01210450                0.01000000               -0.06895352               -0.06285233                0.19199423               -0.01884833                0.08718989                0.07902482
               8.99595500                6.99795032                8.01334755                0.01329403               -0.06519251               -0.05685396                0.20249394               -0.01823085                0.05774584                0.16117293
               9.99534941                6.99816167                8.01397479                0.07506926               -0.06055914               -0.07825177                0.18819609               -0.02681861                0.02900819                0.14208853
               0.00035535                8.00042125                8.00941877                0.99999999               -0.03575836               -0.03570640                0.11876429                0.00028127                0.00007434                0.01910337
               0.99999777                7.99965473                8.00952957                1.00000000               -0.03588134               -0.03620786                0.12010912               -0.00024701               -0.00028182                0.00066840
               1.99963772                7.99889222                8.00963207                0.02937970               -0.03631539               -0.03665106                0.12136989                0.00020223               -0.01008230               -0.01065620
               2.99927146                7.99814870                8.00951891                0.01000000               -0.02444620               -0.03193937                0.02680101                0.00812722               -0.00065165               -0.00286700
               3.99914880                7.99787221                8.00959201                0.01000000               -0.03266413               -0.04542498                0.13214643                0.01843809                0.02273367                0.00681440
               4.99861818                7.99769585                8.01009848                0.01000000               -0.05764858               -0.05915156                0.17763083               -0.00327724                0.04003128                0.00633062
               5.99799583                7.99751747                8.01068456                0.01000000               -0.06424614               -0.06054687                0.18070566               -0.01087486                0.05485901                0.00175991
               6.99733325                7.99740286                8.01155056                0.01000000               -0.07357790               -0.05773455                0.19184834               -0.00115796                0.09275448                0.03957218
               7.99652427                7.99732490                8.01284700                0.01000000               -0.08657101               -0.06106352                0.19615631                0.00780594                0.15688039                0.05550948
               8.99560183                7.99731247                8.01505390                0.12505889               -0.07744313               -0.06469798                0.20391240               -0.01887225                0.10338691                0.07053559
               9.99497541                7.99707890                8.01532462                0.61109506               -0.06264261               -0.08569367                0.19553221               -0.03122986               -0.00818171                0.04837966
               0.00112598                9.00005939                8.00958731                0.99999998               -0.03633285               -0.03634681                0.12070211                0.00024967                0.00366991                0.01656440
               1.00076265                8.99928979                8.00962424                0.99999996               -0.03653357               -0.03670379                0.12212142               -0.00003606                0.00368169                0.00053870
               2.00039531                8.99852500                8.00966030                0.61100729               -0.03702147               -0.03702737                0.12349421               -0.00045272                0.00100876               -0.01245296
               3.00002222                8.99775998                8.00961975                0.01000000               -0.04877469               -0.03806585                0.12308603                0.02044214                0.01878239               -0.00960397
               3.99941982                8.99742047                8.00999074                0.01000000               -0.07052598               -0.04107092                0.16490738               -0.00155864                0.02636887                0.00211226
               4.99861171                8.99710878                8.01007742                0.01000001               -0.07085295               -0.04233023                0.15597997               -0.02263287                0.02159242               -0.01892798
               5.99800276                8.99695226                8.01053011                0.01000001               -0.05541152               -0.03763104                0.14334479               -0.00692459                0.06647420               -0.01830238
               6.99750347                8.99687665                8.01195970                0.01536694               -0.05514957               -0.04271035                0.14487493                0.00585540                0.09727726                0.02134811
               7.99689977                8.99674974                8.01336220                0.01000001               -0.08399589               -0.04374465                0.17598112                0.02408777                0.12087442                0.02193263
               8.99582356                8.99665636                8.01499496                0.98338287               -0.08539103               -0.06446823                0.21469217                0.00511219                0.06857454               -0.00685646
               9.99519195                8.99644780                8.01523243                0.99396864               -0.06316107               -0.06183263                0.20634334                0.00031851               -0.00145278               -0.01120498
               0.00189954                9.99969431                8.00968008                1.00000000               -0.03681118               -0.03650706                0.12239877               -0.00001033                0.01105392                0.01269400
               1.00153143                9.99892066                8.00967951                0.99999999               -0.03705329               -0.03691317                0.12360000               -0.00025485                0.01328386               -0.00102444
               2.00115847                9.99815167                8.00972573                1.00000000               -0.03732973               -0.03733303                0.12491212               -0.00034749                0.02133251               -0.00978010
               3.00078483                9.99738738                8.00988291                0.04514163               -0.06948199               -0.03725999                0.12472872                0.02121673                0.03719260               -0.00105857
               3.99976883                9.99705079                8.01022837                0.06363241               -0.10755526               -0.03696790                0.15495217                0.00799455                0.02100533               -0.00538660
               4.99863373                9.99684924                8.01013689                0.01036663               -0.08396889               -0.02595329                0.13514560               -0.01209519                0.01789116               -0.02294291
               5.99808946                9.99676485                8.01053337                0.07316173               -0.04904243               -0.01874172                0.12341189               -0.00635990                0.06112466               -0.02389159
               6.99765288                9.99654865                8.01208065                0.07741205               -0.04315686               -0.03280042                0.10793109               -0.00080135                0.07796465                0.00600050
               7.99722632                9.99645001                8.01347951                0.65699656               -0.08234282               -0.02997335                0.15096906                0.00637785                0.10833773                0.02068908
               8.99600602                9.99602311                8.01510527                0.99396993               -0.09137080               -0.06332556                0.20729845               -0.01214149                0.07118102                0.00131893
               9.99539890                9.99584225                8.01534268                0.99744625               -0.06071200               -0.06055474                0.19894910                0.00261012                0.00117123               -0.00159434
               0.00037382                0.00115471                9.00882830                0.98672501               -0.02971080               -0.02944036                0.09711168                0.00084483               -0.00081569                0.00009426
               1.00007671                0.00117911                9.00893730                0.76569189               -0.03032740               -0.03043921                0.10081810                0.00050525               -0.00084086               -0.00042893
               1.99976727                0.00120609                9.00903573                0.24596206               -0.03185624               -0.03178621                0.10455949               -0.00069688               -0.00507070               -0.00004038
               2.99943959                0.00121066                9.00905409                0.04944274               -0.00107234               -0.03342706                0.10771880               -0.06044020                0.01235370                0.00018874
               3.99974582               -0.00000950                9.00950432                0.12211606                0.00803819               -0.03824204                0.10821748               -0.06436107                0.02173464               -0.00280196
               4.99960035                0.00008966                9.01004558                0.34350073               -0.02412573               -0.03443955                0.11431071               -0.01172849                0.01604234               -0.00134687
               5.99926331                0.00045114                9.01045392                0.88863609               -0.03498226               -0.03567174                0.11910129               -0.00015486                0.00760545               -0.00140323
               6.99890070                0.00083003                9.01083196                0.99910881               -0.03686919               -0.03692415                0.12306809                0.00055250                0.00700786               -0.00131482
               7.99852592                0.00120989                9.01122922                1.00000000               -0.03808558               -0.03811339                0.12701048                0.00045124                0.00797299               -0.00127911
               8.99813899                0.00158981                9.01162610                0.99138898               -0.03931140               -0.03928353                0.13109817                0.00044871                0.00630141                0.00131728
               9.99773970                0.00197007                9.01198951                0.99641933               -0.03992956               -0.04045878                0.13511428                0.00059208                0.00438153                0.00705318
               0.00035787                1.00086031                9.00875928                0.77304606               -0.03018015               -0.02985947                0.09891204                0.00007095                0.00000594                0.00033498
               1.00005607                1.00087471                9.00886858                0.01961434               -0.03066745               -0.03049086                0.10258692               -0.00055104                0.00006796               -0.00074740
               1.99974453                1.00088823                9.00897397                0.01000000               -0.03065466               -0.02935254                0.10662882               -0.00417850               -0.00444051                0.01342690
               2.99944298                1.00087639                9.00899243                0.01000000               -0.00409091               -0.04383080                0.10989441               -0.06958921                0.02077690                0.01935971
               3.99966271                0.99960808                9.00961523                0.01201866               -0.00951171               -0.02030044                0.10986433               -0.09266460                0.02193484               -0.00319661
               4.99925275                0.99974527                9.01010277                0.01000000               -0.03855654               -0.02031731                0.11459656               -0.02177933                0.00613317               -0.00793434
               5.99889158                1.00009442                9.01046324                0.01000000               -0.03629477               -0.03237533                0.11914421               -0.00733359               -0.00180964                0.01440957
               6.99852685                1.00046079                9.01079485                0.63520695               -0.03705159               -0.03692951                0.12315319               -0.00021346               -0.00241929               -0.00550398
               7.99815055                1.00082876                9.01114512                0.95885197               -0.03817292               -0.03809833                0.12702998               -0.00021596               -0.00034918               -0.00226472
               8.99776339                1.00119698                9.01151998                0.99999996               -0.03925899               -0.03922694                0.13077688               -0.00017787                0.00068787                0.00145126
               9.99736537                1.00156548                9.01189235                0.99002074               -0.03980268               -0.04034972                0.13452655               -0.00002724                0.00044360                0.00827607
               0.00034643                2.00055753                9.00868528                0.25994282               -0.03086618               -0.03213434                0.10087188               -0.00458526                0.00037760               -0.00239995
               1.00003777                2.00056929                9.00878814                0.01000000               -0.03322016               -0.02648642                0.10415565               -0.00444483                0.01487016               -0.00412966
               1.99968203                2.00061904                9.00918071                0.01000001               -0.03549083               -0.01082159                0.10195243               -0.05326962                0.01592731                0.02389864
               2.99932795                2.00033404                9.00932143                0.01000000               -0.03291907               -0.04211712                0.11533823               -0.09581099                0.00648287                0.02945091
               3.99902365                1.99958449                9.00967387                0.01225167               -0.03247650                0.00232414                0.09658870               -0.09755865                0.00900168                0.00892529
               4.99867842                1.99968332                9.01002978                0.01000000               -0.03112649               -0.01383095                0.09554691               -0.03929017                0.01847048               -0.00917350
               5.99840112                1.99980363                9.01078876                0.01686983               -0.02581644               -0.02747716                0.11158810               -0.02307954               -0.00462948               -0.00401304
               6.99816209                2.00009144                9.01067542                0.01000000               -0.03078508               -0.03368930                0.12351109               -0.00647698               -0.02875167                0.00160742
               7.99778542                2.00044793                9.01104328                0.03383445               -0.03816899               -0.03778021                0.12705764               -0.00053094               -0.00436574               -0.00537415
               8.99739871                2.00080528                9.01142015                0.76601593               -0.03916313               -0.03909494                0.13036455               -0.00014562               -0.00263854                0.00052640
               9.99700215                2.00116307                9.01182455                0.96106893               -0.03965615               -0.04018741                0.13397274                0.00002356               -0.00122254                0.00930509
               0.00024264                3.00021762                9.00855644                0.06722230               -0.03369826                0.03088332                0.10177231               -0.11988460                0.00044648                0.06101508
               0.99990566                3.00034499                9.00865160                0.01000000               -0.06641301                0.03124568                0.10421751               -0.11925780                0.03102257                0.07940503
               1.99891438                3.00067180                9.00936196                0.01000000               -0.06721741               -0.01128354                0.11445218               -0.12208496                0.02234540                0.04182417
               2.99856131                3.00003404                9.00948325                0.01169938               -0.02760633               -0.02997755                0.10311718               -0.11636119                0.00406994                0.02934038
               3.99836226                2.99965456                9.00981251                0.01000001               -0.01567542               -0.01119579                0.09612488               -0.07507682                0.00188333               -0.00148134
               4.99824780                2.99946865                9.00990569                0.01254279               -0.01701957               -0.02597653                0.10616705               -0.04156832               -0.00213395               -0.00877760
               5.99802186                2.99954487                9.01035909                0.01039603               -0.02473949               -0.02932678                0.11248149               -0.01587307                0.01354955               -0.03460480
               6.99775301                2.99978700                9.01078345                0.01262635               -0.02978867               -0.03498982                0.12501638               -0.00646046               -0.01060036               -0.00253639
               7.99742609                3.00007315                9.01089887                0.01000001               -0.03538405               -0.04013779                0.13035528               -0.00377029               -0.01994920                0.02129240
               8.99704533                3.00041508                9.01129604                0.01000000               -0.03879239               -0.04356031                0.12986001               -0.00942936               -0.00444649                0.04964545
               9.99665024                3.00076173                9.01174618                0.02210990               -0.03950898               -0.04580652                0.13379553               -0.01106200               -0.00164062                0.04661435
              -0.00230598                4.00117519                9.00976523                0.14256032               -0.04955778                0.06001443                0.10759406               -0.12515963               -0.00485031                0.08277812
               0.99719844                4.00119420                9.01025342                0.01202192               -0.00713726                0.01503848                0.11148487               -0.16645280               -0.04225557                0.09012386
               1.99755127                4.00039337                9.00994358                0.01225366                0.04097640               -0.03859120                0.09258072               -0.13416084               -0.04741081                0.03966465
               2.99801797                3.99973449                9.00983464                0.01000001                0.02681156               -0.03526234                0.09633398               -0.08195063               -0.04217308                0.02211669
               3.99808750                3.99936057                9.00964663                0.01331845               -0.00306118               -0.03413427                0.09524599               -0.04770466               -0.02991468               -0.00425444
               4.99795674                3.99916379                9.00972160                0.01180004               -0.01610999               -0.03130923                0.09921933               -0.02595088               -0.01056196               -0.00015723
               5.99776530                3.99921709                9.01000317                0.01430744               -0.02260689               -0.03411718                0.10931206               -0.00793167                0.00275238               -0.00357752
               6.99750461                3.99939164                9.01045986                0.01000000               -0.03416854               -0.03979361                0.12264883               -0.00214853                0.02573272                0.01619321
               7.99708193                3.99964517                9.01132933                0.01000001               -0.04915273               -0.05199536                0.17687552               -0.00326995                0.03757133                0.07840948
               8.99652155                3.99993407                9.01217735                0.01000000               -0.04971600               -0.05851400                0.18204190               -0.00976591                0.00731626                0.08373672
               9.99608761                4.00024694                9.01241963                0.06415602               -0.04339385               -0.05872862                0.14234169               -0.01433966               -0.01739551                0.07101698
              -0.00229857                5.00141791                9.01015160                0.37321630               -0.03430042               -0.00209838                0.11154481               -0.03688594               -0.00353099                0.02869385
               0.99735842                5.00064575                9.01055649                0.01000000               -0.00052749               -0.04610929                0.11222627               -0.02786993               -0.03880005                0.00750711
               1.99769088                4.99989997                9.01025161                0.01000000                0.02983358               -0.04889687                0.08985919               -0.03381723               -0.05839273                0.02570947
               2.99795510                4.99932880                9.00991101                0.01254543                0.01439921               -0.04203258                0.10574681               -0.03839445               -0.05236771                0.01671831
               3.99797886                4.99897188                9.00969023                0.01180156               -0.00414146               -0.03978700                0.09901828               -0.02342106               -0.02468596                0.00706210
               4.99787227                4.99884247                9.00987615                0.01504835               -0.01717442               -0.03525965                0.09857416               -0.00763172                0.00079866                0.01356325
               5.99763538                4.99886253                9.01026577                0.01000000               -0.02951502               -0.03676895                0.11344522               -0.00149661                0.02131543                0.02953467
               6.99728197                4.99899113                9.01099424                0.01000000               -0.04085542               -0.04545361                0.14704887               -0.01086706                0.05565856                0.07458484
               7.99681827                4.99903325                9.01226427                0.01000000               -0.05168619               -0.05877079                0.18398755               -0.01335241                0.03884357                0.09051979
               8.99624824                4.99924480                9.01267080                0.01000001               -0.05402807               -0.07089655                0.18941283                0.00434326                0.00049240                0.08707030
               9.99573771                4.99958716                9.01286402                0.01221478               -0.05105378               -0.07545585                0.17312938                0.00146734               -0.01008599                0.08071601
              -0.00149939                6.00113322                9.01031325                0.99300040               -0.03416353               -0.03131669                0.11408706               -0.00276973               -0.00364256                0.01491524
               0.99815898                6.00027202                9.01060401                0.01000000               -0.01543639               -0.03626254                0.11406492               -0.00290065               -0.00839249               -0.00694349
               1.99819189                5.99941543                9.01080148                0.01687530                0.00095993               -0.04318412                0.10603317               -0.02023729               -0.03483531                0.00302936
               2.99817818                5.99889384                9.01033130                0.01040054               -0.00432370               -0.04385771                0.11875077               -0.01141033               -0.06964075                0.02968160
               3.99810541                5.99856483                9.00992137                0.01431088               -0.01323617               -0.04275686                0.10827697                0.00119598               -0.02680984                0.01256409
               4.99791345                5.99845859                9.01019873                0.01000000               -0.02593531               -0.04060994                0.11241954                0.00673682                0.01836921                0.02668337
               5.99758671                5.99848171                9.01081616                0.01000000               -0.03984527               -0.04538469                0.13268609                0.00327402                0.06321108                0.06168570
               6.99711655                5.99848257                9.01209888                0.01000000               -0.05127456               -0.05298037                0.17390460               -0.01110958                0.07126279                0.07656845
               7.99656121                5.99846975                9.01295668                0.01000000               -0.05310217               -0.05728800                0.17278584               -0.02254104                0.02963651                0.08188696
               8.99605450                5.99851614                9.01336342                0.01000000               -0.05644855               -0.06813532                0.18981588               -0.02242043                0.01113490                0.15148777
               9.99543224                5.99873782                9.01359552                0.07588044               -0.06222614               -0.07702050                0.19546784               -0.00589781               -0.00008597                0.17043021
              -0.00063155                7.00079158                9.01043031                0.99755617               -0.03502475               -0.03453106                0.11648375               -0.00015038               -0.00230170                0.01595054
               0.99901820                6.99992050                9.01062394                0.76129319               -0.03520684               -0.03529262                0.11669230               -0.00157466               -0.00937895               -0.00511553
               1.99866431                6.99903629                9.01067849                0.01000000               -0.02203564               -0.03614296                0.11763685               -0.00628462               -0.01454296               -0.02290237
               2.99857749                6.99845164                9.01076420                0.01263316               -0.01131437               -0.05629231                0.12389391                0.01880320               -0.04388523               -0.03316073
               3.99843803                6.99811674                9.01026463                0.01000000               -0.02436829               -0.04596691                0.12018046                0.02004410               -0.01236249                0.03693053
               4.99809012                6.99803027                9.01081751                0.01000000               -0.03805733               -0.04781833                0.14337552                0.01547724                0.06075802                0.04704955
               5.99767688                6.99795484                9.01189595                0.01000000               -0.05091940               -0.05331816                0.17040194                0.00657855                0.07471815                0.05558923
               6.99707174                6.99793152                9.01282510                0.01000000               -0.06714998               -0.05413473                0.17529463               -0.00107562                0.07770215                0.05730259
               7.99633388                6.99788749                9.01393300                0.01023068               -0.07699860               -0.05538213                0.19259055               -0.01386114                0.10951725                0.09678265
               8.99553176                6.99788209                9.01556346                0.01682817               -0.05787517               -0.06303199                0.16889755               -0.02712217                0.08425830                0.16844255
               9.99517638                6.99804675                9.01623765                0.07813831               -0.03553876               -0.08698287                0.14945352               -0.01738743                0.04918042                0.15016592
               0.00023976                8.00044260                9.01061516                0.99999999               -0.03569839               -0.03534418                0.11949524               -0.00003544               -0.00162613                0.01956915
               0.99988277                7.99956616                9.01070665                1.00000000               -0.03523500               -0.03549686                0.11772879               -0.00057986               -0.00251625                0.00002553
               1.99953506                7.99869257                9.01077998                0.01000000               -0.02044883               -0.03458298                0.11545257               -0.00316457               -0.06059575               -0.01221859
               2.99947380                7.99776799                9.00970170                0.01000000               -0.03036934               -0.04892573                0.12164530                0.02075771                0.01166161               -0.01282505
               3.99892767                7.99764550                9.01114831                0.01000001               -0.05444477               -0.05506113                0.16772621                0.04146169                0.08857069                0.03215255
               4.99838490                7.99750223                9.01179864                0.01000000               -0.05553243               -0.05516205                0.17826781                0.02178810                0.06028538                0.01903288
               5.99781702                7.99741535                9.01236399                0.01000000               -0.06112567               -0.05079265                0.16999323                0.00782082                0.07388892                0.01335884
               6.99716239                7.99739988                9.01344786                0.01027709               -0.07417996               -0.05116126                0.18481473               -0.00422697                0.11208101                0.02830375
               7.99633342                7.99736211                9.01489544                0.01000000               -0.09047929               -0.05179772                0.19371670               -0.00438050                0.17052185                0.04814221
               8.99535280                7.99725550                9.01713407                0.12533148               -0.07891172               -0.06405693                0.20928494               -0.01389932                0.10184754                0.07500361
               9.99475519                7.99699817                9.01732464                0.61139218               -0.05976137               -0.08407512                0.20170466               -0.03556185               -0.00056714                0.04674305
               0.00112062                9.00008470                9.01080098                0.99174924               -0.03639850               -0.03629920                0.12196831                0.00080542                0.00238214                0.01569569
               1.00075663                8.99921057                9.01082271                0.99999996               -0.03607119               -0.03607992                0.12024890                0.00047518                0.00258992                0.00106325
               2.00039919                8.99834463                9.01085118                0.63260585               -0.03584557               -0.03565421                0.11895633               -0.00050900                0.00144334               -0.01012729
               3.00003972                8.99747313                9.01084279                0.01000000               -0.04330865               -0.03289451                0.11975232                0.00484208                0.03730315                0.04011194
               3.99953302                8.99701552                9.01156996                0.01000000               -0.06418456               -0.04817491                0.17386840                0.02327138                0.05743791               -0.00594078
               4.99875603                8.99692703                9.01198045                0.01000001               -0.07986876               -0.05277315                0.18766429                0.02910859                0.06044867               -0.01559750
               5.99793565                8.99693898                9.01249958                0.01000000               -0.08577975               -0.04884010                0.18527899                0.00791281                0.07496263                0.00126202
               6.99704044                8.99690830                9.01337187                0.01000001               -0.07724993               -0.04281819                0.17267816               -0.01471164                0.10186498               -0.00748456
               7.99639065                8.99685153                9.01476395                0.01000001               -0.07113575               -0.04563865                0.17902048               -0.00613270                0.16122056               -0.00988813
               8.99561772                8.99660096                9.01714460                0.98142061               -0.07054236               -0.06473335                0.21481254               -0.00046919                0.10948610               -0.00039730
               9.99497980                8.99636525                9.01730179                0.99305151               -0.06379200               -0.06235938                0.20711113               -0.00066197               -0.00098594               -0.00475888
               0.00200412                9.99971662                9.01090409                0.99642264               -0.03717831               -0.03680764                0.12425044                0.00114495                0.01245455                0.01126498
               1.00163234                9.99884457                9.01091879                0.98984849               -0.03709029               -0.03660010                0.12413120                0.00071401                0.01448771                0.00019968
               2.00126232                9.99797949                9.01098120                1.00000000               -0.03662923               -0.03651425                0.12414128               -0.00041120                0.02090198               -0.00659941
               3.00089975                9.99711010                9.01111882                0.04572430               -0.06615587               -0.03630265                0.12219618                0.02112852                0.04786079               -0.00218579
               3.99993920                9.99668200                9.01170573                0.06433072               -0.09280752               -0.03335181                0.13518581                0.00745083                0.05521512               -0.01660446
               4.99904360                9.99644677                9.01200208                0.01229662               -0.09725968               -0.04802608                0.17178071                0.01658478                0.05910714               -0.02184954
               5.99799400                9.99643855                9.01254964                0.07593821               -0.10439989               -0.05004353                0.19100583                0.01067318                0.06253398               -0.01077790
               6.99695561                9.99654351                9.01318588                0.08049313               -0.07379471               -0.03647849                0.16046580               -0.00794359                0.08261230               -0.02313665
               7.99651811                9.99644934                9.01445465                0.65644651               -0.05629509               -0.04021942                0.16906981               -0.01638789                0.16485718               -0.03546147
               8.99582970                9.99596083                9.01718606                0.99305275               -0.06523716               -0.06401241                0.20835793               -0.01371966                0.13000018                0.00181555
               9.99521337                9.99575098                9.01734316                0.99757741               -0.06163367               -0.06142658                0.20066238                0.00237146                0.00166259               -0.00113520
               0.00023752                0.00121666               10.00978945                0.99093087               -0.02924713               -0.02898750                0.09532283                0.00105046               -0.00088304                0.00034606
               0.99994505                0.00123391               10.00993888                0.76714960               -0.02994849               -0.03018005                0.09960768                0.00060600               -0.00099285               -0.00051358
               1.99963856                0.00125590               10.01007806                0.24068395               -0.03172323               -0.03169749                0.10394587               -0.00044985               -0.00522392               -0.00020012
               2.99931059                0.00126117               10.01013729                0.04372946               -0.00948393               -0.03360678                0.10870713               -0.07043041                0.01074131               -0.00012568
               3.99944888               -0.00015699               10.01059547                0.11795059               -0.00217731               -0.03635038                0.11033469               -0.07717162                0.02108228               -0.00257370
               4.99926704                0.00001732               10.01119039                0.34007520               -0.02608633               -0.03453667                0.11486340               -0.01050291                0.01734100               -0.00133290
               5.99892715                0.00042758               10.01164463                0.88552551               -0.03514459               -0.03574319                0.11928388               -0.00010128                0.00819926               -0.00138872
               6.99856415                0.00085382               10.01206329                0.99925602               -0.03686425               -0.03697757                0.12322215                0.00051112                0.00722777               -0.00125040
               7.99818986                0.00128152               10.01249946                1.00000000               -0.03804154               -0.03818050                0.12709829                0.00038584                0.00850520               -0.00111993
               8.99780332                0.00171043               10.01294417                0.99350974               -0.03938908               -0.03945477                0.13152254                0.00037480                0.00729161                0.00082807
               9.99740208                0.00214021               10.01335591                0.99836964               -0.04012367               -0.04071254                0.13586022                0.00062601                0.00573167                0.00584369
               0.00023078                1.00092678               10.00974220                0.77426912               -0.02992883               -0.02950273                0.09776969                0.00018763                0.00016916                0.00057374
               0.99993149                1.00093211               10.00989182                0.02106879               -0.03051793               -0.03035356                0.10205366               -0.00051932                0.00040036               -0.00094387
               1.99962042                1.00093892               10.01004130                0.01000000               -0.03093818               -0.02989822                0.10672693               -0.00417346               -0.00388351                0.00924079
               2.99931273                1.00092511               10.01010317                0.01000000               -0.01606677               -0.04326482                0.11182121               -0.08118456                0.01903467                0.01880225
               3.99929909                0.99947951               10.01072227                0.01061431               -0.02215000               -0.00862941                0.11164020               -0.09863308                0.01854802               -0.01107170
               4.99886973                0.99967195               10.01125089                0.01000000               -0.03955984               -0.01683163                0.11521881               -0.02024130                0.00645221               -0.01409383
               5.99850789                1.00007015               10.01165503                0.01000000               -0.03637192               -0.02792070                0.11944377               -0.00436502               -0.00145686               -0.00877564
               6.99814229                1.00048404               10.01202706                0.63003986               -0.03712380               -0.03701146                0.12338512               -0.00032563               -0.00232861               -0.00530139
               7.99776541                1.00089972               10.01241596                0.95774406               -0.03822840               -0.03816478                0.12719804               -0.00038885               -0.00026737               -0.00203616
               8.99737772                1.00131589               10.01283088                0.99999996               -0.03934252               -0.03933381                0.13104900               -0.00035725                0.00084309                0.00104866
               9.99697856                1.00173309               10.01324284                0.99292019               -0.03991590               -0.04046968                0.13483254               -0.00007407                0.00070707                0.00740378
               0.00023063                2.00062660               10.00969160                0.25415578               -0.03081061               -0.03225364                0.10040067               -0.00456425                0.00038056               -0.00234932
               0.99992253                2.00062683               10.00983130                0.01000000               -0.03342734               -0.02683713                0.10436303               -0.00489542                0.01147253               -0.00480889
               1.99956208                2.00065793               10.01019200                0.01000001               -0.03881052               -0.01138445                0.10098696               -0.05620083                0.01713046                0.02488263
               2.99914631                2.00039588               10.01044999                0.01000000               -0.04163588               -0.03978035                0.11158119               -0.09419907                0.00400963                0.02979283
               3.99872937                1.99967042               10.01064973                0.01121316               -0.04373697                0.00820082                0.10735918               -0.09074538                0.00269002                0.00698552
               4.99827158                1.99968069               10.01105979                0.01000001               -0.03508014               -0.00753383                0.10946729               -0.03674638                0.00558562               -0.01705462
               5.99802776                1.99986917               10.01152007                0.01531224               -0.02717536               -0.02305926                0.09090125               -0.01967609                0.00071854               -0.01069182
               6.99772807                2.00011359               10.01191111                0.01000000               -0.03387616               -0.03261274                0.12393169               -0.00647077               -0.00557533               -0.00854238
               7.99735024                2.00051823               10.01231486                0.03379500               -0.03826319               -0.03836339                0.12732001               -0.00004750               -0.00489735               -0.00167715
               8.99696280                2.00092376               10.01272214                0.77208506               -0.03920219               -0.03911673                0.13035102               -0.00034912               -0.00325045                0.00013788
               9.99656620                2.00133082               10.01316039                0.96638774               -0.03966072               -0.04010027                0.13376028               -0.00003592               -0.00171398                0.00907072
               0.00013903                3.00028171               10.00958073                0.06163381               -0.03367793                0.02894190                0.10287033               -0.14343449                0.00038133                0.06331839
               0.99980225                3.00039536               10.00970559                0.01000000               -0.07058346                0.02479287                0.10624121               -0.14147185                0.03299917                0.08071957
               1.99872736                3.00071124               10.01048096                0.01000000               -0.06929963               -0.01721462                0.11036434               -0.12097971                0.02483917                0.03690985
               2.99841626                3.00012950               10.01058991                0.01053184               -0.02639968               -0.03139299                0.11283480               -0.12403705               -0.00480820                0.02424380
               3.99819937                2.99964352               10.01072681                0.01000001               -0.02401010               -0.01525975                0.10547822               -0.07545035               -0.00187098                0.00621605
               4.99793606                2.99952128               10.01096602                0.01078729               -0.02589491               -0.02460552                0.11581226               -0.03294681               -0.00137813               -0.00855822
               5.99768147                2.99960896               10.01136011                0.01000000               -0.02861220               -0.03130881                0.11131869               -0.01636367                0.00265453               -0.01125581
               6.99736381                2.99983179               10.01181262                0.01059327               -0.03635893               -0.03108119                0.11594966               -0.00871253               -0.00352522                0.00298865
               7.99695429                3.00013245               10.01223990                0.01000000               -0.04028333               -0.03634020                0.14332154               -0.00450720               -0.01259082                0.06207048
               8.99655815                3.00053355               10.01259200                0.01000000               -0.03952862               -0.04393330                0.12954257               -0.00191376               -0.00861683                0.08205288
               9.99616372                3.00093108               10.01308187                0.02313883               -0.03944274               -0.04972812                0.13342955               -0.00071859               -0.00158314                0.04514070
              -0.00286537                4.00120544               10.01085012                0.13869540               -0.04710722                0.05704544                0.10982126               -0.15232657               -0.00501215                0.08717035
               0.99666356                4.00112269               10.01137178                0.01061752                0.01368594                0.00689658                0.11225794               -0.18890122               -0.05566950                0.08940281
               1.99740835                4.00031364               10.01083532                0.01121509                0.05348614               -0.05114852                0.10028907               -0.13288070               -0.05148132                0.03195943
               2.99773329                3.99976802               10.01076841                0.01000001                0.02101140               -0.04553532                0.10645430               -0.08283731               -0.03095737                0.02057152
               3.99782858                3.99936523               10.01074576                0.01150684               -0.00430430               -0.03764644                0.11916280               -0.05169659               -0.02430765                0.00276815
               4.99764720                3.99918858               10.01083399                0.01000000               -0.02192989               -0.03951388                0.12835859               -0.02421205               -0.00592059                0.00181407
               5.99738998                3.99924299               10.01127508                0.01233574               -0.03084346               -0.04280745                0.14277953               -0.00516618                0.01320990                0.01005532
               6.99703033                3.99949196               10.01188230                0.01000001               -0.04158269               -0.04453175                0.15237547               -0.00150238                0.05303213                0.04529706
               7.99655833                3.99979142               10.01340058                0.01655223               -0.04522171               -0.03838913                0.16843996               -0.00878444                0.05641802                0.11242369
               8.99612590                4.00004509               10.01412305                0.01000000               -0.04007836               -0.04864827                0.15314868               -0.00402055               -0.02041869                0.10883313
               9.99575676                4.00033626               10.01372057                0.06431264               -0.03691333               -0.06874968                0.13898661                0.00235919               -0.06564339                0.07315468
              -0.00274200                5.00142262               10.01126882                0.36929353               -0.03419710               -0.00357647                0.11224564               -0.03699133               -0.00343891                0.02998255
               0.99691603                5.00053329               10.01167534                0.01000000                0.00832126               -0.04824590                0.11197004               -0.02837762               -0.04689944                0.00621630
               1.99742442                4.99968826               10.01121307                0.01000001                0.03959511               -0.05523155                0.10452134               -0.03302037               -0.06867014                0.01483195
               2.99770793                4.99921879               10.01096674                0.01078986                0.01602276               -0.05277430                0.11529036               -0.02885750               -0.04916840                0.01832495
               3.99774488                4.99889060               10.01079683                0.01000000               -0.00669370               -0.04922189                0.12789315               -0.02000121               -0.02510865                0.01133607
               4.99757405                4.99873100               10.01099867                0.01310938               -0.02350572               -0.04712318                0.13511688               -0.00696022                0.00633623                0.01937895
               5.99727476                4.99875281               10.01155031                0.01000000               -0.03943609               -0.04851437                0.14333405                0.00451156                0.04369572                0.04076602
               6.99678533                4.99894115               10.01263098                0.01000001               -0.05246445               -0.05891658                0.20185738                0.01750447                0.08743526                0.10245274
               7.99622547                4.99936467               10.01420485                0.01000000               -0.04262155               -0.06202287                0.16162810                0.01047516                0.05119259                0.08152676
               8.99593290                4.99956059               10.01453425                0.01000000               -0.02984512               -0.07292264                0.13838698               -0.00967519               -0.01608247                0.07754106
               9.99562857                4.99955609               10.01446042                0.01343056               -0.03043303               -0.08286727                0.16195276               -0.01485914               -0.01993437                0.09837510
              -0.00182654                6.00113391               10.01145772                0.98750453               -0.03430920               -0.03160009                0.11486876               -0.00281255               -0.00359949                0.01560720
               0.99783036                6.00015777               10.01174409                0.01000000               -0.00555041               -0.03621496                0.11408304               -0.00190601               -0.03143768               -0.00694381
               1.99806245                5.99920901               10.01147694                0.01531760                0.00617207               -0.04333922                0.08616314               -0.02077737               -0.04181012                0.00911841
               2.99795380                5.99871253               10.01137331                0.01000000               -0.00730486               -0.04268203                0.11194641               -0.00801616               -0.04303027                0.01205929
               3.99791635                5.99838079               10.01116525                0.01233909               -0.01540147               -0.05249769                0.13943247                0.00431731               -0.01670530                0.02158031
               4.99764578                5.99824611               10.01146431                0.01000000               -0.03231424               -0.05490542                0.14136844                0.01121010                0.03135038                0.04510330
               5.99727007                5.99827270               10.01227479                0.01000000               -0.04386049               -0.05128328                0.16148367                0.01033999                0.08706047                0.07886538
               6.99676857                5.99831363               10.01388124                0.01000000               -0.05608345               -0.05563666                0.18759854                0.01720012                0.07954837                0.10099195
               7.99614840                5.99855097               10.01466054                0.01000000               -0.05137978               -0.06983807                0.17440117                0.00763886                0.04337072                0.10863456
               8.99574097                5.99858664               10.01526661                0.01000000               -0.03399115               -0.10060326                0.17846070               -0.02347190                0.03106947                0.12755417
               9.99546857                5.99867891               10.01562228                0.07795787               -0.02723970               -0.10601096                0.18175326               -0.02296893                0.03098667                0.13759629
              -0.00084598                7.00079062               10.01159934                0.99689680               -0.03512146               -0.03459764                0.11718944                0.00015706               -0.00216724                0.01642120
               0.99880280                6.99980900               10.01178587                0.75632317               -0.03499519               -0.03506490                0.11620636               -0.00084401               -0.00918153               -0.00534943
               1.99845412                6.99882148               10.01183390                0.01000000               -0.02134894               -0.03669254                0.11525852               -0.00377675               -0.02674472                0.00014639
               2.99837583                6.99836515               10.01166351                0.01059997               -0.00782375               -0.04494617                0.10402423                0.01008595               -0.02642682               -0.00334096
               3.99829764                6.99784064               10.01166654                0.01000001               -0.02347417               -0.05854319                0.15042964                0.00873342                0.02445741                0.04895452
               4.99790634                6.99763289               10.01239320                0.01000001               -0.04417976               -0.06662738                0.19286386                0.04244635                0.09388678                0.07181416
               5.99741405                6.99772715               10.01362990                0.01000000               -0.05276359               -0.05458465                0.18308458                0.03749209                0.10614089                0.05414055
               6.99685107                6.99782842               10.01449891                0.01000000               -0.06544018               -0.04457370                0.16531097                0.02578073                0.10339220                0.06604108
               7.99610524                6.99796791               10.01595631                0.01084538               -0.07577772               -0.05470848                0.18837347               -0.00898993                0.10028805                0.11126473
               8.99533552                6.99754852               10.01672550                0.01000001               -0.05602987               -0.06776186                0.14992985               -0.05317075                0.05432905                0.20812340
               9.99498464                6.99743587               10.01696386                0.08074726               -0.03508717               -0.08646482                0.13434119               -0.05554685                0.01834495                0.19597877
               0.00013984                8.00044196               10.01180867                0.99999999               -0.03572193               -0.03531237                0.11950739                0.00025982               -0.00184786                0.02009153
               0.99978262                7.99945648               10.01188415                1.00000000               -0.03545420               -0.03550410                0.11803249               -0.00026707               -0.00283441               -0.00016385
               1.99943075                7.99847516               10.01194112                0.01000000               -0.03231283               -0.03501223                0.11648725                0.01535562               -0.00631204               -0.01303991
               2.99913636                7.99781361               10.01195181                0.01000000               -0.03037379               -0.06100247                0.24090793                0.02042193                0.04045083               -0.03526722
               3.99882328                7.99720993               10.01294653                0.01656674               -0.02640840               -0.05482046                0.14674196                0.01166159                0.09054090                0.04003134
               4.99860819                7.99691357               10.01366384                0.01000000               -0.04994484               -0.05197566                0.15646443                0.04779001                0.06508137                0.03206158
               5.99782438                7.99718101               10.01408442                0.01000000               -0.07823864               -0.04676446                0.17604259                0.06025668                0.08830433                0.00856418
               6.99704342                7.99742216               10.01524686                0.01089716               -0.07879448               -0.04197356                0.17689038                0.03505640                0.12830265                0.04614073
               7.99624849                7.99745680               10.01672134                0.01000000               -0.09169157               -0.04875660                0.18258670                0.00277270                0.19295175                0.05548124
               8.99520959                7.99723140               10.01923960                0.12561271               -0.08327776               -0.04760467                0.21156792               -0.01836325                0.12015600                0.12861555
               9.99458294                7.99694962               10.01935872                0.61238192               -0.06266534               -0.05508889                0.20474716               -0.03451886               -0.00110318                0.11836834
               0.00113018                9.00008437               10.01202667                0.99386158               -0.03659192               -0.03642757                0.12248125                0.00042369                0.00184069                0.01641674
               1.00076426                8.99909891               10.01202922                1.00000000               -0.03630427               -0.03619975                0.12072406               -0.00008420                0.00216328                0.00140801
               2.00040409                8.99812124               10.01203943                0.65111979               -0.03573810               -0.03577627                0.11888332               -0.00040417                0.00067280               -0.01030064
               3.00004950                8.99714510               10.01201479                0.01000000               -0.04865901               -0.05110035                0.11642747                0.02520759                0.07306578               -0.01587672
               3.99943091                8.99674423               10.01346810                0.01000000               -0.05792202               -0.03813768                0.15019212                0.03074351                0.08356689               -0.03046734
               4.99889106                8.99659338               10.01383070                0.01000000               -0.06601628               -0.02722910                0.13438113                0.02056977                0.04605330               -0.03044795
               5.99811059                8.99679186               10.01423569                0.01000000               -0.08073235               -0.03659142                0.16834776                0.03637623                0.08990010                0.00474096
               6.99727641                8.99698895               10.01541326                0.01000001               -0.08795692               -0.04821260                0.19768691                0.02788017                0.14521757                0.00710269
               7.99635145                8.99699278               10.01694261                0.01000001               -0.09004902               -0.05487124                0.21033688               -0.00588651                0.19178337                0.01479420
               8.99547543                8.99659643               10.01929121                0.99999997               -0.07468061               -0.06274539                0.20908587               -0.00753796                0.11084033                0.00388597
               9.99485784                8.99633409               10.01937465                0.99203451               -0.06175929               -0.06064050                0.20223290                0.00051699               -0.00038880               -0.00052513
               0.00211922                9.99971341               10.01216509                0.99837297               -0.03751553               -0.03709622                0.12558113                0.00081179                0.01200031                0.01238113
               1.00174407                9.99873248               10.01216213                0.99274399               -0.03713714               -0.03664322                0.12383421                0.00029217                0.01446563                0.00084770
               2.00137648                9.99775964               10.01220856                0.94190741               -0.03632752               -0.03616006                0.12214524                0.00019468                0.02069541               -0.00652257
               3.00101752                9.99679160               10.01232684                0.04591560               -0.06933038               -0.03535012                0.11973229                0.03117879                0.04886577               -0.00266854
               3.99998987                9.99644717               10.01293208                0.06450955               -0.10227779               -0.02970595                0.12931859                0.03476500                0.06192105               -0.06944943
               4.99897196                9.99636899               10.01357250                0.01353368               -0.09167667               -0.02243941                0.15312388                0.00819083                0.06846144               -0.03388538
               5.99815634                9.99644918               10.01435349                0.07805925               -0.07859262               -0.03426781                0.17027157                0.00902110                0.09444809                0.01141924
               6.99740011                9.99645791               10.01528997                0.08310888               -0.08165302               -0.05310405                0.20491582                0.00787935                0.14497897               -0.01137784
               7.99652328                9.99635937               10.01686091                0.65667418               -0.08412986               -0.06334029                0.23033818               -0.00688763                0.19936400               -0.00494237
               8.99571751                9.99597649               10.01927243                0.99203567               -0.07026664               -0.06199336                0.20359706               -0.00692009                0.11686828                0.00239822
               9.99511795                9.99573681               10.01935592                0.99758643               -0.05995661               -0.05972865                0.19674549                0.00204206                0.00221848               -0.00049260
               0.00005731                0.00125614               11.01073476                0.99428652               -0.02890677               -0.02865061                0.09392615                0.00114993               -0.00100592                0.00053207
               0.99976824                0.00126294               11.01092945                0.76869175               -0.02964679               -0.02995281                0.09858189                0.00064621               -0.00108593               -0.00063435
               1.99946437                0.00127560               11.01111464                0.23641242               -0.03156200               -0.03164948                0.10358783               -0.00021409               -0.00498095               -0.00033649
               2.99913700                0.00127639               11.01122823                0.03854515               -0.01750021               -0.03366582                0.10924283               -0.07893759                0.00982864               -0.00050420
               3.99911437               -0.00031457               11.01171101                0.11363609               -0.01194992               -0.03530494                0.11273532               -0.08956251                0.02028534               -0.00226156
               4.99889800               -0.00005800               11.01234285                0.33612478               -0.02799863               -0.03480068                0.11572278               -0.00904080                0.01777024               -0.00130736
               5.99855440                0.00040257               11.01283960                0.88224374               -0.03537862               -0.03591006                0.11968867               -0.00003778                0.00865284               -0.00142194
               6.99819043                0.00087748               11.01329640                0.99935607               -0.03696269               -0.03705477                0.12339135                0.00048733                0.00745697               -0.00113674
               7.99781514                0.00135449               11.01377119                0.99999999               -0.03810263               -0.03818597                0.12711786                0.00039717                0.00882270               -0.00097779
               8.99742838                0.00183296               11.01425655                0.99538290               -0.03921444               -0.03929793                0.13089801                0.00042823                0.00762897                0.00070575
               9.99703086                0.00231307               11.01470671                0.99994380               -0.03975241               -0.04040018                0.13450281                0.00048296                0.00615510                0.00559940
               0.00006201                1.00096964               11.01071467                0.77547920               -0.02970373               -0.02920696                0.09678513                0.00024448                0.00027745                0.00085817
               0.99976497                1.00096341               11.01090965                0.02195586               -0.03032509               -0.03018004                0.10140929               -0.00059738                0.00077326               -0.00105530
               1.99945551                1.00095911               11.01110851                0.01000000               -0.03111308               -0.02992851                0.10666199               -0.00410553               -0.00280780                0.00456949
               2.99914271                1.00093973               11.01122885                0.01000000               -0.02847839               -0.04166187                0.11273719               -0.09066573                0.01767142                0.01585450
               3.99888594                0.99933238               11.01184804                0.01000000               -0.03468427                0.00171113                0.11350895               -0.09962329                0.01546599               -0.00970053
               4.99844903                0.99959399               11.01240715                0.01000000               -0.03998317               -0.01574491                0.11615778               -0.01335592                0.00634406               -0.01421325
               5.99808628                1.00004347               11.01285211                0.01000000               -0.03648409               -0.02589334                0.12000691               -0.00386441               -0.00118578               -0.01447622
               6.99771935                1.00050693               11.01326255                0.62608702               -0.03724510               -0.03712284                0.12374142               -0.00027391               -0.00224263               -0.00494627
               7.99734138                1.00097263               11.01368908                0.95725195               -0.03829857               -0.03820233                0.12738319               -0.00028278               -0.00025025               -0.00183069
               8.99695337                1.00143998               11.01414096                0.99999996               -0.03929000               -0.03930237                0.13092424               -0.00018852                0.00081730                0.00095235
               9.99655558                1.00190907               11.01458900                0.99513901               -0.03977974               -0.04038080                0.13440074               -0.00006581                0.00073283                0.00730721
               0.00007465                2.00067200               11.01069330                0.24914381               -0.03078249               -0.03220805                0.10011323               -0.00433929                0.00039704               -0.00194737
               0.99976682                2.00065934               11.01087540                0.01000000               -0.03343510               -0.02722581                0.10438649               -0.00472657                0.00753952               -0.00490448
               1.99940595                2.00067703               11.01120044                0.01000001               -0.04082044               -0.00962172                0.09883661               -0.05724256                0.01597333                0.02343725
               2.99895041                2.00044315               11.01155305                0.01000000               -0.04691498               -0.03696171                0.11051480               -0.09403939                0.00854843                0.02807551
               3.99846765                1.99971966               11.01182106                0.01042676               -0.05153078                0.01752354                0.12091461               -0.08766340                0.00477321                0.00443113
               4.99791980                1.99962710               11.01221913                0.01000001               -0.04517395               -0.00353505                0.12177549               -0.03485206                0.00123688               -0.01648004
               5.99756417                1.99988471               11.01260679                0.01412767               -0.03320030               -0.02393620                0.11679968               -0.01750004               -0.00084457               -0.01515316
               6.99725579                2.00013502               11.01315405                0.01000001               -0.03438631               -0.03156740                0.12453861               -0.01054384                0.00009400               -0.00597344
               7.99687644                2.00059045               11.01358968                0.03770898               -0.03838085               -0.03718944                0.12770463               -0.00172928               -0.00551442                0.01097946
               8.99648818                2.00104691               11.01402718                0.77771341               -0.03925369               -0.03923773                0.13065169               -0.00036740               -0.00375308               -0.00031736
               9.99609137                2.00150545               11.01449976                0.97054569               -0.03968082               -0.04023511                0.13395829                0.00001638               -0.00208649                0.00891930
               0.00000055                3.00032548               11.01061385                0.05634078               -0.03351400                0.02792516                0.10349140               -0.16686768                0.00025708                0.06634105
               0.99966541                3.00041890               11.01077642                0.01000000               -0.07368529                0.01765867                0.10739689               -0.16128880                0.03215352                0.08192132
               1.99852685                3.00076668               11.01156924                0.01000000               -0.07230547               -0.01882903                0.10889540               -0.12496666                0.02563242                0.04091024
               2.99821930                3.00020050               11.01173995                0.01000000               -0.02890597               -0.03370302                0.11835125               -0.12729264               -0.00627522                0.02409816
               3.99794873                2.99968286               11.01192207                0.01000001               -0.03161834               -0.01868711                0.12639564               -0.08045401               -0.00499294                0.01151566
               4.99758694                2.99952329               11.01222193                0.01000000               -0.03601873               -0.02298392                0.13261481               -0.03644470               -0.00482207                0.00011785
               5.99722835                2.99956475               11.01258547                0.01000000               -0.03921043               -0.03283515                0.13090894               -0.01153425               -0.00375419                0.00755138
               6.99680273                2.99987559               11.01310244                0.01000000               -0.04167253               -0.03278998                0.12994077               -0.00759754                0.00378830                0.01836981
               7.99639490                3.00022885               11.01376530                0.01728639               -0.03858542               -0.03308763                0.12973380               -0.00636274               -0.01566890                0.06203806
               8.99603102                3.00065523               11.01388689                0.01000001               -0.03780391               -0.04392198                0.12958067                0.00902659               -0.02187449                0.07286228
               9.99563882                3.00110437               11.01441477                0.02369419               -0.03921954               -0.05869803                0.13327845                0.01933058               -0.00180826                0.05238061
              -0.00344955                4.00123051               11.01196165                0.13455593               -0.04506044                0.05422402                0.11247065               -0.18084551               -0.00490844                0.09088945
               0.99609985                4.00101251               11.01249858                0.01000000                0.02872802               -0.00105635                0.11314385               -0.20596377               -0.05738694                0.08826177
               1.99712501                4.00030045               11.01194936                0.01042864                0.06942671               -0.06058437                0.11665773               -0.13720968               -0.05990410                0.03618306
               2.99748838                3.99976909               11.01196372                0.01000001                0.02053809               -0.05550517                0.12561261               -0.08929383               -0.02382725                0.02067288
               3.99753577                3.99934591               11.01202989                0.01000001               -0.00896850               -0.04518732                0.13974469               -0.05528191               -0.01563250                0.01168755
               4.99730901                3.99916742               11.01228877                0.01000000               -0.02772937               -0.04617861                0.15463216               -0.02296668                0.00517225                0.01265262
               5.99698119                3.99922800               11.01285876                0.01051947               -0.04346335               -0.04433036                0.15851476               -0.00197866                0.01705396                0.02453861
               6.99643974                3.99947923               11.01350737                0.01000001               -0.05058207               -0.04171687                0.19074182                0.01370504                0.03941430                0.09793287
               7.99596954                3.99992869               11.01469813                0.01529852               -0.03232789               -0.04125114                0.11753853                0.01165973                0.03843066                0.08802123
               8.99579319                4.00016847               11.01524032                0.01000000               -0.01949214               -0.05015822                0.09522458                0.00214014               -0.01354590                0.08900661
               9.99557970                4.00033149               11.01519937                0.06420599               -0.02134848               -0.07257065                0.15721386                0.00869535               -0.03488823                0.10996294
              -0.00318037                5.00140996               11.01239651                0.36486407               -0.03434376               -0.00578287                0.11336829               -0.03594642               -0.00331054                0.03021780
               0.99647619                5.00039777               11.01279589                0.01000000                0.01032233               -0.04949533                0.11238693               -0.02219055               -0.04615583                0.00476755
               1.99702607                4.99955499               11.01234203                0.01000001                0.04558878               -0.06617412                0.11944808               -0.03529637               -0.07064937                0.01408915
               2.99738797                4.99909039               11.01221682                0.01000000                0.02093427               -0.06654199                0.13155006               -0.03174948               -0.03904659                0.01508690
               3.99744476                4.99877911               11.01224810                0.01000000               -0.00712263               -0.06095900                0.15400400               -0.01730735               -0.01361974                0.01971519
               4.99724551                4.99859972               11.01257849                0.01124274               -0.02838924               -0.06006447                0.16779259                0.00104699                0.01385134                0.02603461
               5.99687698                4.99867814               11.01313246                0.01000001               -0.04346882               -0.06242828                0.17402696                0.01856674                0.08111492                0.05235676
               6.99637614                4.99904125               11.01503139                0.01710469               -0.04690639               -0.04223717                0.18848490                0.03038500                0.07666271                0.12369924
               7.99593885                4.99940382               11.01549684                0.01000000               -0.03525570               -0.05188548                0.12129931                0.03422644               -0.00367184                0.08268046
               8.99567102                4.99965206               11.01543854                0.01000000               -0.02260775               -0.06462503                0.10838331                0.00850500                0.00480339                0.09372260
               9.99548669                4.99965295               11.01610307                0.01414837               -0.01843306               -0.06725948                0.14740881               -0.01186424                0.04365357                0.11631905
              -0.00214410                6.00111485               11.01261063                0.98195393               -0.03448907               -0.03204515                0.11561475               -0.00260298               -0.00359726                0.01593934
               0.99751100                6.00002261               11.01288567                0.01000000               -0.00647174               -0.03621559                0.11439194               -0.00070275               -0.03558029               -0.00694636
               1.99772646                5.99897697               11.01252475                0.01413291                0.00591331               -0.04899719                0.11334689               -0.01793252               -0.04955350                0.00851529
               2.99762927                5.99843825               11.01257023                0.01000000               -0.00230785               -0.06420367                0.12588497               -0.00109444               -0.02273129                0.00163715
               3.99768030                5.99812673               11.01271002                0.01052276               -0.00991759               -0.07322822                0.15595231                0.01403017               -0.00135853                0.02289836
               4.99743092                5.99796613               11.01302610                0.01000001               -0.03846565               -0.06663455                0.17163443                0.03058463                0.04620076                0.07561599
               5.99691099                5.99797944               11.01404583                0.01000001               -0.05545780               -0.07250629                0.21619454                0.07426787                0.11955566                0.10364948
               6.99632176                5.99863448               11.01585085                0.01000000               -0.04338655               -0.05772614                0.15778440                0.06742893                0.09825532                0.06306113
               7.99604326                5.99889098               11.01644471                0.01000000               -0.03038032               -0.06759183                0.13130932                0.02078468                0.04316584                0.12042637
               8.99571416                5.99887597               11.01693264                0.01000000               -0.03513110               -0.07902479                0.16330109                0.00175415                0.03425261                0.17489566
               9.99534064                5.99898630               11.01723058                0.07950191               -0.03735192               -0.07115342                0.16141310               -0.00997405                0.01841823                0.16092361
              -0.00104795                7.00076905               11.01277410                0.99619682               -0.03520390               -0.03488737                0.11773265                0.00023850               -0.00214384                0.01653327
               0.99860001                6.99967346               11.01294807                0.75189522               -0.03501369               -0.03515336                0.11643511               -0.00056884               -0.00916498               -0.00556984
               1.99825178                6.99857504               11.01298366                0.01000001               -0.01918496               -0.03753609                0.11514283               -0.01262252               -0.02483971                0.00333701
               2.99821631                6.99780632               11.01284469                0.01000000               -0.00271473               -0.08634462                0.12785099                0.01938158               -0.00160786                0.04836115
               3.99819748                6.99731454               11.01327322                0.01000001               -0.01059059               -0.07410882                0.18263044                0.04034325                0.08537136                0.02377699
               4.99800450                6.99726703               11.01467479                0.01711130               -0.02517508               -0.06300894                0.18047303                0.05155941                0.11838997                0.05718003
               5.99769398                6.99722802               11.01555764                0.01000000               -0.05956673               -0.04993014                0.15628771                0.08543974                0.07555934                0.07190723
               6.99681317                6.99788673               11.01613132                0.01000000               -0.07904666               -0.06130703                0.17191606                0.07968658                0.11004570                0.06495053
               7.99611305                6.99805199               11.01770047                0.01122204               -0.06011905               -0.07027767                0.17631560                0.01706465                0.12338860                0.11250109
               8.99561079                6.99807157               11.01856206                0.01000000               -0.05232491               -0.08069359                0.18391706               -0.02088595                0.07221420                0.24997082
               9.99506655                6.99822988               11.01892447                0.08285831               -0.05442360               -0.10157778                0.19775155               -0.02645540                0.04067775                0.24998875
               0.00005185                8.00041710               11.01300531                0.99999999               -0.03582181               -0.03562190                0.11986186                0.00025861               -0.00193765                0.02032181
               0.99969364                7.99931954               11.01306730                1.00000000               -0.03553538               -0.03563594                0.11847107               -0.00018603               -0.00298557               -0.00033312
               1.99934115                7.99822625               11.01310972                0.04092748               -0.02081173               -0.03519299                0.11700791               -0.02164435                0.06435136               -0.01383023
               2.99927740                7.99671136               11.01451986                0.01729573               -0.01573424               -0.05128762                0.13072963                0.01371769                0.03794752               -0.03539782
               3.99902646                7.99664456               11.01408315                0.01531152               -0.03643830               -0.04469643                0.11358208                0.05927792                0.02281166                0.02287427
               4.99854864                7.99670595               11.01492793                0.01000000               -0.05131882               -0.04288134                0.11895319                0.06206400                0.07431150               -0.01581209
               5.99800009                7.99698083               11.01588485                0.01000000               -0.07285562               -0.02316406                0.13223507                0.05797482                0.09944747                0.00294111
               6.99709152                7.99740834               11.01698567                0.01127674               -0.09001876               -0.04397429                0.17478763                0.04646496                0.13348372                0.06245395
               7.99619971                7.99748543               11.01854718                0.01000000               -0.09864925               -0.05220710                0.18270348                0.00445390                0.21564423                0.06798151
               8.99511854                7.99726210               11.02136543                0.12625848               -0.08524080               -0.07128582                0.21003192               -0.03694910                0.13731432                0.14481924
               9.99449489                7.99695475               11.02141958                0.61389175               -0.06236440               -0.09361743                0.20390302               -0.04380576               -0.00006767                0.12522188
               0.00115235                9.00005662               11.01325061                0.99572673               -0.03652033               -0.03648450                0.12229337                0.00032158                0.00166605                0.01680367
               1.00078715                8.99896074               11.01323719                1.00000000               -0.03626385               -0.03619277                0.12072067               -0.00004423                0.00200514                0.00153118
               2.00042707                8.99787118               11.01322884                0.66722275               -0.03573925               -0.03577341                0.11890529               -0.00048996               -0.00016558               -0.01044292
               3.00007236                8.99678057               11.01317134                0.01000001               -0.05193110               -0.01393581                0.11552011                0.02127852                0.07034296               -0.08782708
               3.99938845                8.99642062               11.01457381                0.01000000               -0.05814275               -0.01397534                0.09016805                0.02671604                0.08224905               -0.02361681
               4.99890951                8.99640940               11.01466807                0.01000000               -0.06186794               -0.02102480                0.10100002                0.03934537                0.06970968               -0.01035693
               5.99815109                8.99676473               11.01586654                0.01000000               -0.08358174               -0.02747454                0.16160967                0.03816269                0.13270339                0.00088224
               6.99723787                8.99700724               11.01732561                0.01000000               -0.09013618               -0.04229013                0.18552826                0.02496759                0.15087375                0.01698751
               7.99634837                8.99700784               11.01897068                0.01000001               -0.09176911               -0.04857677                0.19657629               -0.00190836                0.19937312                0.02963313
               8.99540249                8.99664585               11.02132632                0.99999997               -0.07716118               -0.06078711                0.20284357               -0.00483971                0.11498779                0.00241448
               9.99480514                8.99635754               11.02134645                0.99107129               -0.05973450               -0.05880852                0.19678749                0.00096082               -0.00083637               -0.00190366
               0.00225004                9.99968741               11.01341571                0.99994714               -0.03718549               -0.03692030                0.12462174                0.00059617                0.01202651                0.01291795
               1.00187818                9.99859569               11.01339548                0.99497335               -0.03692595               -0.03650546                0.12298876                0.00027220                0.01475295                0.00106276
               2.00151152                9.99751078               11.01342411                0.95052635               -0.03623210               -0.03604029                0.12122890                0.00029267                0.02037479               -0.00656156
               3.00115354                9.99643264               11.01351347                0.04585694               -0.07897836               -0.03479245                0.11816921                0.05083153                0.05789163               -0.00322113
               3.99993195                9.99636505               11.01429210                0.06443405               -0.10810581               -0.00555649                0.13895007                0.04699085                0.10723774               -0.05578487
               4.99899143                9.99628546               11.01506456                0.01428804               -0.08832259               -0.01239429                0.13682286                0.01150658                0.09135616                0.02702981
               5.99816550                9.99643134               11.01595507                0.07963518               -0.08218296               -0.03333903                0.16168339                0.01529499                0.10930485                0.00687104
               6.99734777                9.99656254               11.01728420                0.08522916               -0.08212836               -0.04447010                0.19362143                0.01511710                0.14959571                0.00305748
               7.99652293                9.99651390               11.01906142                0.65724636               -0.08378566               -0.04939479                0.21038594               -0.00835243                0.19743872                0.02046867
               8.99567205                9.99604636               11.02125800                0.99107244               -0.07160957               -0.05994912                0.19824433               -0.00980952                0.10987910                0.00188304
               9.99509074                9.99577858               11.02127807                0.99756881               -0.05813114               -0.05789581                0.19217612                0.00178156                0.00174865               -0.00094727
              -0.00017198                0.00126747               12.01166797                0.99687529               -0.02845727               -0.02820615                0.09313087                0.00117112               -0.00068624                0.00112691
               0.99954345                0.00126082               12.01191051                0.77000540               -0.02939330               -0.02957759                0.09797632                0.00066585               -0.00118472               -0.00045583
               1.99924015                0.00126144               12.01214982                0.23311414               -0.03163269               -0.03169224                0.10382943               -0.00005725               -0.00485591               -0.00057746
               2.99891079                0.00124985               12.01232215                0.03419691               -0.02500905               -0.03324763                0.10901920               -0.08530153                0.00975977               -0.00081095
               3.99873997               -0.00047627               12.01285018                0.10954080               -0.02084657               -0.03482765                0.11495670               -0.10035077                0.01975061               -0.00199395
               4.99849386               -0.00013744               12.01350485                0.33188092               -0.02966603               -0.03511560                0.11668959               -0.00761255                0.01735633               -0.00131944
               5.99814665                0.00037412               12.01403841                0.87854157               -0.03560768               -0.03606835                0.12009720                0.00002277                0.00891254               -0.00145802
               6.99778171                0.00089878               12.01453111                0.99942136               -0.03702415               -0.03713113                0.12353177                0.00047955                0.00767721               -0.00106459
               7.99740617                0.00142618               12.01504182                0.99999999               -0.03806681               -0.03815773                0.12694802                0.00043088                0.00904948               -0.00090311
               8.99702037                0.00195573               12.01556213                0.99701430               -0.03906526               -0.03914187                0.13027486                0.00044948                0.00780500                0.00076556
               9.99662486                0.00248763               12.01604596                1.00000000               -0.03955082               -0.04014401                0.13350604                0.00041774                0.00617572                0.00572466
              -0.00015362                1.00098540               12.01167790                0.77641062               -0.02932568               -0.02894946                0.09619338                0.00028083                0.00064996                0.00110601
               0.99955312                1.00096504               12.01192001                0.02199302               -0.03006560               -0.02994239                0.10074789               -0.00090839                0.00109371               -0.00116634
               1.99924506                1.00094451               12.01217454                0.01000000               -0.03132446               -0.02977451                0.10651331               -0.00419585               -0.00191762               -0.00203539
               2.99892663                1.00091738               12.01235791                0.01000001               -0.04074775               -0.04017801                0.11222348               -0.09915904                0.01690833                0.01286595
               3.99843011                0.99917545               12.01299244                0.01000000               -0.04670455                0.00806394                0.11537069               -0.09935916                0.01345610               -0.00503339
               4.99799254                0.99951141               12.01357405                0.01000000               -0.04006683               -0.01631295                0.11727645               -0.00726452                0.00585241               -0.00903838
               5.99762877                1.00001344               12.01405517                0.01000000               -0.03660333               -0.02706886                0.12065597               -0.00273214               -0.00100786               -0.01242209
               6.99726047                1.00052747               12.01450188                0.62290700               -0.03733859               -0.03722725                0.12412443               -0.00017441               -0.00211060               -0.00468148
               7.99688200                1.00104461               12.01496363                0.95725766               -0.03831640               -0.03822978                0.12750730               -0.00012471               -0.00019902               -0.00170241
               8.99649414                1.00156431               12.01544936                0.99999996               -0.03924290               -0.03921237                0.13072312               -0.00005623                0.00081027                0.00083535
               9.99609714                1.00208619               12.01593086                0.99680876               -0.03970019               -0.04020927                0.13391359               -0.00009055                0.00067734                0.00715411
              -0.00012564                2.00068848               12.01169387                0.24493089               -0.03081878               -0.03226138                0.10032210               -0.00401772                0.00030568               -0.00167105
               0.99956617                2.00066197               12.01191903                0.01000000               -0.03352265               -0.02772129                0.10427677               -0.00428599                0.00161015               -0.00502472
               1.99920390                2.00066595               12.01216873                0.01000001               -0.04347485               -0.00819951                0.09179066               -0.05921288                0.01427061                0.02209655
               2.99869667                2.00044629               12.01266029                0.01000000               -0.05225728               -0.03582910                0.11269989               -0.09848208                0.01567184                0.02719686
               3.99815876                1.99968501               12.01306802                0.01000000               -0.05930434                0.02447745                0.12471031               -0.08612863                0.00724980                0.00699505
               4.99751058                1.99953630               12.01349530                0.01000001               -0.05414036               -0.00287063                0.12900807               -0.03342890               -0.00356885               -0.00734929
               5.99707595                1.99983275               12.01385606                0.01326797               -0.03817663               -0.02527118                0.12828443               -0.01424814               -0.00420233               -0.01027713
               6.99674705                2.00015423               12.01440188                0.01000000               -0.03545610               -0.03408012                0.12506049               -0.00859436               -0.00190547               -0.00287488
               7.99636683                2.00066159               12.01486896                0.03765249               -0.03846928               -0.03899193                0.12807241               -0.00041436               -0.00597644                0.00041038
               8.99597767                2.00117148               12.01533517                0.77682198               -0.03937646               -0.03933289                0.13113691               -0.00005472               -0.00419281               -0.00108331
               9.99557930                2.00168344               12.01583956                0.97464359               -0.03983671               -0.04035495                0.13435996               -0.00007090               -0.00241136                0.00840102
              -0.00018097                3.00034018               12.01165056                0.05169669               -0.03291010                0.02760457                0.10332567               -0.18854292                0.00018044                0.07023994
               0.99948993                3.00041062               12.01185353                0.01000001               -0.07712724                0.01032423                0.10719369               -0.17988534                0.03081844                0.08338435
               1.99827648                3.00078052               12.01265887                0.01000000               -0.07760021               -0.02007157                0.11089147               -0.13343001                0.02720893                0.04829892
               2.99793792                3.00020079               12.01295694                0.01000000               -0.03294806               -0.03708428                0.12159643               -0.13179905               -0.00141130                0.02765336
               3.99761752                2.99966500               12.01325472                0.01000001               -0.03808505               -0.02060263                0.13736503               -0.08573355               -0.00240579                0.01924031
               4.99717622                2.99945399               12.01361832                0.01000000               -0.04458211               -0.02256150                0.14328068               -0.03728982               -0.00674036                0.01277696
               5.99672588                2.99950802               12.01397829                0.01000000               -0.04582406               -0.03229860                0.13975778               -0.00858098               -0.01025908                0.02304834
               6.99625974                2.99984586               12.01441144                0.01000000               -0.04347098               -0.03162825                0.13567608               -0.00055242               -0.00908156                0.05822790
               7.99585646                3.00026477               12.01483457                0.01607676               -0.03942731               -0.04206354                0.11737148                0.00794771               -0.01761975                0.04912968
               8.99547120                3.00077765               12.01518361                0.01694775               -0.03923288               -0.04489508                0.13133703                0.01951956               -0.01213749                0.04664085
               9.99507180                3.00127909               12.01574744                0.02573601               -0.03993917               -0.04181157                0.13473429                0.02822382               -0.00198195                0.06861387
              -0.00403739                4.00124057               12.01309953                0.13050514               -0.04345007                0.05189111                0.11497430               -0.20851140               -0.00464709                0.09426282
               0.99552811                4.00086846               12.01363465                0.01000000                0.03912557               -0.00845355                0.11413257               -0.22092965               -0.05332048                0.08779749
               1.99674513                4.00026451               12.01316847                0.01000000                0.08240484               -0.06929308                0.12237645               -0.14249120               -0.05747494                0.04060485
               2.99717621                3.99970461               12.01328066                0.01000001                0.02228799               -0.06433861                0.13577017               -0.09542749               -0.01473347                0.02380747
               3.99719089                3.99927296               12.01354065                0.01000000               -0.01272181               -0.05301150                0.15241074               -0.05631236               -0.00412722                0.02083426
               4.99692177                3.99908507               12.01392663                0.01000000               -0.03392119               -0.04698182                0.16114757               -0.01478421                0.00566770                0.02615354
               5.99651246                3.99918677               12.01444537                0.01000000               -0.04712618               -0.04475696                0.15517947                0.00774346                0.04379418                0.04492204
               6.99597925                3.99952167               12.01569714                0.01677541               -0.04592351               -0.03871054                0.16075599                0.01640040                0.02897423                0.09114948
               7.99559399                3.99982032               12.01575135                0.01420041               -0.03127570               -0.04965367                0.10876485                0.03201730               -0.01618370                0.07863968
               8.99535374                4.00027358               12.01602754                0.01000000               -0.02265438               -0.05174667                0.08803233                0.04892142                0.00720106                0.08605113
               9.99514090                4.00084721               12.01686485                0.06396824               -0.02128326               -0.07139172                0.11403279                0.06240114                0.03225601                0.10187796
              -0.00360698                5.00137800               12.01353619                0.36008233               -0.03456357               -0.00827278                0.11458243               -0.03420524               -0.00324897                0.02941023
               0.99604739                5.00024155               12.01392307                0.01000000                0.00987432               -0.05008926                0.11322009               -0.01534062               -0.03889322                0.00336626
               1.99659051                4.99939466               12.01360203                0.01000001                0.04867721               -0.07634120                0.12708260               -0.03429147               -0.05852954                0.01184758
               2.99702093                4.99891402               12.01359774                0.01000000                0.02601493               -0.07936001                0.14055546               -0.03260950               -0.02335534                0.01155551
               3.99711081                4.99860477               12.01387691                0.01000000               -0.00271055               -0.07296627                0.15962964               -0.00786205                0.00390379                0.01937145
               4.99696672                4.99851436               12.01435452                0.01000000               -0.03333253               -0.07114703                0.16661088                0.01601516                0.02640353                0.03654856
               5.99644416                4.99861288               12.01503085                0.01000001               -0.05062575               -0.06331350                0.20812173                0.04406306                0.07371552                0.09976654
               6.99595421                4.99907165               12.01640068                0.01577035               -0.03496322               -0.05233686                0.12692590                0.05071822                0.05639449                0.05979584
               7.99574489                4.99927170               12.01663083                0.01000000               -0.02657375               -0.05322270                0.10206928                0.05035006               -0.00439321                0.06639721
               8.99542273                4.99974272               12.01670192                0.01000000               -0.02861636               -0.06562751                0.13241011                0.04329844                0.01316048                0.12979962
               9.99517257                4.99985125               12.01740859                0.01452259               -0.02501647               -0.08856118                0.14029762                0.01586061                0.03937847                0.11056363
              -0.00244859                6.00107511               12.01377002                0.97583741               -0.03467751               -0.03256986                0.11633632               -0.00233522               -0.00357921                0.01600919
               0.99720464                5.99986667               12.01403193                0.01000000               -0.00822959               -0.03627881                0.11500774                0.00125673               -0.03129589               -0.00692255
               1.99738682                5.99873769               12.01374388                0.01327311                0.00546357               -0.05457103                0.12432690               -0.01395352               -0.04021430                0.00323148
               2.99731391                5.99811741               12.01389101                0.01000000                0.00232437               -0.07656397                0.13343834                0.00545571               -0.00241023                0.00222903
               3.99743331                5.99781363               12.01428429                0.01000000               -0.00399678               -0.08308613                0.15234135                0.03044406                0.02362768                0.04558189
               4.99723397                5.99766213               12.01489700                0.01000001               -0.02984397               -0.08198453                0.20483607                0.05649360                0.09970550                0.06283270
               5.99683643                5.99792050               12.01659868                0.01643951               -0.04495883               -0.06432987                0.19601664                0.09186721                0.10039921                0.08561527
               6.99633480                5.99847493               12.01703693                0.01000000               -0.04532519               -0.05395212                0.11638387                0.08951580                0.03780743                0.06165711
               7.99592993                5.99875586               12.01728673                0.01000000               -0.03473253               -0.05781189                0.10955510                0.04417402                0.06675460                0.13346604
               8.99564015                5.99896103               12.01853263                0.01000000               -0.03444389               -0.08137879                0.15854094                0.02265935                0.06446112                0.19040384
               9.99524105                5.99907599               12.01885054                0.08057853               -0.03990988               -0.08023025                0.16833234                0.00653597                0.01689135                0.17907048
              -0.00123680                7.00072660               12.01395400                0.99547564               -0.03532571               -0.03516148                0.11827327                0.00022099               -0.00215974                0.01664002
               0.99840994                6.99951597               12.01411457                0.74760975               -0.03512483               -0.03529888                0.11691935               -0.00047539               -0.00921866               -0.00559142
               1.99806070                6.99830324               12.01413676                0.01000000               -0.01779190               -0.03921592                0.11558046               -0.01274140               -0.01319192               -0.00129348
               2.99805411                6.99738274               12.01422053                0.01000000                0.00571292               -0.06692040                0.13101907                0.01238961                0.03822130                0.00193842
               3.99817496                6.99694305               12.01531915                0.01678092               -0.00321928               -0.07234027                0.14983333                0.04650327                0.07546348                0.02184797
               4.99798972                6.99687467               12.01600266                0.01577691               -0.03531281               -0.05290458                0.12382792                0.07209898                0.05564209                0.04172707
               5.99746871                6.99732628               12.01675565                0.01000000               -0.05402788               -0.04947843                0.11853189                0.10185515                0.06995159                0.02077549
               6.99690916                6.99799261               12.01793723                0.01000000               -0.06632167               -0.04989939                0.13442178                0.07525724                0.12801192                0.08391916
               7.99614227                6.99811546               12.01948262                0.01145044               -0.06766841               -0.06048281                0.17601163                0.01871110                0.12132856                0.15644926
               8.99555579                6.99811514               12.02040384                0.01000000               -0.05344505               -0.07987517                0.18240959               -0.02127394                0.06594121                0.25107128
               9.99507337                6.99824665               12.02091889                0.08449008               -0.04824225               -0.10219572                0.19457671               -0.02523746                0.04732644                0.23212031
              -0.00002291                8.00037188               12.01420591                0.99999999               -0.03586040               -0.03582821                0.12018576                0.00023823               -0.00201396                0.02053469
               0.99961849                7.99916069               12.01425357                1.00000000               -0.03559364               -0.03573036                0.11875235               -0.00011616               -0.00305839               -0.00034535
               1.99926522                7.99795337               12.01428128                0.04241622               -0.03482988               -0.03526226                0.11725541                0.00121164                0.00873516               -0.01421937
               2.99892189                7.99677900               12.01456641                0.01608592               -0.01968860               -0.04938930                0.04880242                0.02353706                0.02657591               -0.01309663
               3.99887145                7.99636683               12.01521817                0.01421325               -0.03145839               -0.04400557                0.10653641                0.06146211                0.04915916               -0.02089777
               4.99829272                7.99660404               12.01604290                0.01000000               -0.05579295               -0.03125312                0.10053632                0.07834544                0.05376025               -0.01656181
               5.99775559                7.99693094               12.01672912                0.01000000               -0.06209803               -0.02934989                0.10708078                0.07556562                0.11613093                0.03641340
               6.99705076                7.99747694               12.01874261                0.01150565               -0.07869883               -0.04812205                0.17192726                0.04479255                0.17519845                0.06267241
               7.99618161                7.99754621               12.02037541                0.01000000               -0.09836442               -0.05221281                0.18096600                0.00412593                0.23257045                0.07391567
               8.99508348                7.99736353               12.02344024                0.12656253               -0.08541626               -0.06814979                0.20628380               -0.03352551                0.15251112                0.15939459
               9.99447329                7.99703207               12.02343678                0.61459809               -0.06101876               -0.09045614                0.20077397               -0.04677197               -0.00000368                0.12929352
               0.00119034                9.00001004               12.01447254                0.99735054               -0.03642125               -0.03651599                0.12208669                0.00028926                0.00167254                0.01709186
               1.00082613                8.99880136               12.01444363                0.99999999               -0.03618557               -0.03617655                0.12055488                0.00001015                0.00190033                0.00158292
               2.00046663                8.99759800               12.01441753                0.67720991               -0.03573687               -0.03577471                0.11895180               -0.00028218               -0.00121771               -0.01068379
               3.00011139                8.99639496               12.01432520                0.01701723               -0.04437352               -0.03680382                0.11653185                0.04252027                0.04737006               -0.03343871
               3.99957916                8.99606294               12.01527146                0.01000000               -0.05594370               -0.02359704                0.07656540                0.07833671                0.08924841               -0.01353052
               4.99899252                8.99624961               12.01585070                0.01000000               -0.07360211               -0.02437187                0.12548203                0.07598686                0.11184234               -0.00208715
               5.99810712                8.99673928               12.01746789                0.01000000               -0.09013888               -0.02606957                0.15704145                0.05738888                0.15906936                0.03674186
               6.99718974                8.99703017               12.01912383                0.01000000               -0.08844565               -0.04375279                0.17718270                0.02834168                0.16644368                0.02194938
               7.99633821                8.99707120               12.02087414                0.01000001               -0.08951613               -0.04794617                0.18767104                0.00193068                0.21138736                0.03995147
               8.99539942                8.99675215               12.02334808                0.99999998               -0.07686827               -0.06063703                0.20196363               -0.00093571                0.12423467                0.00238376
               9.99480084                8.99643753               12.02331040                0.99023940               -0.05985783               -0.05887274                0.19639011                0.00051220               -0.00133946               -0.00200425
               0.00240023                9.99964156               12.01465752                1.00000000               -0.03694923               -0.03684744                0.12386067                0.00054820                0.01229860                0.01309720
               1.00203073                9.99843716               12.01462191                0.99666726               -0.03671209               -0.03642011                0.12233456                0.00027601                0.01486512                0.00107925
               2.00166598                9.99723788               12.01463313                0.95847411               -0.03616896               -0.03601181                0.12089172                0.00022316                0.01969024               -0.00669698
               3.00130735                9.99604292               12.01469022                0.04619138               -0.05412247               -0.03520346                0.11852148                0.05244642                0.07017588               -0.00349473
               4.00058353                9.99589489               12.01571108                0.06424980               -0.10856176               -0.01680540                0.10140299                0.10412140                0.10935644               -0.00186976
               4.99913612                9.99611660               12.01630896                0.01473988               -0.12303655               -0.01330006                0.13279397                0.04009289                0.10106617                0.02825215
               5.99812280                9.99640954               12.01758716                0.08075123               -0.09252206               -0.03297375                0.16704118                0.02583245                0.13748105                0.00691580
               6.99728568                9.99660189               12.01916240                0.08685509               -0.08122781               -0.04282832                0.18516715                0.01848059                0.16894691                0.00529444
               7.99649825                9.99658728               12.02106863                0.65700666               -0.07936210               -0.04839170                0.19647662               -0.00655091                0.20281142                0.02561213
               8.99569844                9.99615079               12.02323731                0.99024038               -0.06927358               -0.06013621                0.19803252               -0.00673165                0.11186244                0.00141388
               9.99511278                9.99585462               12.02319945                0.99757076               -0.05856603               -0.05829084                0.19246002                0.00157664                0.00129140               -0.00144000
              -0.00044149                0.00125883               13.01259737                0.97136426               -0.02958049               -0.02929624                0.09698308                0.00082943                0.00042901                0.00257133
               0.99926271                0.00123484               13.01288898                0.76998283               -0.03014442               -0.03032642                0.10045998                0.00053867               -0.00024062                0.00013623
               1.99895562                0.00121460               13.01319123                0.23009972               -0.03154324               -0.03151132                0.10395363                0.00005359               -0.00437278               -0.00089828
               2.99863184                0.00118864               13.01340862                0.03075685               -0.03144678               -0.03297311                0.10853197               -0.08956535                0.01106651               -0.00080341
               3.99832669               -0.00063898               13.01401015                0.10592749               -0.02874702               -0.03471479                0.11683829               -0.10934821                0.02025930               -0.00182257
               4.99805690               -0.00022280               13.01467664                0.32761547               -0.03101520               -0.03544327                0.11764223               -0.00641082                0.01635145               -0.00135300
               5.99770638                0.00033990               13.01524155                0.87458105               -0.03581670               -0.03625176                0.12053552                0.00006285                0.00899700               -0.00148568
               6.99734057                0.00091465               13.01576704                0.99943904               -0.03706328               -0.03721144                0.12365897                0.00045706                0.00782139               -0.00103406
               7.99696512                0.00149282               13.01631015                0.99999999               -0.03801150               -0.03813691                0.12675010                0.00043827                0.00914608               -0.00084816
               8.99658034                0.00207381               13.01686205                0.99842074               -0.03892065               -0.03901635                0.12975616                0.00044909                0.00782082                0.00072250
               9.99618670                0.00265778               13.01737683                1.00000000               -0.03936322               -0.03992211                0.13272105                0.00033965                0.00614452                0.00562815
              -0.00040920                1.00096587               13.01263854                0.77587113               -0.03005929               -0.02964533                0.09859886                0.00016674                0.00139037                0.00239571
               0.99929020                1.00093157               13.01292461                0.01918869               -0.03057723               -0.03047558                0.10210071               -0.00024608                0.00199531               -0.00064360
               1.99897925                1.00089949               13.01323878                0.01000000               -0.03136129               -0.02899829                0.10587902               -0.00390900               -0.00090494               -0.01330190
               2.99866298                1.00085891               13.01347332                0.01000001               -0.05201636               -0.04002895                0.11085458               -0.10764504                0.01770722                0.01278014
               3.99793893                0.99901387               13.01415545                0.01000000               -0.05798129                0.01181305                0.11715715               -0.09926024                0.01336639               -0.00105110
               4.99750335                0.99942277               13.01475268                0.01000000               -0.04003194               -0.01706766                0.11843427               -0.00165050                0.00506729               -0.00313911
               5.99713829                0.99997738               13.01526523                0.01000000               -0.03673394               -0.02919293                0.12134767               -0.00065399               -0.00094031               -0.00748407
               6.99676867                1.00054253               13.01574504                0.62035168               -0.03741845               -0.03733372                0.12449617               -0.00008525               -0.00198728               -0.00450258
               7.99638992                1.00111145               13.01623922                0.95760173               -0.03831632               -0.03825557                0.12758939               -0.00001904               -0.00020230               -0.00169358
               8.99600235                1.00168365               13.01675542                1.00000000               -0.03918926               -0.03914045                0.13054393                0.00002425                0.00071049                0.00087046
               9.99560613                1.00225855               13.01726727                0.99805475               -0.03962151               -0.04004440                0.13348867               -0.00012576                0.00057807                0.00725414
              -0.00036956                2.00066592               13.01269974                0.24091822               -0.03062751               -0.03206283                0.10034145               -0.00368851                0.00014711               -0.00099142
               0.99932416                2.00062532               13.01296094                0.01000000               -0.03401678               -0.02803070                0.10364579               -0.00240102               -0.00902647               -0.00479357
               1.99895010                2.00063464               13.01303626                0.01000001               -0.04798008               -0.00832894                0.09211644               -0.06244469                0.01330643                0.02287312
               2.99836456                2.00038807               13.01380705                0.01000000               -0.05862365               -0.03628628                0.11641489               -0.10525547                0.02622397                0.02659320
               3.99777763                1.99959728               13.01431526                0.01000000               -0.06520879                0.02905813                0.12293000               -0.08259566                0.00939486                0.01390587
               4.99706038                1.99943585               13.01479929                0.01000001               -0.06020448               -0.00376338                0.12799517               -0.03080193               -0.00357700                0.00500762
               5.99657354                1.99975604               13.01517247                0.01266062               -0.04277971               -0.02704871                0.13264285               -0.00880564               -0.00810410               -0.00120465
               6.99620479                2.00016797               13.01565526                0.01000000               -0.03749572               -0.03988213                0.12555190               -0.00160935               -0.00683215                0.00450870
               7.99582362                2.00072771               13.01615113                0.03874444               -0.03855365               -0.03912035                0.12840071                0.00017225               -0.00614132               -0.00012502
               8.99543372                2.00129100               13.01664991                0.78374174               -0.03946266               -0.03939844                0.13145079                0.00011154               -0.00414628               -0.00061077
               9.99503437                2.00185689               13.01718696                0.97806035               -0.03993460               -0.04036006                0.13452211               -0.00014204               -0.00223014                0.00891896
              -0.00040178                3.00032461               13.01268036                0.04787251               -0.03247548                0.02821060                0.10281401               -0.20752411                0.00034689                0.07562050
               0.99927347                3.00037096               13.01292030                0.01000001               -0.08153031                0.00367974                0.10608687               -0.19756829                0.03199427                0.08618318
               1.99796762                3.00073291               13.01378707                0.01000000               -0.08391213               -0.02326229                0.11456335               -0.14291826                0.02932402                0.05976799
               2.99759523                3.00013319               13.01417188                0.01000000               -0.03641937               -0.03918131                0.11967923               -0.13404513                0.00586250                0.03237531
               3.99723923                2.99959503               13.01466938                0.01000001               -0.04333347               -0.02284353                0.14324262               -0.08780263                0.00380039                0.02547298
               4.99672856                2.99934750               13.01508755                0.01000000               -0.05045910               -0.02407791                0.14910491               -0.03506846               -0.00856576                0.02615170
               5.99623005                2.99943640               13.01538062                0.01000001               -0.04818703               -0.03410748                0.13721140               -0.00447929               -0.01078777                0.03319044
               6.99576482                2.99974489               13.01581596                0.01000000               -0.04798565               -0.04274998                0.14179665                0.02005503               -0.01197745                0.04783988
               7.99527034                3.00032904               13.01611273                0.01517906               -0.04447092               -0.05112393                0.12709522                0.03213156               -0.02541859                0.04260061
               8.99487540                3.00089568               13.01651363                0.01612903               -0.03994097               -0.04599067                0.13260278                0.02561528               -0.01143148                0.02895765
               9.99447152                3.00145135               13.01710945                0.02759162               -0.04038820               -0.05744922                0.13563857                0.03135962               -0.00173872                0.03146779
              -0.00461274                4.00123013               13.01426114                0.12684035               -0.04227651                0.05015306                0.11719440               -0.23398880               -0.00436493                0.09818013
               0.99496449                4.00069892               13.01478123                0.01000000                0.04711228               -0.01515672                0.11521210               -0.23508642               -0.04856725                0.08918459
               1.99632950                4.00016939               13.01439689                0.01000000                0.09285202               -0.07581902                0.12068151               -0.14406394               -0.04746525                0.04396679
               2.99682153                3.99960444               13.01467913                0.01000001                0.02388788               -0.07110154                0.14151133               -0.09891157               -0.00376778                0.02684529
               3.99680726                3.99914041               13.01507811                0.01000000               -0.01519454               -0.05860681                0.15747166               -0.05616633                0.00258844                0.02562207
               4.99651764                3.99895429               13.01551172                0.01000000               -0.03603502               -0.04935916                0.15465975               -0.00877166                0.00744533                0.03302495
               5.99608656                3.99907389               13.01596235                0.01000000               -0.04021967               -0.04581187                0.14789877                0.02168802                0.02512867                0.08320887
               6.99571325                3.99931297               13.01672249                0.01560563               -0.03855471               -0.04237565                0.11310054                0.03852847                0.01643024                0.07567430
               7.99531547                3.99970523               13.01687342                0.01328926               -0.04447696               -0.05663257                0.11855609                0.06688108               -0.01949098                0.06966187
               8.99482371                4.00037119               13.01700097                0.01000000               -0.03826297               -0.05763549                0.11136969                0.06418740               -0.01921751                0.08772063
               9.99455021                4.00070790               13.01748002                0.06372423               -0.02735025               -0.07864098                0.09055077                0.05314167               -0.00945559                0.08726974
              -0.00401912                5.00132767               13.01468816                0.35519014               -0.03483955               -0.01064531                0.11582044               -0.03232307               -0.00321314                0.02789872
               0.99563248                5.00006782               13.01506029                0.01000000                0.00999697               -0.05031293                0.11427845               -0.00822056               -0.03097547                0.00208434
               1.99618082                4.99921653               13.01488369                0.01000001                0.05067470               -0.08312579                0.12505452               -0.03115401               -0.04185327                0.01132221
               2.99664598                4.99871116               13.01502793                0.01000000                0.02926177               -0.08721972                0.14402299               -0.02872557               -0.00596893                0.01130882
               3.99676605                4.99842290               13.01544069                0.01000000               -0.00131660               -0.07721360                0.15249090               -0.00056187                0.01090969                0.02316962
               4.99661965                4.99836032               13.01591071                0.01000000               -0.02304648               -0.06898202                0.15427138                0.03451337                0.06040193                0.06772889
               5.99630513                4.99852017               13.01729489                0.01663113               -0.03578008               -0.05534717                0.16904602                0.06147742                0.06892015                0.08949348
               6.99590405                4.99889738               13.01756991                0.01458825               -0.03776905               -0.04909501                0.11156110                0.06764191                0.00503246                0.05586450
               7.99554974                4.99919639               13.01753822                0.01000000               -0.03737864               -0.04983546                0.10853109                0.07063848                0.00392606                0.08564212
               8.99515647                4.99974297               13.01808674                0.01000000               -0.03444139               -0.06945294                0.13989651                0.06489983                0.03734740                0.15603930
               9.99486092                4.99987853               13.01890903                0.01469908               -0.02955559               -0.08252458                0.14664655                0.03817849                0.04806615                0.15204570
              -0.00273951                6.00101723               13.01493735                0.96928978               -0.03492710               -0.03308548                0.11715303               -0.00211543               -0.00358086                0.01601127
               0.99691122                5.99969266               13.01518583                0.01000000               -0.00987020               -0.03639163                0.11579379                0.00450211               -0.02496325               -0.00686054
               1.99706309                5.99850688               13.01501128                0.01266567                0.00647166               -0.06023763                0.12664205               -0.00657258               -0.02844332               -0.00297558
               2.99704066                5.99786004               13.01523900                0.01000001                0.00418873               -0.07707311                0.12974055                0.01208165                0.01042676               -0.00025444
               3.99714687                5.99759614               13.01575684                0.01000000                0.00349927               -0.08026365                0.14274579                0.04365866                0.06580298                0.02789827
               4.99711064                5.99757465               13.01712282                0.01663294               -0.01839075               -0.07023233                0.16601149                0.07160016                0.09219055                0.05858295
               5.99677905                5.99796694               13.01796617                0.01514319               -0.03603895               -0.05035421                0.10890092                0.08048696                0.03910270                0.03132200
               6.99638986                5.99833107               13.01817853                0.01000000               -0.04482013               -0.05189758                0.10831730                0.07419841                0.02501100                0.05305035
               7.99588265                5.99870852               13.01863581                0.01000000               -0.04751489               -0.05520493                0.14119876                0.05871606                0.08367406                0.18011290
               8.99543957                5.99898213               13.02010346                0.01022884               -0.04200018               -0.07787924                0.16119550                0.03428776                0.07707583                0.20923600
               9.99504264                5.99905741               13.02059723                0.08130198               -0.03969211               -0.07962401                0.17613671                0.01363140                0.02704558                0.19232761
              -0.00141229                7.00066596               13.01513956                0.99472562               -0.03548283               -0.03539887                0.11889953                0.00019133               -0.00216731                0.01676019
               0.99823288                6.99933999               13.01528646                0.74353742               -0.03528619               -0.03545424                0.11750543               -0.00041531               -0.00928346               -0.00553582
               1.99788198                6.99801178               13.01529527                0.01000000               -0.02172645               -0.04228944                0.11605217               -0.00151875               -0.00829797               -0.00776096
               2.99779835                6.99716969               13.01546507                0.01000000                0.00213203               -0.07576426                0.12707129                0.03186084                0.02824974               -0.01004988
               3.99792462                6.99681762               13.01626989                0.01561105               -0.00587537               -0.06609260                0.10579891                0.05861304                0.06069324                0.01020157
               4.99768084                6.99695567               13.01715135                0.01459482               -0.03830920               -0.05239889                0.11036612                0.08488531                0.05150775                0.00033283
               5.99715844                6.99751308               13.01792828                0.01000000               -0.05172026               -0.04850401                0.10944794                0.08738500                0.05855728                0.00895291
               6.99664644                6.99785943               13.01881975                0.01000000               -0.05427149               -0.04279386                0.11164750                0.05692786                0.14510021                0.10453838
               7.99607301                6.99809229               13.02122070                0.01157965               -0.05765511               -0.05681466                0.16845733                0.02983988                0.15901488                0.17667415
               8.99549334                6.99818538               13.02221025                0.01000000               -0.05450168               -0.07381860                0.17918063               -0.00692077                0.07132014                0.27779265
               9.99498298                6.99828605               13.02281601                0.08571966               -0.05103586               -0.09541490                0.18434011               -0.01697758                0.05089884                0.24643016
              -0.00008374                8.00030925               13.01540902                0.99999999               -0.03591627               -0.03595609                0.12045166                0.00022831               -0.00205345                0.02062267
               0.99955710                7.99898358               13.01544235                1.00000000               -0.03566263               -0.03579669                0.11900270               -0.00004412               -0.00318575               -0.00038041
               1.99920301                7.99766109               13.01545483                0.04436055               -0.03425368               -0.03530622                0.11744409                0.00001752               -0.00286575               -0.01436936
               2.99887203                7.99634476               13.01549591                0.01518808               -0.03349304               -0.05908579                0.10058904                0.04903388                0.03272780               -0.04047946
               3.99853315                7.99627429               13.01621387                0.01330172               -0.03795686               -0.05802658                0.10650598                0.09525987                0.05318699               -0.02461249
               4.99811289                7.99652667               13.01693865                0.01000000               -0.04550778               -0.04270366                0.10444854                0.09958324                0.07683348               -0.00660414
               5.99762299                7.99699686               13.01802646                0.01000000               -0.05818406               -0.04357731                0.13644366                0.09247202                0.16143032                0.05396845
               6.99694921                7.99747520               13.02042421                0.01163407               -0.07347530               -0.04164927                0.16299221                0.05447104                0.19864768                0.09820243
               7.99615349                7.99757223               13.02216650                0.01000000               -0.09209101               -0.04893205                0.17723606                0.01547051                0.25147778                0.07797308
               8.99510739                7.99750576               13.02549111                0.12673426               -0.08258699               -0.06444639                0.20444441               -0.02327643                0.16840319                0.17362049
               9.99450175                7.99714911               13.02543506                0.61477647               -0.06056401               -0.08656359                0.19938325               -0.04212719               -0.00025659                0.13622029
               0.00124362                8.99994684               13.01569234                0.99874965               -0.03634635               -0.03649293                0.12186098                0.00027047                0.00163363                0.01717359
               1.00088016                8.99862406               13.01564829                0.99999999               -0.03612370               -0.03614319                0.12039914                0.00007937                0.00187808                0.00152819
               2.00052115                8.99730565               13.01560788                0.69143162               -0.03571655               -0.03577234                0.11897746               -0.00010393               -0.00118009               -0.01063431
               3.00016583                8.99598798               13.01550198                0.01620193               -0.04366200               -0.03560297                0.11745900                0.04792596                0.03102644               -0.02213291
               3.99964791                8.99565709               13.01610512                0.01000000               -0.06079504               -0.04129344                0.09731553                0.10404040                0.08849361               -0.03088066
               4.99894993                8.99610160               13.01717771                0.01000000               -0.07942772               -0.02963423                0.13269282                0.10041139                0.14038688                0.02112922
               5.99805936                8.99664154               13.01900737                0.01035806               -0.08947165               -0.03328713                0.15663394                0.06817658                0.18015561                0.05333983
               6.99716050                8.99702644               13.02086927                0.01000000               -0.08537477               -0.04419559                0.17254695                0.03840707                0.18432858                0.02496369
               7.99635186                8.99711365               13.02272411                0.01000001               -0.08547882               -0.04675344                0.18347273                0.01103855                0.22749647                0.04477895
               8.99545092                8.99689645               13.02536559                0.99999998               -0.07490716               -0.06047924                0.20148090                0.00561112                0.13523988                0.00246695
               9.99485372                8.99655478               13.02527425                0.98957028               -0.05972025               -0.05887156                0.19632838                0.00036047               -0.00128277               -0.00199979
               0.00256724                9.99957939               13.01589292                1.00000000               -0.03673652               -0.03674480                0.12324385                0.00049355                0.01239344                0.01317540
               1.00219988                9.99826071               13.01584217                0.99794622               -0.03651149               -0.03633450                0.12180805                0.00028384                0.01508147                0.00102820
               2.00183701                9.99694564               13.01584194                0.96570772               -0.03603835               -0.03600134                0.12064716                0.00018545                0.01984227               -0.00652115
               3.00147911                9.99563270               13.01588390                0.04662487               -0.06683349               -0.03552790                0.11892021                0.05646665                0.04174099               -0.00338295
               4.00050034                9.99544842               13.01632016                0.06404907               -0.11712166               -0.02086759                0.08354145                0.10030734                0.09125704               -0.02037840
               4.99913668                9.99593399               13.01772044                0.01496431               -0.12193285               -0.01676107                0.13855514                0.06280984                0.14264907                0.03413552
               5.99806168                9.99633112               13.01929589                0.08149147               -0.09457203               -0.03104146                0.17079828                0.03309766                0.15487908                0.01867378
               6.99724523                9.99659128               13.02098754                0.08804599               -0.07787189               -0.04351560                0.17688665                0.02377568                0.18134313                0.00844707
               7.99650425                9.99663716               13.02299095                0.65631974               -0.07333765               -0.04764941                0.19041841                0.00048289                0.21333399                0.03041705
               8.99577848                9.99629617               13.02521865                0.98957120               -0.06559714               -0.06002830                0.19817970               -0.00051756                0.11741253                0.00148191
               9.99519230                9.99597168               13.02512727                0.99761182               -0.05861786               -0.05830992                0.19303299                0.00140974                0.00137620               -0.00135706
              -0.00074661                0.00123656               14.01360764                0.97235097               -0.03086198               -0.03056067                0.10104488                0.00043786               -0.00093363                0.00145225
               0.99894477                0.00119228               14.01391971                0.76934285               -0.03101687               -0.03120751                0.10323290                0.00039261               -0.00159885               -0.00056029
               1.99863306                0.00114838               14.01422889                0.22725695               -0.03157831               -0.03149311                0.10448945                0.00012412               -0.00434567               -0.00064868
               2.99831321                0.00110438               14.01449279                0.02819387               -0.03779588               -0.03298306                0.10861326               -0.09249643                0.01484185               -0.00087028
               3.99787714               -0.00080333               14.01518694                0.10293046               -0.03618572               -0.03473532                0.11833569               -0.11695381                0.02162524               -0.00174407
               4.99758949               -0.00031658               14.01585769                0.32355237               -0.03204733               -0.03574450                0.11851309               -0.00552000                0.01496233               -0.00140447
               5.99723619                0.00029704               14.01644912                0.87052056               -0.03599785               -0.03642112                0.12096744                0.00007457                0.00893410               -0.00152135
               6.99686953                0.00092209               14.01700429                0.99940920               -0.03710573               -0.03728948                0.12380769                0.00042117                0.00790802               -0.00102822
               7.99649408                0.00155107               14.01757682                0.99999999               -0.03797186               -0.03813166                0.12662866                0.00041671                0.00916771               -0.00083303
               8.99611010                0.00218343               14.01815725                0.99962276               -0.03879469               -0.03895731                0.12935347                0.00043291                0.00776612                0.00074059
               9.99571818                0.00281931               14.01870038                1.00000000               -0.03919152               -0.03981678                0.13206365                0.00027082                0.00603972                0.00564348
              -0.00069795                1.00093095               14.01364988                0.77473073               -0.03092608               -0.03048679                0.10125456                0.00000062                0.00089478                0.00137753
               0.99899279                1.00088021               14.01396202                0.01485741               -0.03118991               -0.03109355                0.10374118                0.00034231                0.00147040               -0.00151993
               1.99867825                1.00083345               14.01429212                0.01000000               -0.03143444               -0.02866351                0.10559164               -0.00573984               -0.00016048               -0.01799357
               2.99836410                1.00077455               14.01457500                0.01000001               -0.06300857               -0.04123871                0.10995857               -0.11775979                0.02126277                0.01573554
               3.99741808                0.99884932               14.01533559                0.01000000               -0.06899957                0.01262667                0.11872584               -0.09856463                0.01502922                0.00036834
               4.99698411                0.99932597               14.01594274                0.01000000               -0.04002375               -0.01909148                0.11949923                0.00379265                0.00401230               -0.00030895
               5.99661760                0.99993283               14.01648212                0.01000000               -0.03686865               -0.03018904                0.12198370                0.00224613               -0.00100605               -0.00198937
               6.99624673                1.00054919               14.01699181                0.61819551               -0.03750160               -0.03742992                0.12482895               -0.00004313               -0.00191207               -0.00442426
               7.99586757                1.00116975               14.01751541                0.95814191               -0.03832153               -0.03827451                0.12765059               -0.00000310               -0.00019305               -0.00168612
               8.99548030                1.00179386               14.01806024                1.00000000               -0.03912824               -0.03911850                0.13039856                0.00001050                0.00067147                0.00084704
               9.99508501                1.00242115               14.01860063                0.99897997               -0.03952968               -0.03998357                0.13314394               -0.00014994                0.00053170                0.00721452
              -0.00064511                2.00062682               14.01370069                0.23711340               -0.03057754               -0.03198817                0.10069279               -0.00343837                0.00051041               -0.00070638
               0.99904912                2.00057041               14.01399194                0.01000000               -0.03654873               -0.02831065                0.10332936               -0.00106965               -0.01317747               -0.00464082
               1.99862392                2.00057511               14.01401106                0.01000001               -0.05534874               -0.01090998                0.11162746               -0.06788372                0.01313211                0.02415810
               2.99794214                2.00027960               14.01498858                0.01000000               -0.06347518               -0.03991593                0.11711662               -0.11585669                0.03247793                0.02771611
               3.99735442                1.99944920               14.01552662                0.01000000               -0.06801561                0.02811517                0.12269844               -0.08091152                0.01000556                0.02418343
               4.99658183                1.99930159               14.01605520                0.01000001               -0.06482602               -0.00306874                0.12689921               -0.02231950               -0.00009831                0.01905059
               5.99605790                1.99969326               14.01650892                0.01223829               -0.04750403               -0.02754399                0.13170596                0.00180040               -0.01064164                0.00510721
               6.99563175                2.00017349               14.01691292                0.01000001               -0.04042742               -0.04068790                0.12593750                0.00668322               -0.01230910                0.01281732
               7.99524935                2.00078558               14.01743697                0.03926650               -0.03864201               -0.03876308                0.12867725                0.00052105               -0.00623859               -0.00167978
               8.99485891                2.00140106               14.01796419                0.78840149               -0.03943718               -0.03940517                0.13143316               -0.00001941               -0.00418449               -0.00072267
               9.99446060                2.00201964               14.01853000                0.98027171               -0.03983072               -0.04028828                0.13421712               -0.00012257               -0.00219933                0.00876676
              -0.00065390                3.00029119               14.01370684                0.04492229               -0.03229993                0.02847752                0.10268018               -0.22370753                0.00040881                0.08370613
               0.99902310                3.00031399               14.01397527                0.01000001               -0.08673595               -0.00291310                0.10526497               -0.21520204                0.03596080                0.09159476
               1.99761138                3.00061525               14.01495014                0.01000000               -0.09251160               -0.02639366                0.11541609               -0.15318824                0.03296257                0.06632052
               2.99717287                2.99997623               14.01535052                0.01000000               -0.04167622               -0.04470693                0.12235927               -0.13630681                0.01583075                0.04008563
               3.99677786                2.99941162               14.01611957                0.01307969               -0.04396060               -0.02175599                0.13080586               -0.08279920                0.01731711                0.03917942
               4.99629366                2.99926460               14.01660041                0.01000000               -0.04980737               -0.01895877                0.13401880               -0.02125336               -0.01312559                0.03857941
               5.99578171                2.99938195               14.01672252                0.01000001               -0.05027893               -0.03782878                0.13218256                0.01086017               -0.01802494                0.04013638
               6.99528808                2.99973543               14.01724737                0.01000000               -0.05656469               -0.04461420                0.15130857                0.03887844               -0.02828907                0.05865559
               7.99465042                3.00039449               14.01737648                0.01451471               -0.05211164               -0.04987539                0.12748722                0.04733334               -0.03373044                0.04041187
               8.99424585                3.00100575               14.01783567                0.01550977               -0.04025149               -0.04730861                0.13232929                0.03623834               -0.01000605                0.02502402
               9.99384539                3.00161538               14.01846021                0.02799994               -0.04004596               -0.06133051                0.13508414                0.03761651               -0.00163602                0.02314612
              -0.00516487                4.00119637               14.01544342                0.12371264               -0.04141177                0.04842842                0.11915933               -0.25650294               -0.00406739                0.10271650
               0.99442102                4.00051215               14.01593890                0.01000000                0.05313948               -0.02176812                0.11637368               -0.24699419               -0.04594071                0.09254977
               1.99589792                4.00004724               14.01558210                0.01000000                0.09993118               -0.08042699                0.11939972               -0.14761286               -0.03398807                0.04492466
               2.99641964                3.99938546               14.01611089                0.01308070                0.02560688               -0.06979501                0.12863524               -0.09307387                0.01600913                0.03505441
               3.99641006                3.99901408               14.01669008                0.01000000               -0.01166015               -0.05110964                0.13116223               -0.03973443                0.00645560                0.02564939
               4.99618644                3.99892241               14.01701983                0.01000001               -0.03028974               -0.05033833                0.13349388               -0.00252503                0.00163155                0.03690281
               5.99580427                3.99893669               14.01740335                0.01000000               -0.03948271               -0.04915097                0.14051452                0.03702175                0.01482754                0.08076727
               6.99539678                3.99928120               14.01795915                0.01467521               -0.04392860               -0.05012650                0.12597027                0.06874135               -0.00016328                0.07418653
               7.99492569                3.99978807               14.01812247                0.01255722               -0.05169979               -0.05861691                0.12946991                0.09149270               -0.02906010                0.08026183
               8.99436279                4.00045489               14.01825494                0.01000000               -0.04660071               -0.06223691                0.13095705                0.07789950               -0.02355593                0.09239681
               9.99399368                4.00079303               14.01867586                0.06349798               -0.03691066               -0.09202101                0.12937271                0.06601071               -0.01401013                0.10064065
              -0.00441551                5.00125976               14.01585260                0.35039973               -0.03521385               -0.01262191                0.11715272               -0.03072713               -0.00320210                0.02589767
               0.99523235                4.99987863               14.01620864                0.01000000                0.01006602               -0.05044249                0.11547952               -0.00213098               -0.02663842                0.00088342
               1.99578581                4.99900671               14.01610312                0.01000001                0.05560974               -0.08903215                0.12251004               -0.02157209               -0.02507715                0.01284813
               2.99634455                4.99858033               14.01647820                0.01000000                0.03302038               -0.08551429                0.12810314               -0.01300188                0.01134531                0.00397402
               3.99644622                4.99838943               14.01692673                0.01000001               -0.00119952               -0.07358434                0.13168005                0.00664935                0.01661711                0.01609937
               4.99632056                4.99825783               14.01743995                0.01000000               -0.01414315               -0.06646311                0.14400481                0.03457640                0.04868403                0.05481063
               5.99616336                4.99839893               14.01841177                0.01550096               -0.02545173               -0.05115659                0.11360354                0.06167912                0.04069365                0.06690545
               6.99581152                4.99873290               14.01863190                0.01359232               -0.04283850               -0.04975540                0.11560042                0.07959051               -0.00110566                0.06010289
               7.99530659                4.99922215               14.01880145                0.01000000               -0.05063247               -0.05562119                0.13360183                0.08904480                0.01298388                0.10504384
               8.99479888                4.99976102               14.01949985                0.01000000               -0.04086372               -0.07163245                0.14674944                0.07051329                0.03961375                0.17881221
               9.99448931                4.99977496               14.02034152                0.01475926               -0.03095614               -0.08887365                0.14708478                0.04143121                0.04481921                0.17731709
              -0.00301716                6.00094394               14.01611308                0.96258803               -0.03514003               -0.03348104                0.11792526               -0.00198473               -0.00356007                0.01582131
               0.99663144                5.99950330               14.01634780                0.01000000               -0.01090274               -0.03649486                0.11653761                0.00794381               -0.01911328               -0.00690950
               1.99676479                5.99826660               14.01627672                0.01224325                0.00727222               -0.06511192                0.12475544                0.00510990               -0.02341854               -0.00909873
               2.99677689                5.99767518               14.01648582                0.01000001                0.00503778               -0.08277477                0.12378383                0.02878662                0.01843536               -0.01162524
               3.99686554                5.99754240               14.01713921                0.01000000                0.00457881               -0.08496886                0.13523390                0.05871492                0.06657184                0.01631271
               4.99686846                5.99759315               14.01821723                0.01550274               -0.01513822               -0.05961687                0.11171540                0.07060394                0.06416807                0.03799056
               5.99656278                5.99791355               14.01877670                0.01403631               -0.03515445               -0.04769447                0.09653687                0.07505173                0.03078360                0.02440596
               6.99616537                5.99828610               14.01920327                0.01000000               -0.04421502               -0.04476050                0.11303319                0.07346589                0.04353836                0.07552685
               7.99567848                5.99867565               14.02011070                0.01000000               -0.04725653               -0.05519497                0.15078230                0.06808149                0.10369832                0.20462455
               8.99522024                5.99902224               14.02175654                0.01076163               -0.04420321               -0.07388344                0.16560374                0.04639648                0.08855507                0.22865656
               9.99479441                5.99901556               14.02237327                0.08177977               -0.04258291               -0.07187686                0.17395448                0.01885822                0.03595316                0.20722808
              -0.00157393                7.00059014               14.01633199                0.99395400               -0.03575000               -0.03561897                0.11962600                0.00018621               -0.00228077                0.01678239
               0.99806857                6.99914873               14.01646468                0.73965920               -0.03549681               -0.03560223                0.11813779               -0.00040702               -0.00940393               -0.00554278
               1.99771613                6.99770447               14.01645780                0.01000001               -0.02120449               -0.04566106                0.11632245                0.00828267               -0.00092270               -0.01368471
               2.99764448                6.99692483               14.01676195                0.01000000               -0.00067941               -0.08713386                0.13800814                0.05130492                0.03589397               -0.03901598
               3.99770255                6.99669005               14.01743513                0.01468049               -0.01414988               -0.07515240                0.11958885                0.08837843                0.05858753               -0.00518075
               4.99736148                6.99706549               14.01820998                0.01359905               -0.03655482               -0.05737785                0.11358973                0.09516674                0.05818626               -0.00619136
               5.99697145                6.99744504               14.01894461                0.01000000               -0.04213661               -0.04911679                0.11158959                0.08540278                0.08324323                0.02620900
               6.99651875                6.99783769               14.02017018                0.01000000               -0.05196875               -0.04473086                0.14073571                0.06957589                0.18160801                0.13663490
               7.99593207                6.99811825               14.02285176                0.01163991               -0.05659300               -0.05366915                0.16560487                0.04557253                0.17921951                0.19594810
               8.99538689                6.99828335               14.02398746                0.01000000               -0.05261187               -0.06708215                0.17500213                0.00909542                0.07720835                0.29909597
               9.99487984                6.99833742               14.02460570                0.08662625               -0.05070536               -0.08586651                0.17366289               -0.00530027                0.05038239                0.25539273
              -0.00013063                8.00023156               14.01661494                0.99999999               -0.03604055               -0.03602653                0.12073900                0.00022297               -0.00219836                0.02058125
               0.99950896                7.99879126               14.01663362                1.00000000               -0.03575127               -0.03583122                0.11921478                0.00007034               -0.00333441               -0.00046737
               1.99915434                7.99735337               14.01663016                0.04589912               -0.03457783               -0.03531353                0.11751116                0.00072255               -0.00688507               -0.01439796
               2.99881741                7.99593250               14.01657819                0.01452361               -0.03309481               -0.06802593                0.10956692                0.06380900                0.03175984               -0.04604488
               3.99849245                7.99603935               14.01734829                0.01256949               -0.04003004               -0.06755062                0.11894559                0.12419223                0.07488069               -0.03809165
               4.99801681                7.99644559               14.01813187                0.01000000               -0.04969059               -0.05875465                0.12669357                0.12141944                0.10002615                0.00064762
               5.99749864                7.99693122               14.01945799                0.01000000               -0.05665627               -0.04541966                0.14608154                0.09965577                0.18628753                0.07248201
               6.99688368                7.99739148               14.02200245                0.01169317               -0.06771808               -0.04357870                0.16066200                0.06559356                0.21952137                0.11394233
               7.99614427                7.99760226               14.02392013                0.01000002               -0.08503511               -0.04879598                0.17547893                0.03744275                0.27715462                0.08890640
               8.99518298                7.99768060               14.02752913                0.12682553               -0.07820103               -0.06047013                0.20326176               -0.00684278                0.18513690                0.18834238
               9.99458025                7.99729823               14.02742444                0.61474603               -0.06027249               -0.08160536                0.19859322               -0.03433568               -0.00027397                0.14781050
               0.00131113                8.99986961               14.01690976                0.99994471               -0.03629733               -0.03638235                0.12158251                0.00026256                0.00163260                0.01716862
               1.00094816                8.99843211               14.01685161                0.99999999               -0.03608955               -0.03606444                0.12022332                0.00014909                0.00185457                0.00148548
               2.00058934                8.99699820               14.01679708                0.70413476               -0.03567360               -0.03570210                0.11886816               -0.00005216               -0.00133487               -0.01050958
               3.00023469                8.99556431               14.01667438                0.01558660               -0.04580219               -0.03605395                0.11725267                0.05936904                0.02863302               -0.01829323
               3.99967330                8.99533904               14.01721778                0.01000000               -0.06683409               -0.04910627                0.11687545                0.12028868                0.09667992               -0.03380884
               4.99889800                8.99589040               14.01850456                0.01000000               -0.08273074               -0.03658665                0.13790314                0.10970869                0.16702146                0.02506928
               5.99801868                8.99653665               14.02060057                0.01089624               -0.08692134               -0.03626223                0.15987819                0.07651846                0.20047929                0.06451907
               6.99715958                8.99696612               14.02257477                0.01000002               -0.08134351               -0.04285985                0.16860778                0.04697442                0.19803512                0.02846497
               7.99639181                8.99714233               14.02454359                0.01000001               -0.08027546               -0.04701606                0.18183091                0.02486822                0.24567076                0.05137861
               8.99555407                8.99707394               14.02737770                0.99999998               -0.07169773               -0.06031479                0.20095280                0.01451830                0.14734775                0.00267449
               9.99495786                8.99670532               14.02723697                0.98906858               -0.05962113               -0.05883961                0.19622150                0.00027735               -0.00129290               -0.00182894
               0.00274961                9.99950391               14.01712240                1.00000000               -0.03662630               -0.03656970                0.12274390                0.00045373                0.01254158                0.01317567
               1.00238335                9.99806997               14.01705807                0.99890924               -0.03642564               -0.03621441                0.12142914                0.00029021                0.01524032                0.00099992
               2.00202110                9.99663933               14.01704608                0.97194168               -0.03596978               -0.03588701                0.12029531                0.00024854                0.01963905               -0.00632145
               3.00166395                9.99521142               14.01706863                0.04677797               -0.07244830               -0.03528916                0.11841984                0.06382121                0.03592885               -0.00331077
               4.00057213                9.99505722               14.01738191                0.06384417               -0.13252910               -0.02818142                0.11497957                0.11500559                0.10721982               -0.02211768
               4.99901337                9.99571386               14.01908006                0.01504444               -0.13094219               -0.01765403                0.13954223                0.06897404                0.17215526                0.03360599
               5.99795329                9.99620597               14.02100312                0.08196339               -0.08979423               -0.03306753                0.16797013                0.03448165                0.17048779                0.02655770
               6.99721749                9.99653428               14.02270013                0.08888745               -0.07097375               -0.04318376                0.16734714                0.02858925                0.19004260                0.00533765
               7.99653381                9.99666194               14.02487700                0.65543013               -0.06535629               -0.04803908                0.18753635                0.01120117                0.22842237                0.03546639
               8.99591036                9.99647430               14.02720091                0.98906947               -0.06053789               -0.05996437                0.19827781                0.00860401                0.12470710                0.00147350
               9.99532306                9.99612144               14.02706011                0.99769614               -0.05873044               -0.05838790                0.19354527                0.00123360                0.00136405               -0.00137140
              -0.00108431                0.00120339               15.01461827                0.97285482               -0.03062118               -0.03030310                0.10096812                0.00043418               -0.00138758                0.00120481
               0.99860947                0.00113901               15.01495363                0.76961286               -0.03100262               -0.03100701                0.10334006                0.00037782               -0.00167821               -0.00085364
               1.99829563                0.00107516               15.01528102                0.22555058               -0.03194239               -0.03177117                0.10547617                0.00013271               -0.00356458               -0.00061996
               2.99797063                0.00100681               15.01558088                0.02651812               -0.04506722               -0.03289797                0.10906040               -0.09490122                0.01954009               -0.00088212
               3.99739429               -0.00097115               15.01637686                0.10059571               -0.04383279               -0.03472890                0.11946001               -0.12364039                0.02348422               -0.00173708
               4.99709397               -0.00042098               15.01704690                0.31983634               -0.03279131               -0.03599465                0.11926017               -0.00495938                0.01334356               -0.00146353
               5.99673846                0.00024347               15.01766089                0.86645614               -0.03614732               -0.03656743                0.12136821                0.00006472                0.00876182               -0.00155360
               6.99637102                0.00091905               15.01824319                0.99934413               -0.03714765               -0.03736345                0.12397825                0.00038703                0.00796454               -0.00104178
               7.99599551                0.00159897               15.01884272                0.99999999               -0.03794643               -0.03813945                0.12657743                0.00039125                0.00916474               -0.00082997
               8.99561210                0.00228265               15.01944912                1.00000000               -0.03871367               -0.03889964                0.12910703                0.00040556                0.00768584                0.00078570
               9.99522124                0.00297015               15.02001811                1.00000000               -0.03908592               -0.03969252                0.13163068                0.00022582                0.00589364                0.00572598
              -0.00101559                1.00090036               15.01466363                0.77463694               -0.03070401               -0.03042796                0.10124401               -0.00001887                0.00073224                0.00156756
               0.99867737                1.00082894               15.01499943                0.01252415               -0.03106722               -0.03098746                0.10361192               -0.00010687                0.00163918               -0.00162690
               1.99836306                1.00075745               15.01535061                0.01000000               -0.03162974               -0.03076887                0.10594584               -0.01153222                0.00100631               -0.00834896
               2.99804477                1.00067783               15.01567249                0.01000001               -0.07456418               -0.04199689                0.10976376               -0.12739823                0.02609035                0.01846796
               3.99687178                0.99868156               15.01652997                0.01000000               -0.08038522                0.01340574                0.11997092               -0.09709630                0.01776116                0.00265359
               4.99643707                0.99921907               15.01714266                0.01000000               -0.04013422               -0.02099205                0.12038466                0.00891923                0.00274703                0.00325829
               5.99606909                0.99987779               15.01770490                0.01000000               -0.03699635               -0.03128428                0.12251654                0.00454337               -0.00119748                0.00119660
               6.99569714                1.00054542               15.01824162                0.61618829               -0.03757350               -0.03751482                0.12510664               -0.00003404               -0.00187777               -0.00441430
               7.99531762                1.00121758               15.01879223                0.95876505               -0.03832896               -0.03829628                0.12770725                0.00001540               -0.00018693               -0.00169523
               8.99493056                1.00189365               15.01936340                1.00000000               -0.03908185               -0.03907624                0.13026589                0.00002742                0.00063716                0.00087092
               9.99453599                1.00257323               15.01993015                0.99965762               -0.03945737               -0.03987575                0.13282814               -0.00016598                0.00047218                0.00727465
              -0.00094186                2.00059483               15.01471359                0.23451425               -0.03078987               -0.03221751                0.10138186               -0.00329976                0.00065031                0.00028927
               0.99875025                2.00051926               15.01502753                0.01000000               -0.04210212               -0.02865209                0.10358228               -0.00315129               -0.00306599               -0.00395072
               1.99821610                2.00045978               15.01526881                0.01000001               -0.06258458               -0.01345865                0.12654282               -0.07319195                0.01680379                0.02652425
               2.99749855                2.00016687               15.01614938                0.01000000               -0.06524925               -0.04326169                0.11677778               -0.12325940                0.03260653                0.03710672
               3.99691112                1.99929696               15.01676923                0.01000000               -0.07112165                0.02668014                0.12292115               -0.07718951                0.01507916                0.02535234
               4.99607612                1.99915918               15.01733727                0.01000001               -0.07040651               -0.00323031                0.12679429               -0.01265748                0.00051190                0.01926289
               5.99550299                1.99961778               15.01780659                0.01194761               -0.05227831               -0.02665450                0.12830474                0.00815373               -0.01493508                0.00899265
               6.99503056                2.00016875               15.01817401                0.01693239               -0.04277014               -0.03368209                0.12622710                0.00316041               -0.01550791                0.02898412
               7.99464758                2.00083305               15.01872468                0.03892748               -0.03867803               -0.03829014                0.12882418                0.00110882               -0.00623425               -0.00231101
               8.99425699                2.00150112               15.01927858                0.79309056               -0.03944121               -0.03941196                0.13143712                0.00002848               -0.00414741               -0.00073893
               9.99385876                2.00217264               15.01987130                0.98231838               -0.03982346               -0.04024077                0.13405595               -0.00016286               -0.00218959                0.00874348
              -0.00093045                3.00025601               15.01473397                0.04290006               -0.03201622                0.02719376                0.10274694               -0.23717059                0.00052043                0.09317102
               0.99874939                3.00025590               15.01502560                0.01000001               -0.09089671               -0.01013624                0.10496495               -0.23054922                0.03970759                0.09835926
               1.99725162                3.00048828               15.01609540                0.01000000               -0.10034904               -0.02724413                0.11534551               -0.15908288                0.04436787                0.06497413
               2.99674241                2.99981259               15.01661906                0.01000000               -0.04579682               -0.04945103                0.12384336               -0.13689676                0.01967323                0.04227362
               3.99633568                2.99921516               15.01728549                0.01273144               -0.04396539               -0.02253601                0.11784254               -0.07709026                0.01608148                0.03402016
               4.99586310                2.99915447               15.01776792                0.01000000               -0.05565428               -0.01531834                0.11886472               -0.00547851               -0.00693042                0.03364196
               5.99522259                2.99934470               15.01802427                0.01000000               -0.06590096               -0.03088980                0.13398092                0.03290545               -0.00262611                0.04681786
               6.99454508                2.99987177               15.01884213                0.01000000               -0.06075798               -0.03782911                0.12416020                0.05336896               -0.03458077                0.05918231
               7.99400743                3.00045178               15.01866248                0.01402098               -0.04767699               -0.04737795                0.12954090                0.05122656               -0.04926255                0.04186559
               8.99359154                3.00110541               15.01916022                0.01503318               -0.04088685               -0.04730920                0.13255627                0.04294217               -0.00930723                0.02647776
               9.99318970                3.00176841               15.01981113                0.02910457               -0.04018435               -0.06666153                0.13511235                0.04476962               -0.00170838                0.02453448
              -0.00568505                4.00113871               15.01664432                0.12120236               -0.04079590                0.04599766                0.12085323               -0.27545699               -0.00374850                0.10799740
               0.99390699                4.00031654               15.01710870                0.01000000                0.05813987               -0.02896571                0.11767282               -0.25619999               -0.04259579                0.09759654
               1.99547775                3.99991490               15.01678488                0.01000000                0.10633713               -0.08547019                0.11893545               -0.14902914               -0.03221523                0.04864756
               2.99603374                3.99917785               15.01725183                0.01273244                0.02748443               -0.06984444                0.11546585               -0.08808957                0.01056154                0.03316342
               3.99602744                3.99884624               15.01770135                0.01000000               -0.00983629               -0.04596996                0.10814440               -0.02620339                0.01051769                0.02641690
               4.99583701                3.99885281               15.01818160                0.01000001               -0.02918250               -0.04476726                0.11885937                0.01994652                0.01648796                0.04500894
               5.99544379                3.99899998               15.01877264                0.01000000               -0.04230757               -0.04298875                0.13275328                0.06319048                0.01408367                0.08322974
               6.99499086                3.99941217               15.01924189                0.01395029               -0.05026546               -0.05082318                0.13350466                0.09163369               -0.00994751                0.06526937
               7.99443848                3.99988549               15.01946282                0.01197675               -0.05958288               -0.05713683                0.13582468                0.10384028               -0.03295417                0.08749582
               8.99379920                4.00055494               15.01962011                0.01000000               -0.05051655               -0.06439024                0.13884833                0.08855279               -0.02826959                0.10275867
               9.99342815                4.00083941               15.02006748                0.06329691               -0.03710532               -0.10204739                0.14150856                0.07265984               -0.01335620                0.10656076
              -0.00479525                5.00117596               15.01703122                0.34583119               -0.03555558               -0.01422199                0.11852856               -0.02969306               -0.00320551                0.02362905
               0.99484919                4.99967659               15.01736989                0.01000000                0.01024862               -0.05090515                0.11683245                0.00306156               -0.02228092               -0.00018579
               1.99540972                4.99877887               15.01733389                0.01000001                0.06000417               -0.09723395                0.12181449               -0.01409647               -0.02440085                0.01364857
               2.99604928                4.99841571               15.01758999                0.01000000                0.03634636               -0.09170321                0.11449031                0.00150153                0.00753408                0.00522958
               3.99613665                4.99829576               15.01807429                0.01000001                0.00295054               -0.07161226                0.11729150                0.02814347                0.03189133                0.02482959
               4.99610829                4.99825912               15.01879080                0.01000000               -0.01048026               -0.06441926                0.13043390                0.05543339                0.05135389                0.05655629
               5.99592704                4.99848493               15.01956696                0.01459769               -0.03080193               -0.05388790                0.12281461                0.07805408                0.02864512                0.06470109
               6.99549225                4.99885531               15.01988192                0.01277986               -0.04927844               -0.05544211                0.13130653                0.08799397               -0.00060550                0.07211007
               7.99494147                4.99930904               15.02021026                0.01000000               -0.05417855               -0.05673947                0.14484612                0.09635809                0.01881292                0.11992875
               8.99440868                4.99981761               15.02102173                0.01000000               -0.04337602               -0.07436419                0.15484884                0.07836588                0.04111005                0.19647230
               9.99407395                4.99972746               15.02185072                0.01476124               -0.03347237               -0.09508037                0.15316835                0.04599041                0.04035443                0.19648360
              -0.00328015                6.00085427               15.01729586                0.95591863               -0.03545322               -0.03381088                0.11885461               -0.00198543               -0.00347356                0.01554845
               0.99636531                5.99929843               15.01751658                0.01000000               -0.01315728               -0.03666342                0.11742081                0.00928746               -0.01531945               -0.00698993
               1.99645670                5.99797022               15.01750639                0.01195249                0.00907827               -0.06971136                0.12215175                0.01009425               -0.01860017               -0.01508460
               2.99654688                5.99734379               15.01771467                0.01000000                0.01450952               -0.10593475                0.12736967                0.04667005                0.02746788               -0.00149962
               3.99674689                5.99741400               15.01846152                0.01000000                0.01048170               -0.08954178                0.12867615                0.08661710                0.06992609                0.01298452
               4.99675651                5.99756443               15.01935713                0.01459946               -0.01691048               -0.06709593                0.12137191                0.08675140                0.06082543                0.02664971
               5.99640868                5.99792223               15.01989690                0.01313037               -0.04149443               -0.05644811                0.12296629                0.08374813                0.03910297                0.03121986
               6.99592662                5.99830333               15.02043919                0.01000000               -0.05026675               -0.05311849                0.13478793                0.08538332                0.06531519                0.09261820
               7.99540335                5.99875070               15.02165146                0.01000000               -0.04892655               -0.05536046                0.15903759                0.08314884                0.12251495                0.22592419
               8.99494809                5.99906765               15.02341553                0.01106478               -0.04375539               -0.07114471                0.16612300                0.05309967                0.09430938                0.24123810
               9.99452824                5.99893780               15.02407632                0.08209472               -0.04198551               -0.06923623                0.16902057                0.02102402                0.03909955                0.21613433
              -0.00172329                7.00049975               15.01753208                0.99999999               -0.03577193               -0.03555828                0.11978086                0.00011202               -0.00253284                0.01677629
               0.99791899                6.99894332               15.01764921                0.73615959               -0.03552251               -0.03555691                0.11824224               -0.00026083               -0.00980814               -0.00557782
               1.99756626                6.99738465               15.01762172                0.01693953               -0.01900410               -0.04681883                0.11649349                0.00088683                0.01442538               -0.01771948
               2.99753890                6.99629701               15.01822523                0.01000000                0.00410464               -0.09161729                0.11415516                0.06812467                0.03856117               -0.05255641
               3.99764835                6.99650493               15.01866167                0.01395549               -0.01019094               -0.08420968                0.12762867                0.11751906                0.05599065               -0.01585121
               4.99733509                6.99691720               15.01942314                0.01278633               -0.03926228               -0.06596922                0.12760611                0.10491170                0.07280158               -0.00912550
               5.99686310                6.99735596               15.02016007                0.01000000               -0.04818222               -0.05658403                0.13250694                0.09726090                0.10303673                0.04513840
               6.99637144                6.99779294               15.02163447                0.01000000               -0.05114876               -0.04769357                0.15426693                0.08983732                0.20772748                0.15910483
               7.99584013                6.99820183               15.02453280                0.01165244               -0.05439353               -0.05460859                0.17030876                0.06841651                0.19649019                0.21200962
               8.99528357                6.99839471               15.02571029                0.01000000               -0.05429928               -0.05926470                0.17289012                0.02493134                0.07934491                0.31965061
               9.99475414                6.99834274               15.02628926                0.08729155               -0.05294288               -0.07318734                0.16825982                0.00367309                0.04601433                0.26742442
              -0.00016506                8.00014310               15.01782380                0.99999999               -0.03597468               -0.03584944                0.12035526                0.00021289               -0.00255796                0.02018250
               0.99947520                7.99858730               15.01782664                1.00000000               -0.03570996               -0.03569995                0.11896612                0.00008446               -0.00365176               -0.00076772
               1.99912074                7.99703385               15.01780506                0.04577469               -0.03430513               -0.03525504                0.11746120                0.00147877               -0.00965612               -0.01435640
               2.99878909                7.99551144               15.01768725                0.01402975               -0.03218325               -0.05826675                0.11473273                0.07374242                0.03701733               -0.06171397
               3.99847708                7.99572980               15.01859279                0.01198876               -0.03926924               -0.07788162                0.12624212                0.14182898                0.08979279               -0.04413102
               4.99800371                7.99624504               15.01947252                0.01000000               -0.04994585               -0.06312068                0.13812867                0.13166115                0.11942694                0.00412727
               5.99747816                7.99679054               15.02094809                0.01000000               -0.05631022               -0.04845875                0.15441415                0.11200250                0.20936541                0.08931407
               6.99687750                7.99734946               15.02363745                0.01170386               -0.06541279               -0.04474394                0.16667862                0.08373578                0.23845349                0.12808189
               7.99616991                7.99765853               15.02567608                0.01000002               -0.07858470               -0.05087377                0.17757205                0.05775579                0.30091729                0.09933486
               8.99530581                7.99788236               15.02955634                0.12687060               -0.07321313               -0.05582730                0.20218820                0.01182269                0.20097783                0.20492315
               9.99470564                7.99747405               15.02940692                0.61466331               -0.06001671               -0.07301007                0.19791685               -0.02307160               -0.00025075                0.16407761
               0.00139257                8.99978276               15.01812399                1.00000000               -0.03626436               -0.03627375                0.12138543                0.00024570                0.00167345                0.01706072
               1.00102993                8.99822932               15.01805275                0.99999999               -0.03604431               -0.03597505                0.12003455                0.00012987                0.00192708                0.00142038
               2.00067169                8.99667955               15.01798524                0.71644869               -0.03560671               -0.03563124                0.11871997                0.00004242               -0.00136972               -0.01026298
               3.00031780                8.99513168               15.01784703                0.01511431               -0.04601818               -0.03667264                0.11722185                0.06702510                0.03186934               -0.01556806
               3.99975132                8.99494729               15.01844262                0.01000000               -0.07051152               -0.05260078                0.12518478                0.13396670                0.11321979               -0.03919823
               4.99890757                8.99565479               15.01993578                0.01000000               -0.08762939               -0.03949718                0.14670697                0.11971783                0.19157530                0.02698602
               5.99799874                8.99638679               15.02220493                0.01120133               -0.08646962               -0.03666911                0.16218143                0.08082410                0.21662290                0.07052567
               6.99717817                8.99689806               15.02424142                0.01000002               -0.07681971               -0.04510771                0.16877337                0.05461378                0.21185153                0.02968445
               7.99646234                8.99718435               15.02636072                0.01000001               -0.07368375               -0.04894253                0.18297466                0.03910569                0.26587802                0.05912078
               8.99570450                8.99727817               15.02938465                0.99999998               -0.06765099               -0.06015686                0.20043654                0.02409424                0.15909816                0.00284382
               9.99510932                8.99688254               15.02919868                0.98872253               -0.05951763               -0.05880394                0.19612204                0.00021439               -0.00129323               -0.00168759
               0.00294673                9.99941763               15.01834780                1.00000000               -0.03657294               -0.03651299                0.12264059                0.00043285                0.01278509                0.01328148
               1.00258100                9.99786780               15.01827075                0.99962407               -0.03637495               -0.03615228                0.12127479                0.00028716                0.01547385                0.00106651
               2.00221924                9.99632122               15.01824785                0.97774763               -0.03595781               -0.03583240                0.12015788                0.00026427                0.01959022               -0.00607986
               3.00186185                9.99477799               15.01825229                0.04714596               -0.07929684               -0.03536890                0.11854214                0.07223345                0.03909300               -0.00338508
               4.00063330                9.99467779               15.01861975                0.06367872               -0.14516392               -0.02695061                0.12651742                0.12205304                0.12042662               -0.02131398
               4.99895857                9.99545510               15.02051129                0.01506410               -0.13909634               -0.01996911                0.14610350                0.07406918                0.19888694                0.03082695
               5.99785137                9.99605716               15.02265529                0.08226352               -0.08931780               -0.03296259                0.16572139                0.03487378                0.18454323                0.02946915
               6.99717221                9.99644730               15.02433448                0.08946778               -0.06397274               -0.04507580                0.16481033                0.03052975                0.20146466                0.00098183
               7.99657192                9.99667968               15.02674167                0.65449017               -0.05413511               -0.05046777                0.18651618                0.02255335                0.24753696                0.04048648
               8.99608951                9.99667922               15.02918421                0.98872337               -0.05353655               -0.05989431                0.19838077                0.01941619                0.13289845                0.00147627
               9.99550119                9.99629797               15.02899818                0.99781990               -0.05883262               -0.05845640                0.19406635                0.00106153                0.00136754               -0.00137005
              -0.00144509                0.00116993               16.01562700                0.97298768               -0.03064575               -0.03029554                0.10088661                0.00038601               -0.00137878                0.00140594
               0.99824846                0.00108362               16.01598651                0.77030524               -0.03101997               -0.03098406                0.10330695                0.00035711               -0.00178465               -0.00086061
               1.99793451                0.00099681               16.01633841                0.22490703               -0.03201442               -0.03181204                0.10575570                0.00007465               -0.00300683               -0.00072679
               2.99760817                0.00090351               16.01667400                0.02567478               -0.05268545               -0.03281090                0.10921183               -0.09721695                0.02440219               -0.00089804
               3.99688081               -0.00114429               16.01757614                0.09892831               -0.05179187               -0.03456947                0.12018692               -0.12981235                0.02568611               -0.00177585
               4.99657233               -0.00053738               16.01824289                0.31654719               -0.03328351               -0.03618518                0.11986529               -0.00471003                0.01162467               -0.00151881
               5.99621514                0.00017795               16.01887648                0.86245275               -0.03626645               -0.03668869                0.12172416                0.00004472                0.00850867               -0.00157953
               6.99584700                0.00090439               16.01948386                0.99925695               -0.03718465               -0.03743039                0.12415122                0.00035895                0.00798912               -0.00106798
               7.99547144                0.00163544               16.02010837                0.99999999               -0.03792881               -0.03815475                0.12657185                0.00037160                0.00916283               -0.00083478
               8.99508843                0.00237059               16.02073939                1.00000000               -0.03866824               -0.03887728                0.12899086                0.00038579                0.00764795                0.00081433
               9.99469808                0.00310975               16.02133300                0.99999999               -0.03903475               -0.03962996                0.13141056                0.00020145                0.00582160                0.00578222
              -0.00135491                1.00086698               16.01567476                0.77498061               -0.03065017               -0.03038317                0.10102946               -0.00006432                0.00085054                0.00170628
               0.99833859                1.00077378               16.01603426                0.01186993               -0.03098899               -0.03091921                0.10341981               -0.00020804                0.00176068               -0.00176823
               1.99802531                1.00067869               16.01641104                0.01000000               -0.03160228               -0.03179979                0.10599389               -0.01473733                0.00180934                0.00217039
               2.99770655                1.00057540               16.01677028                0.01000001               -0.08610915               -0.04141726                0.10958389               -0.13414928                0.03118643                0.02209852
               3.99630313                0.99851002               16.01773501                0.01000000               -0.09212163                0.01725068                0.12082407               -0.09436669                0.02110960                0.00304857
               4.99586411                0.99910077               16.01835043                0.01000000               -0.04042166               -0.02005147                0.12106761                0.01417107                0.00135646                0.00497651
               5.99549470                0.99981106               16.01893245                0.01000001               -0.03711323               -0.03121033                0.12294280                0.00683209               -0.00148386                0.00264042
               6.99512185                1.00053008               16.01949394                0.61416302               -0.03763195               -0.03758651                0.12533398               -0.00003321               -0.00188640               -0.00445767
               7.99474206                1.00125389               16.02006956                0.95940384               -0.03833597               -0.03831621                0.12775737                0.00001934               -0.00018907               -0.00171600
               8.99435513                1.00198182               16.02066556                1.00000000               -0.03905602               -0.03905654                0.13019192                0.00002347                0.00062119                0.00089191
               9.99396094                1.00271345               16.02125719                0.99999998               -0.03941913               -0.03981079                0.13262736               -0.00017294                0.00043774                0.00732230
              -0.00125996                2.00056227               16.01572833                0.23304493               -0.03074478               -0.03215493                0.10128697               -0.00329573                0.00064599                0.00106413
               0.99843259                2.00046523               16.01606359                0.01000000               -0.04509476               -0.02868848                0.10345989               -0.00421108                0.00787802               -0.00352677
               1.99783814                2.00036081               16.01654192                0.01000001               -0.06693686               -0.01400150                0.12201198               -0.07550509                0.02578378                0.03295184
               2.99709385                2.00007517               16.01732414                0.01000000               -0.06850148               -0.04280755                0.11743166               -0.12451948                0.03197135                0.04431887
               3.99646811                1.99920073               16.01798505                0.01000000               -0.07695707                0.03249433                0.12088384               -0.06830408                0.01906742                0.02763051
               4.99555471                1.99906159               16.01859109                0.01000001               -0.07728264               -0.00038254                0.12477206               -0.00474135                0.00214565                0.02142379
               5.99492246                1.99955374               16.01907501                0.01174932               -0.05755985               -0.02294010                0.12601796                0.01256783               -0.01579228                0.01753084
               6.99440351                2.00015266               16.01943746                0.01668779               -0.04511805               -0.03394449                0.12643748                0.00758912               -0.01700214                0.00962526
               7.99402010                2.00086911               16.02001345                0.03929682               -0.03870870               -0.03801167                0.12892146                0.00209132               -0.00619320               -0.00210606
               8.99362934                2.00158946               16.02059293                0.79813504               -0.03943669               -0.03940200                0.13141065                0.00001687               -0.00409663               -0.00070908
               9.99323136                2.00231353               16.02121112                0.98423143               -0.03979750               -0.04017754                0.13388845               -0.00017051               -0.00213321                0.00873811
              -0.00122674                3.00022388               16.01576178                0.04177350               -0.03174283                0.02484013                0.10242880               -0.24781885                0.00061052                0.10337163
               0.99845583                3.00020001               16.01607457                0.01000001               -0.09339907               -0.01727208                0.10456423               -0.24146355                0.04440145                0.10581873
               1.99690528                3.00039866               16.01725705                0.01000000               -0.10397944               -0.02895560                0.11613934               -0.16042019                0.05321216                0.06241782
               2.99637624                2.99971925               16.01782739                0.01000000               -0.04773237               -0.04986815                0.11994668               -0.13090985                0.02459511                0.04623241
               3.99595063                2.99915991               16.01847643                0.01248928               -0.04799848               -0.02235516                0.12034311               -0.07018004                0.01860380                0.03741179
               4.99541627                2.99909311               16.01897771                0.01000000               -0.06478230               -0.01309377                0.12323030                0.00412756                0.00194238                0.03436889
               5.99465498                2.99935226               16.01940214                0.01000000               -0.07290042               -0.02475751                0.13229452                0.04306327               -0.01523368                0.04923886
               6.99395826                2.99985120               16.01973058                0.01000000               -0.06539497               -0.03029274                0.10491952                0.06227667               -0.03220790                0.05905356
               7.99334708                3.00049366               16.01996730                0.01365119               -0.05236067               -0.04394527                0.13075820                0.06054415               -0.03053377                0.04473446
               8.99291105                3.00119378               16.02048679                0.01465724               -0.04188478               -0.04704535                0.13262146                0.04898203               -0.00949751                0.03018398
               9.99250939                3.00190990               16.02116246                0.03035963               -0.04016613               -0.07144339                0.13503651                0.05163443               -0.00166114                0.02827832
              -0.00616859                4.00105907               16.01786048                0.11936849               -0.04028681                0.04284616                0.12198333               -0.29043904               -0.00349418                0.11422150
               0.99342854                4.00011979               16.01829235                0.01000000                0.06395410               -0.03664851                0.11904812               -0.26245683               -0.04115450                0.10401948
               1.99511049                3.99978170               16.01796081                0.01000000                0.11429324               -0.09202415                0.11746540               -0.14347842               -0.02974802                0.05147699
               2.99571440                3.99907780               16.01842021                0.01249027                0.02900792               -0.07485891                0.11855666               -0.08247441                0.01239197                0.03673022
               3.99569065                3.99875362               16.01885297                0.01000000               -0.01347495               -0.05170287                0.11931742               -0.01727437                0.01541914                0.03102071
               4.99544491                3.99879971               16.01939701                0.01000000               -0.03325029               -0.04398455                0.12415581                0.03718322                0.02249767                0.04894965
               5.99502564                3.99905859               16.02005841                0.01000000               -0.04686272               -0.03917857                0.12975899                0.08686275                0.01983190                0.07830206
               6.99450765                3.99954680               16.02062924                0.01339506               -0.05686225               -0.04366948                0.13736793                0.10647349               -0.00955856                0.08644129
               7.99388840                3.99999021               16.02083897                0.01151905               -0.06574562               -0.05307822                0.13880040                0.11488529               -0.03576845                0.09618614
               8.99319274                4.00064855               16.02103190                0.01000000               -0.05282901               -0.06493707                0.14192047                0.09820100               -0.02847077                0.11445011
               9.99283182                4.00088466               16.02150604                0.06313676               -0.03609219               -0.11070527                0.14437994                0.08006220               -0.01306355                0.11602741
              -0.00515696                5.00108080               16.01822317                0.34160467               -0.03589774               -0.01525188                0.11974662               -0.02935108               -0.00315096                0.02168614
               0.99448407                4.99946704               16.01854529                0.01000000                0.01173248               -0.05178078                0.11829589                0.00816742               -0.01989597               -0.00089840
               1.99507769                4.99855817               16.01853941                0.01000001                0.06353804               -0.10523137                0.12067257               -0.00803800               -0.02154522                0.01676695
               2.99575483                4.99822207               16.01876801                0.01000000                0.04027700               -0.10339301                0.12051740                0.01121926                0.00804975                0.01262008
               3.99588323                4.99812585               16.01927256                0.01000000                0.00500698               -0.07694561                0.12247979                0.04611539                0.03903673                0.02800146
               4.99585497                4.99821342               16.02004863                0.01000000               -0.01190437               -0.06529532                0.12799394                0.08237618                0.05459895                0.05789208
               5.99564515                4.99856869               16.02086806                0.01389174               -0.03494242               -0.05568775                0.13436535                0.10007583                0.03199892                0.06630237
               6.99515612                4.99897781               16.02125803                0.01212946               -0.05510530               -0.05804461                0.14226312                0.10364368                0.00768273                0.07548263
               7.99454304                4.99943209               16.02169838                0.01000000               -0.05877524               -0.05593078                0.15167138                0.10906351                0.02704587                0.13480410
               8.99398061                4.99989504               16.02259683                0.01000000               -0.04523134               -0.07450587                0.15859423                0.08762628                0.04238597                0.21073735
               9.99363841                4.99969579               16.02340489                0.01474041               -0.03422004               -0.09924789                0.15597770                0.05122592                0.03692104                0.20952707
              -0.00352808                6.00075404               16.01849017                0.94921926               -0.03574052               -0.03415426                0.11974321               -0.00208046               -0.00347613                0.01506723
               0.99611452                5.99908417               16.01869622                0.01000000               -0.01386157               -0.03699602                0.11846992                0.01108720               -0.01285517               -0.00728675
               1.99619469                5.99767707               16.01871976                0.01175415                0.01282991               -0.07533768                0.12114558                0.01383499               -0.00736318               -0.01539016
               2.99637112                5.99700994               16.01903322                0.01000000                0.02134580               -0.11604736                0.12698977                0.05792843                0.03232671               -0.01433968
               3.99662161                5.99721471               16.01971273                0.01000000                0.01392365               -0.09420436                0.12648143                0.11125366                0.06789250                0.01629703
               4.99664959                5.99749381               16.02064467                0.01389344               -0.01794152               -0.07229158                0.13311613                0.10971330                0.06490182                0.02849904
               5.99626278                5.99794484               16.02123602                0.01240224               -0.04662323               -0.06360350                0.14060366                0.10339106                0.04856365                0.03905033
               6.99571712                5.99838591               16.02189903                0.01000000               -0.05551700               -0.05781389                0.15255464                0.10356065                0.08326266                0.10910830
               7.99515244                5.99887159               16.02329145                0.01000000               -0.05177791               -0.05491344                0.16784173                0.10077685                0.13570704                0.24150611
               8.99468157                5.99915844               16.02507900                0.01121435               -0.04488039               -0.06797445                0.16715611                0.06324104                0.09755269                0.25288570
               9.99425483                5.99889970               16.02575369                0.08230692               -0.04267369               -0.06702409                0.16749971                0.02431527                0.04079785                0.22545238
              -0.00185884                7.00039772               16.01872760                0.99999999               -0.03583835               -0.03553704                0.12001295               -0.00003030               -0.00255786                0.01627439
               0.99778277                6.99872712               16.01882952                0.73238244               -0.03562668               -0.03559077                0.11852027               -0.00030705               -0.00993579               -0.00604852
               1.99742862                6.99705142               16.01878767                0.01669480               -0.02035091               -0.04871750                0.11695300                0.00399684               -0.00259437               -0.02112197
               2.99737576                6.99590113               16.01904506                0.01000000                0.00979107               -0.09667618                0.09756534                0.07946246                0.04718861               -0.04617821
               3.99762444                6.99624176               16.01998770                0.01340025               -0.00283243               -0.09194708                0.13186195                0.13739433                0.08188247               -0.01813636
               4.99731911                6.99676759               16.02076210                0.01213540               -0.04017918               -0.07391497                0.13888934                0.12276538                0.07934237               -0.00220846
               5.99682086                6.99729662               16.02159475                0.01000000               -0.05092644               -0.06360992                0.15035871                0.11560872                0.12182299                0.06131833
               6.99630058                6.99782153               16.02325552                0.01000000               -0.05174040               -0.05198750                0.16897188                0.11224221                0.22862787                0.17749254
               7.99578605                6.99833382               16.02625794                0.01163123               -0.05416284               -0.05552800                0.17526788                0.09026567                0.20620574                0.22455603
               8.99521732                6.99853555               16.02744526                0.01000000               -0.05719361               -0.05268654                0.17524813                0.04058043                0.08061466                0.34010885
               9.99464218                6.99835531               16.02797089                0.08778217               -0.05751405               -0.06146721                0.17009875                0.01293847                0.04290764                0.28339032
              -0.00018748                8.00004330               16.01902205                0.99999998               -0.03578493               -0.03554499                0.11997705                0.00020268               -0.00238713                0.02012773
               0.99945467                7.99837236               16.01901294                1.00000000               -0.03559536               -0.03553509                0.11846645                0.00010525               -0.00373679               -0.00088496
               1.99910062                7.99670272               16.01897938                0.04699532               -0.03423250               -0.03506337                0.11701673                0.00215529               -0.00839530               -0.01471332
               2.99877002                7.99507642               16.01887284                0.01365979               -0.02987934               -0.06066099                0.11751878                0.08559916                0.04366160               -0.04612309
               3.99850303                7.99537577               16.01987313                0.01153068               -0.03599928               -0.08568276                0.13019736                0.15817929                0.10435946               -0.04890479
               4.99805004                7.99601551               16.02089444                0.01000000               -0.04910071               -0.06881154                0.14571970                0.14724818                0.13949156                0.01149438
               5.99752101                7.99667264               16.02254628                0.01000000               -0.05626362               -0.05283301                0.16502604                0.12776451                0.22874953                0.10297538
               6.99692477                7.99734616               16.02533603                0.01168050               -0.06386424               -0.04793738                0.17443315                0.10143149                0.25375496                0.13740127
               7.99624373                7.99776103               16.02747157                0.01000002               -0.07265385               -0.05373358                0.18282352                0.07693181                0.32145779                0.11005646
               8.99547169                7.99810470               16.03157289                0.12687888               -0.06848264               -0.05162961                0.20112478                0.02950388                0.21409152                0.22001682
               9.99487408                7.99767036               16.03138278                0.61457139               -0.05976111               -0.06374993                0.19725819               -0.01034777               -0.00022437                0.17977406
               0.00148708                8.99968682               16.01933747                1.00000000               -0.03616309               -0.03606872                0.12125620                0.00030429                0.00170173                0.01733479
               1.00112545                8.99801641               16.01925230                0.99999999               -0.03597071               -0.03585279                0.11971990                0.00007214                0.00184865                0.00163812
               2.00076767                8.99635015               16.01917148                0.72852287               -0.03553807               -0.03550974                0.11837991                0.00011176               -0.00136094               -0.00998818
               3.00041469                8.99468791               16.01901881                0.01474294               -0.04593617               -0.03716148                0.11722759                0.07409171                0.03778853               -0.01707593
               3.99984894                8.99452811               16.01972147                0.01000000               -0.07237442               -0.05495422                0.12944922                0.14610488                0.13156837               -0.04065060
               4.99896720                8.99539136               16.02143870                0.01000000               -0.09017244               -0.04180616                0.15277183                0.13086911                0.21442989                0.02940759
               5.99804550                8.99623996               16.02384420                0.01135007               -0.08631926               -0.03890044                0.16734531                0.08856812                0.23356431                0.07543722
               6.99724082                8.99686278               16.02595023                0.01000002               -0.07396749               -0.04891825                0.17545820                0.06274123                0.22720407                0.03169730
               7.99656615                8.99725915               16.02820308                0.01000001               -0.06713732               -0.05256313                0.18756446                0.05156350                0.28442960                0.06634049
               8.99589807                8.99750296               16.03138643                0.99999998               -0.06311158               -0.06000021                0.19992132                0.03306468                0.16912182                0.00298029
               9.99530391                8.99708031               16.03115941                0.98851295               -0.05941556               -0.05876572                0.19602353                0.00015468               -0.00129453               -0.00157100
               0.00315942                9.99932192               16.01957521                0.99999999               -0.03666376               -0.03648981                0.12298838                0.00057196                0.01295141                0.01343986
               1.00279278                9.99765530               16.01948356                0.99999998               -0.03640310               -0.03611100                0.12151852                0.00026336                0.01575534                0.00121883
               2.00243136                9.99599253               16.01944923                0.98322826               -0.03594384               -0.03576260                0.12038703                0.00026327                0.01977275               -0.00573662
               3.00207390                9.99433319               16.01943947                0.04765351               -0.08548421               -0.03547165                0.11907024                0.08012942                0.04511791               -0.00352823
               4.00072167                9.99427669               16.01991226                0.06355657               -0.15591688               -0.02514199                0.13056390                0.12958243                0.13772336               -0.02172255
               4.99895557                9.99517938               16.02200213                0.01505592               -0.14503577               -0.02119776                0.15109232                0.07973376                0.22223246                0.02861287
               5.99782096                9.99589463               16.02431755                0.08245141               -0.08975841               -0.03453285                0.16877292                0.03696683                0.20022248                0.03182021
               6.99716040                9.99636780               16.02599634                0.08985733               -0.05930664               -0.04949837                0.17104467                0.03271514                0.21636264               -0.00193527
               7.99663482                9.99670977               16.02860732                0.65354578               -0.04242878               -0.05493818                0.18935524                0.03371306                0.26715780                0.04459092
               8.99631182                9.99690470               16.03116852                0.98851369               -0.04561808               -0.05982548                0.19848194                0.03063917                0.14088590                0.00147712
               9.99572246                9.99649505               16.03094143                0.99797522               -0.05893601               -0.05852634                0.19458413                0.00088938                0.00136821               -0.00137110
              -0.00183092                0.00113599               17.01663600                0.97283983               -0.03067152               -0.03028381                0.10095126                0.00036493               -0.00146447                0.00150906
               0.99786237                0.00102631               17.01701977                0.77075988               -0.03105331               -0.03098056                0.10339662                0.00036215               -0.00187247               -0.00092044
               1.99754801                0.00091537               17.01739614                0.22460095               -0.03207120               -0.03180147                0.10585232                0.00002033               -0.00266627               -0.00076985
               2.99722094                0.00079628               17.01776512                0.02548346               -0.06044506               -0.03266266                0.10909908               -0.09962906                0.02918667               -0.00092475
               3.99633911               -0.00132440               17.01878060                0.09788156               -0.05974091               -0.03419761                0.12052409               -0.13566469                0.02848276               -0.00183821
               4.99602612               -0.00066643               17.01944420                0.31371173               -0.03357204               -0.03631669                0.12032659               -0.00472040                0.00994905               -0.00156413
               5.99566767                0.00009994               17.02009538                0.85855179               -0.03636020               -0.03678689                0.12202800                0.00002085                0.00820331               -0.00159852
               6.99529892                0.00087752               17.02072622                0.99915212               -0.03722219               -0.03748692                0.12431238                0.00033666                0.00798308               -0.00110078
               7.99492323                0.00165990               17.02137416                0.99999999               -0.03792466               -0.03817251                0.12659547                0.00035356                0.00916337               -0.00084440
               8.99454043                0.00244660               17.02202894                1.00000000               -0.03863845               -0.03886540                0.12892293                0.00036771                0.00765126                0.00082195
               9.99415046                0.00323741               17.02264632                0.99999999               -0.03899663               -0.03958553                0.13125101                0.00018155                0.00581829                0.00579736
              -0.00171759                1.00083315               17.01668422                0.77510469               -0.03061174               -0.03034493                0.10089474               -0.00009178                0.00091167                0.00185666
               0.99797630                1.00071650               17.01706783                0.01158476               -0.03095918               -0.03089429                0.10333011               -0.00019697                0.00188912               -0.00189123
               1.99766323                1.00059736               17.01747049                0.01000000               -0.03158805               -0.03212792                0.10593564               -0.01618166                0.00239851                0.00742410
               2.99734454                1.00046965               17.01786417                0.01000001               -0.09747051               -0.04000719                0.10928846               -0.13949105                0.03635408                0.02591119
               3.99571382                0.99833363               17.01894645                0.01000000               -0.10388921                0.02162750                0.12126951               -0.09064237                0.02507269                0.00236328
               4.99526675                0.99897041               17.01956402                0.01000000               -0.04089575               -0.01865995                0.12156465                0.02006933               -0.00003083                0.00577404
               5.99489591                0.99973207               17.02016376                0.01000001               -0.03722233               -0.03006154                0.12328001                0.01026717               -0.00182586                0.00305394
               6.99452230                1.00050266               17.02074830                0.61202961               -0.03768404               -0.03764502                0.12552158               -0.00003706               -0.00192958               -0.00453356
               7.99414222                1.00127818               17.02134738                0.96003941               -0.03834774               -0.03833554                0.12780874                0.00001592               -0.00019374               -0.00173592
               8.99375535                1.00205795               17.02196723                1.00000000               -0.03903762               -0.03904482                0.13014314                0.00001726                0.00062893                0.00089854
               9.99336147                1.00284155               17.02258270                1.00000000               -0.03938778               -0.03976378                0.13247398               -0.00017683                0.00044048                0.00734317
              -0.00159945                2.00052909               17.01673933                0.23197673               -0.03063264               -0.03209306                0.10093763               -0.00337840                0.00069914                0.00166511
               0.99809422                2.00040842               17.01709673                0.01000000               -0.04646604               -0.02864953                0.10318266               -0.00452143                0.01354125               -0.00325007
               1.99747123                2.00027281               17.01770905                0.01000001               -0.06996854               -0.01398099                0.11427742               -0.07562387                0.03241667                0.03845898
               2.99669485                1.99999614               17.01849802                0.01000000               -0.07228568               -0.04142399                0.11689235               -0.12471318                0.03288781                0.04952421
               3.99602551                1.99910815               17.01918691                0.01000000               -0.08328923                0.03809217                0.12018835               -0.05960750                0.02168490                0.02756968
               4.99502907                1.99896037               17.01983271                0.01000001               -0.08423735                0.00327583                0.12393751                0.00500179                0.00369039                0.02268626
               5.99434077                1.99949871               17.02032695                0.01161545               -0.06384974               -0.01929959                0.12538733                0.02166990               -0.01593827                0.01913325
               6.99375207                2.00012462               17.02070276                0.01651436               -0.04862573               -0.03207938                0.12661087                0.01039721               -0.01749944                0.00619477
               7.99336825                2.00089319               17.02130310                0.03992003               -0.03873385               -0.03786119                0.12899841                0.00197010               -0.00614260               -0.00168951
               8.99297740                2.00166571               17.02190679                0.80302452               -0.03942666               -0.03939150                0.13136661                0.00000076               -0.00405345               -0.00071138
               9.99257972                2.00244213               17.02254907                0.98605510               -0.03976757               -0.04012440                0.13372359               -0.00017465               -0.00209669                0.00871125
              -0.00154381                3.00019129               17.01678254                0.04137303               -0.03140416                0.02163273                0.10174160               -0.25573920                0.00066469                0.11398685
               0.99814215                3.00014351               17.01711688                0.01000001               -0.09465760               -0.02411102                0.10391842               -0.24921017                0.04930867                0.11401738
               1.99656304                3.00031774               17.01841818                0.01000000               -0.10636070               -0.03053669                0.11566114               -0.16093137                0.06018582                0.06260674
               2.99601493                2.99964118               17.01901800                0.01000000               -0.05028015               -0.05121504                0.11914009               -0.12638515                0.02694335                0.04803367
               3.99555743                2.99909547               17.01969235                0.01232203               -0.05193506               -0.02188159                0.12247250               -0.06358755                0.02088970                0.03804057
               4.99497623                2.99903592               17.02023253                0.01000000               -0.06961901               -0.00997427                0.12579897                0.01515316                0.00467838                0.03529428
               5.99416505                2.99934608               17.02067016                0.01000000               -0.08202327               -0.01993026                0.12754873                0.05462870               -0.01622366                0.05077135
               6.99333577                2.99986107               17.02094052                0.01000000               -0.07622550               -0.02555419                0.12507884                0.07209683               -0.03331495                0.06469530
               7.99264054                3.00052095               17.02127764                0.01337170               -0.05646716               -0.04075294                0.13036836                0.06806252               -0.02786066                0.04893951
               8.99220642                3.00127012               17.02181265                0.01435457               -0.04177062               -0.04659020                0.13257420                0.05517175               -0.00989916                0.03461234
               9.99180513                3.00203906               17.02251186                0.03164399               -0.04012924               -0.07623022                0.13487995                0.05883896               -0.00166110                0.03260147
              -0.00661867                4.00096175               17.01908399                0.11820400               -0.03977535                0.03943522                0.12236538               -0.30148987               -0.00331141                0.12178233
               0.99298357                3.99992620               17.01948966                0.01000000                0.06868045               -0.04443794                0.12032838               -0.26533916               -0.04085518                0.11176496
               1.99475494                3.99966208               17.01913419                0.01000000                0.12029212               -0.09812351                0.11771902               -0.13806482               -0.02878330                0.05436120
               2.99538942                3.99897184               17.01962296                0.01232302                0.03020396               -0.07930382                0.12136978               -0.07646848                0.01480026                0.03846987
               3.99535902                3.99867052               17.02008770                0.01000000               -0.01539470               -0.05497187                0.12486895               -0.00658098                0.01862451                0.03310216
               4.99508152                3.99876089               17.02066471                0.01000000               -0.03754093               -0.04333085                0.12840866                0.05290567                0.02747789                0.05168605
               5.99460820                3.99910010               17.02136782                0.01000000               -0.05311938               -0.03563566                0.13233573                0.10226059                0.02437088                0.08243517
               6.99401913                3.99961354               17.02198925                0.01297475               -0.06438729               -0.03829464                0.13750073                0.12289257               -0.00571549                0.09623905
               7.99332045                4.00007813               17.02223883                0.01115855               -0.07282083               -0.04841584                0.14087712                0.13117086               -0.03382730                0.10642401
               8.99256272                4.00073390               17.02245852                0.01000000               -0.05509200               -0.06424328                0.14278331                0.10914277               -0.02768844                0.12710622
               9.99221861                4.00091753               17.02295508                0.06301576               -0.03441070               -0.11843543                0.14483241                0.08791819               -0.01221808                0.12544791
              -0.00550252                5.00098000               17.01942615                0.33781864               -0.03624529               -0.01552843                0.12051425               -0.02967934               -0.00319683                0.02006967
               0.99413503                4.99925475               17.01973580                0.01000000                0.01293099               -0.05288663                0.11977932                0.01351608               -0.01839515               -0.00150908
               1.99475610                4.99835527               17.01974734                0.01000001                0.06710456               -0.11239588                0.12114532                0.00089256               -0.01866340                0.01980984
               2.99547712                4.99805510               17.02000034                0.01000000                0.04403289               -0.10959485                0.12383295                0.02258953                0.01094306                0.01543586
               3.99563676                4.99799603               17.02052389                0.01000000                0.00638205               -0.08228611                0.12698706                0.06242388                0.04272995                0.03246331
               4.99560476                4.99816931               17.02135068                0.01000000               -0.01395742               -0.06699788                0.13250088                0.10435337                0.06134035                0.06326285
               5.99535761                4.99863336               17.02225427                0.01335053               -0.03945872               -0.05617770                0.14133963                0.12216329                0.04011984                0.07299638
               6.99481559                4.99909517               17.02272718                0.01161556               -0.06070080               -0.05627659                0.14886233                0.12182916                0.01568540                0.08616729
               7.99414360                4.99955263               17.02324369                0.01000000               -0.06328533               -0.05284364                0.15585196                0.12535734                0.03387473                0.15040548
               8.99354988                4.99998525               17.02419361                0.01000000               -0.04736751               -0.07284830                0.16003471                0.09959590                0.04366075                0.22416621
               9.99319625                4.99967035               17.02497027                0.01471592               -0.03536352               -0.10183409                0.15658831                0.05732076                0.03370708                0.22071899
              -0.00376177                6.00065118               17.01969072                0.94240632               -0.03596049               -0.03433202                0.12033109               -0.00205995               -0.00338362                0.01494306
               0.99587862                5.99886847               17.01988598                0.01000000               -0.01328943               -0.03745646                0.11958075                0.01440778               -0.01124780               -0.00757346
               1.99597244                5.99741416               17.01992930                0.01162021                0.01609085               -0.08263430                0.12141736                0.02271015               -0.00362294               -0.01561731
               2.99620044                5.99677994               17.02025447                0.01000000                0.02604225               -0.12606390                0.12345358                0.07080805                0.03606570               -0.01559240
               3.99649329                5.99702480               17.02099115                0.01000000                0.01654079               -0.10071183                0.12956737                0.12865907                0.07506338                0.02026521
               4.99653126                5.99742093               17.02201945                0.01335220               -0.01838460               -0.07730229                0.14039989                0.13309355                0.07397638                0.03547595
               5.99612559                5.99797655               17.02270898                0.01182416               -0.04974050               -0.06806445                0.15073297                0.12578037                0.06021970                0.04922969
               6.99553645                5.99848801               17.02349029                0.01000000               -0.05940377               -0.05946892                0.16282948                0.12549628                0.09799348                0.12551087
               7.99493752                5.99902126               17.02500829                0.01000000               -0.05497659               -0.05198989                0.17367534                0.12099180                0.14326473                0.25605179
               8.99443692                5.99927694               17.02675865                0.01126597               -0.04713469               -0.06411294                0.16864754                0.07463075                0.09757954                0.26380393
               9.99399482                5.99888085               17.02742631                0.08245870               -0.04420908               -0.06444511                0.16748873                0.02862959                0.04169153                0.23449614
              -0.00197829                7.00029336               17.01993234                0.99999999               -0.03615030               -0.03576940                0.12061623               -0.00041416               -0.00261254                0.01610574
               0.99766020                6.99850562               17.02001962                0.72741653               -0.03614356               -0.03608246                0.11988616               -0.00131370               -0.01020814               -0.00667157
               1.99729884                6.99670258               17.01996078                0.01652129               -0.01887781               -0.05291964                0.11936167                0.00743487               -0.00431227               -0.02293680
               2.99728265                6.99553382               17.02017654                0.01000000                0.01350583               -0.10823594                0.11705393                0.09236751                0.05787348               -0.04854942
               3.99756895                6.99598180               17.02129890                0.01297985                0.00161187               -0.10034317                0.13329597                0.15694091                0.09680630               -0.01541837
               4.99731489                6.99662326               17.02220093                0.01162096               -0.03814041               -0.08112994                0.14637169                0.14397089                0.09318733                0.00474767
               5.99680614                6.99727208               17.02316725                0.01000000               -0.05170399               -0.06879721                0.16157026                0.13842563                0.14045145                0.07610861
               6.99628081                6.99790580               17.02501390                0.01000000               -0.05158193               -0.05426182                0.18003253                0.13658144                0.24361861                0.19306492
               7.99577451                6.99851284               17.02803815                0.01158735               -0.05489472               -0.05533727                0.18097552                0.11109381                0.21051272                0.23675853
               8.99518291                6.99870300               17.02921525                0.01000002               -0.06067408               -0.04677065                0.17900105                0.05540649                0.08057515                0.35888765
               9.99456102                6.99838145               17.02969124                0.08815110               -0.06218870               -0.04999127                0.17392749                0.02217375                0.04108617                0.29928706
              -0.00019459                7.99993579               17.02022334                0.99015129               -0.03622872               -0.03585331                0.12138870               -0.00013540               -0.00231119                0.01991377
               0.99944313                7.99814682               17.02019597                1.00000000               -0.03562362               -0.03570820                0.11881707               -0.00036668               -0.00389278               -0.00137042
               1.99909294                7.99635577               17.02014539                0.04800522               -0.03372741               -0.03463244                0.11564316                0.00237625               -0.00837209               -0.01495480
               2.99876858                7.99461522               17.02003763                0.01338015               -0.02751379               -0.06551454                0.11905440                0.09515478                0.05131505               -0.04650950
               3.99854266                7.99501793               17.02119673                0.01116985               -0.03240908               -0.09433214                0.13339458                0.17884821                0.12170503               -0.04890345
               4.99812040                7.99579833               17.02238692                0.01000000               -0.04655470               -0.07440036                0.15176396                0.16706116                0.16075710                0.01895773
               5.99761157                7.99660060               17.02424861                0.01000000               -0.05465405               -0.05739076                0.17415736                0.14783928                0.24851954                0.11442911
               6.99702731                7.99740277               17.02712612                0.01163435               -0.06246874               -0.05170493                0.18501016                0.11982349                0.26753807                0.14617026
               7.99636220                7.99791451               17.02933255                0.01000002               -0.06754426               -0.05687118                0.19100473                0.09394922                0.33671816                0.12228393
               8.99567643                7.99834152               17.03357884                0.12686226               -0.06404054               -0.04804266                0.20006379                0.04571043                0.22318401                0.23249009
               9.99508138                7.99788102               17.03335209                0.61449240               -0.05950445               -0.05444942                0.19659149                0.00277215               -0.00020720                0.19287249
               0.00159694                8.99957629               17.02054912                1.00000000               -0.03640504               -0.03624261                0.12228672                0.00069910                0.00191268                0.01776776
               1.00123289                8.99779146               17.02044715                0.99999999               -0.03594918               -0.03585857                0.11974514                0.00063032                0.00197278                0.00196796
               2.00087796                8.99600993               17.02035284                0.73902611               -0.03546571               -0.03523929                0.11781489               -0.00010411               -0.00138149               -0.00973716
               3.00052358                8.99422353               17.02019158                0.01444514               -0.04575768               -0.03745545                0.11856097                0.08089113                0.04471190               -0.01796812
               3.99996280                8.99409515               17.02103161                0.01000000               -0.07250691               -0.05780901                0.13186318                0.15970795                0.15168958               -0.04181738
               4.99907344                8.99513525               17.02299121                0.01000000               -0.09021574               -0.04489218                0.15700716                0.14533209                0.23869471                0.03277529
               5.99815849                8.99612426               17.02555184                0.01139919               -0.08550364               -0.04268739                0.17495373                0.09932456                0.25312796                0.07980442
               6.99736337                8.99687170               17.02775058                0.01000002               -0.07218762               -0.05431918                0.18724135                0.07167689                0.24429016                0.03527439
               7.99671474                8.99737541               17.03011201                0.01000001               -0.06163771               -0.05757431                0.19771526                0.06255684                0.29921483                0.07437670
               8.99613061                8.99774214               17.03338307                0.99999998               -0.05886310               -0.05984734                0.19940796                0.04068686                0.17535234                0.00308210
               9.99553748                8.99729246               17.03311916                0.98841734               -0.05931364               -0.05872598                0.19592652                0.00009942               -0.00129539               -0.00148374
               0.00338906                9.99921094               17.02080757                0.99465347               -0.03669673               -0.03653512                0.12280979                0.00108235                0.01323872                0.01426631
               1.00302209                9.99742965               17.02070112                1.00000000               -0.03651349               -0.03618112                0.12216739                0.00092200                0.01625241                0.00180818
               2.00265879                9.99565098               17.02065559                0.98854972               -0.03604550               -0.03589489                0.12159068               -0.00009395                0.02021037               -0.00546838
               3.00230118                9.99386611               17.02063370                0.04832550               -0.09168434               -0.03574177                0.11976126                0.08829875                0.05201420               -0.00392573
               4.00082510                9.99386175               17.02123103                0.06347472               -0.16516247               -0.02333980                0.13274378                0.13794835                0.15550282               -0.02203423
               4.99899793                9.99490049               17.02353313                0.01503479               -0.14817415               -0.02347642                0.15426841                0.08670414                0.24610281                0.02694290
               5.99786162                9.99574686               17.02603075                0.08256594               -0.08941155               -0.03774039                0.17511319                0.04110768                0.21948372                0.03462688
               6.99720970                9.99631639               17.02775537                0.09011282               -0.05593646               -0.05553091                0.18382391                0.03544177                0.23452383               -0.00284389
               7.99674289                9.99676303               17.03052878                0.65262112               -0.03182918               -0.06123868                0.20006291                0.04422445                0.28360536                0.04770904
               8.99657312                9.99714458               17.03315385                0.98841796               -0.03800796               -0.05975646                0.19858273                0.04142399                0.14592461                0.00147767
               9.99598273                9.99670650               17.03288986                0.99815325               -0.05903867               -0.05859643                0.19510129                0.00071754                0.00136875               -0.00137109
              -0.00224192                0.00110368               18.01764602                0.97248183               -0.03072109               -0.03029005                0.10107719                0.00034463               -0.00154975                0.00161326
               0.99745087                0.00096910               18.01805445                0.77089555               -0.03111207               -0.03101013                0.10358845                0.00037451               -0.00197974               -0.00097334
               1.99713584                0.00083271               18.01845546                0.22446902               -0.03217182               -0.03184486                0.10610089                0.00000034               -0.00245232               -0.00079085
               2.99680744                0.00068691               18.01885598                0.02576189               -0.06822337               -0.03261846                0.10922784               -0.10225022                0.03386108               -0.00093167
               3.99577138               -0.00151275               18.01998662                0.09736663               -0.06754512               -0.03362725                0.12057066               -0.14142388                0.03168014               -0.00190113
               4.99545653               -0.00080829               18.02064942                0.31131417               -0.03370920               -0.03639747                0.12065737               -0.00493651                0.00844032               -0.00159795
               5.99509719                0.00000922               18.02131704                0.85477905               -0.03643246               -0.03686482                0.12227879               -0.00000507                0.00788066               -0.00161185
               6.99472789                0.00083820               18.02197010                0.99903567               -0.03726013               -0.03753328                0.12445363                0.00031900                0.00795780               -0.00113592
               7.99435199                0.00167210               18.02264028                0.99999999               -0.03792992               -0.03818748                0.12662839                0.00033768                0.00916304               -0.00085687
               8.99396929                0.00251043               18.02331785                1.00000000               -0.03861552               -0.03884985                0.12886074                0.00035207                0.00767106                0.00082479
               9.99357968                0.00335293               18.02395802                0.99499499               -0.03896089               -0.03953744                0.13109208                0.00016372                0.00583465                0.00580892
              -0.00210389                1.00080078               18.01769265                0.77493050               -0.03060071               -0.03032161                0.10082127               -0.00012073                0.00097807                0.00199079
               0.99759011                1.00065900               18.01810086                0.01138178               -0.03095868               -0.03089613                0.10332167               -0.00018477                0.00201013               -0.00202170
               1.99727694                1.00051426               18.01852975                0.01000000               -0.03162208               -0.03252052                0.10598567               -0.01744648                0.00288055                0.01031426
               2.99695766                1.00036073               18.01895605                0.01000001               -0.10861003               -0.03875437                0.10921390               -0.14484873                0.04155610                0.02937999
               3.99510474                0.99815098               18.02016040                0.01000000               -0.11557384                0.02594839                0.12138449               -0.08686290                0.02943108                0.00148704
               4.99464619                0.99882774               18.02078172                0.01000000               -0.04154215               -0.01724557                0.12191074                0.02607637               -0.00128399                0.00613244
               5.99427390                0.99964057               18.02139805                0.01000001               -0.03732760               -0.02896056                0.12354794                0.01357941               -0.00218112                0.00350401
               6.99389963                1.00046287               18.02200437                0.60974934               -0.03773228               -0.03769348                0.12567913               -0.00004301               -0.00199117               -0.00462510
               7.99351925                1.00129022               18.02262573                0.96067352               -0.03836226               -0.03835177                0.12785799                0.00001461               -0.00020210               -0.00175770
               8.99313239                1.00212194               18.02326842                1.00000000               -0.03902163               -0.03903070                0.13009403                0.00001763                0.00064373                0.00090435
               9.99273882                1.00295756               18.02390667                1.00000000               -0.03935729               -0.03971716                0.13232565               -0.00017829                0.00045105                0.00736792
              -0.00196076                2.00049725               18.01774708                0.23113656               -0.03055353               -0.03209097                0.10065929               -0.00351894                0.00077422                0.00218740
               0.99773370                2.00035118               18.01812724                0.01000000               -0.04770266               -0.02857915                0.10296443               -0.00493469                0.01684311               -0.00305018
               1.99708518                2.00018230               18.01882746                0.01000001               -0.07299778               -0.01443060                0.11122374               -0.07542063                0.03705227                0.04290779
               2.99627374                1.99991183               18.01966199                0.01000000               -0.07590355               -0.04028751                0.11614906               -0.12464046                0.03477067                0.05393177
               3.99556711                1.99900622               18.02038881                0.01000000               -0.08926358                0.04344756                0.12026133               -0.05079387                0.02344602                0.02755797
               4.99448847                1.99884680               18.02106984                0.01000001               -0.09167320                0.00696325                0.12388931                0.01548136                0.00452129                0.02358418
               5.99373365                1.99943000               18.02158276                0.01152638               -0.07055508               -0.01568727                0.12591482                0.02930769               -0.01689760                0.02005002
               6.99307737                2.00008433               18.02196968                0.01639215               -0.05202161               -0.03021304                0.12676689                0.01299533               -0.01805078                0.00673877
               7.99269321                2.00090506               18.02259342                0.04042149               -0.03875339               -0.03767499                0.12905988                0.00219919               -0.00608641               -0.00198393
               8.99230230                2.00172982               18.02322026                0.80789844               -0.03941738               -0.03938190                0.13132900               -0.00000089               -0.00401114               -0.00071085
               9.99190487                2.00255859               18.02388559                0.98789572               -0.03974360               -0.04008194                0.13358771               -0.00017746               -0.00206289                0.00870106
              -0.00188212                3.00015896               18.01779661                0.04151701               -0.03115144                0.01769336                0.10116461               -0.26142478                0.00074256                0.12492486
               0.99780636                3.00008742               18.01815293                0.01000001               -0.09550009               -0.03075052                0.10336763               -0.25528902                0.05402566                0.12306403
               1.99620788                3.00022565               18.01957027                0.01000000               -0.10827148               -0.03212642                0.11501759               -0.16080470                0.06645346                0.06474572
               2.99564093                2.99955498               18.02021019                0.01000000               -0.05269941               -0.05234832                0.11934124               -0.12112798                0.02943560                0.05015477
               3.99515389                2.99901993               18.02092588                0.01220712               -0.05544530               -0.02110404                0.12371028               -0.05668504                0.02290515                0.03987581
               4.99453203                2.99896700               18.02149369                0.01000000               -0.07656860               -0.00657596                0.12673996                0.02663811                0.00582479                0.03714389
               5.99362252                2.99932682               18.02195311                0.01000001               -0.09237717               -0.01534052                0.12909419                0.06732402               -0.01847930                0.05337866
               6.99268448                2.99985861               18.02223215                0.01000000               -0.08523853               -0.01997032                0.12993592                0.08274304               -0.03507458                0.06962433
               7.99191775                3.00053672               18.02257466                0.01315896               -0.06028206               -0.03762081                0.12965695                0.07625305               -0.02804009                0.05410843
               8.99147884                3.00133430               18.02313827                0.01410842               -0.04200085               -0.04600533                0.13254864                0.06198088               -0.00959827                0.03916914
               9.99107773                3.00215592               18.02386006                0.03304824               -0.04011147               -0.08116896                0.13476299                0.06663570               -0.00166972                0.03692424
              -0.00704617                4.00085112               18.02030779                0.11761424               -0.03925981                0.03582518                0.12222806               -0.30939907               -0.00324770                0.13026091
               0.99256123                3.99973617               18.02069892                0.01000000                0.07238459               -0.05234388                0.12146853               -0.26613690               -0.04145691                0.12054359
               1.99440152                3.99953977               18.02031519                0.01000000                0.12478347               -0.10331941                0.11848862               -0.13196457               -0.02819687                0.05704911
               2.99505690                3.99886486               18.02084760                0.01220810                0.03099323               -0.08278471                0.12296271               -0.06997135                0.01789190                0.04058072
               3.99502139                3.99858414               18.02135035                0.01000000               -0.01712807               -0.05741322                0.12700647                0.00420090                0.02140179                0.03515958
               4.99471434                3.99871528               18.02196519                0.01000000               -0.04164341               -0.04215310                0.13094940                0.06792100                0.03032380                0.05504991
               5.99418852                3.99912319               18.02270513                0.01000000               -0.05960049               -0.03196803                0.13485398                0.12090866                0.02801568                0.08871253
               6.99352233                3.99968493               18.02337926                0.01265906               -0.07229667               -0.03292448                0.13985198                0.14126876               -0.00249615                0.10655280
               7.99274259                4.00015264               18.02365651                0.01087530               -0.07998044               -0.04329912                0.14199666                0.14805732               -0.03261062                0.11877217
               8.99192272                4.00080971               18.02388757                0.01000000               -0.05741246               -0.06280372                0.14281118                0.12154805               -0.02708083                0.13997603
               9.99159434                4.00093521               18.02440268                0.06292915               -0.03283857               -0.12584941                0.14457493                0.09662457               -0.01134524                0.13474151
              -0.00584020                5.00087547               18.02063346                0.33443520               -0.03648230               -0.01522069                0.12090232               -0.03049768               -0.00320572                0.01876422
               0.99379497                4.99904054               18.02094088                0.01000000                0.01400473               -0.05436375                0.12122890                0.01867692               -0.01774904               -0.00216313
               1.99443989                4.99815926               18.02096232                0.01000001                0.07010828               -0.11942413                0.12213323                0.01054833               -0.01667481                0.02184791
               2.99519714                4.99789929               18.02124466                0.01000000                0.04737977               -0.11714819                0.12530957                0.03430432                0.01407641                0.01674520
               3.99538749                4.99787166               18.02181230                0.01000000                0.00771263               -0.08695693                0.12992840                0.07805778                0.04719229                0.03497061
               4.99535139                4.99812394               18.02269864                0.01000000               -0.01582214               -0.06811016                0.13622639                0.12563721                0.06834036                0.06941146
               5.99507104                4.99868746               18.02369486                0.01294146               -0.04354914               -0.05533704                0.14522135                0.14419992                0.04810017                0.08209324
               6.99448041                4.99920012               18.02423528                0.01121193               -0.06584695               -0.05377599                0.15163642                0.14193124                0.02264589                0.09891594
               7.99375410                4.99967074               18.02481542                0.01000000               -0.06765850               -0.04772426                0.15762175                0.14424395                0.03950574                0.16699987
               8.99312724                5.00007822               18.02579752                0.01000000               -0.04974392               -0.06984214                0.16017909                0.11303008                0.04425290                0.23727807
               9.99275923                4.99963893               18.02653666                0.01469894               -0.03680125               -0.10332732                0.15646847                0.06402093                0.03061428                0.23118338
              -0.00398627                6.00054670               18.02089679                0.93561626               -0.03627551               -0.03441261                0.12068016               -0.00205306               -0.00353827                0.01465923
               0.99565098                5.99864889               18.02108783                0.01000000               -0.01299955               -0.03784237                0.12103950                0.01798930               -0.01038507               -0.00791501
               1.99575374                5.99715129               18.02114811                0.01153104                0.01898029               -0.08913299                0.12290497                0.03092861               -0.00151205               -0.01597629
               2.99603058                5.99652190               18.02150229                0.01000001                0.03020737               -0.13761515                0.12598028                0.08458353                0.04037805               -0.01912153
               3.99635789                5.99684500               18.02230408                0.01000000                0.01903523               -0.10719267                0.13284995                0.14899353                0.08364789                0.02388796
               4.99641129                5.99735308               18.02345267                0.01294315               -0.01807754               -0.08144295                0.14468583                0.15672867                0.08514348                0.04276174
               5.99599634                5.99801645               18.02425068                0.01137018               -0.05168051               -0.07041531                0.15552787                0.15011009                0.07238580                0.06063731
               6.99537768                5.99860941               18.02515562                0.01000000               -0.06234888               -0.05765621                0.16774287                0.15016713                0.11059129                0.14369377
               7.99474936                5.99919816               18.02676496                0.01000000               -0.05812731               -0.04630019                0.17550216                0.14221584                0.14705336                0.27125589
               8.99421513                5.99941287               18.02845195                0.01125794               -0.04980109               -0.05925537                0.16935822                0.08595025                0.09562923                0.27521618
               9.99375334                5.99886866               18.02910346                0.08257965               -0.04617929               -0.06118279                0.16780788                0.03321487                0.04186737                0.24418905
              -0.00208564                7.00018721               18.02113993                0.99999999               -0.03641814               -0.03609536                0.12112959                0.00001283               -0.00212827                0.01676258
               0.99755018                6.99828369               18.02122725                0.72181131               -0.03644495               -0.03657372                0.12133213               -0.00034113               -0.00937024               -0.00745323
               1.99718546                6.99637660               18.02117490                0.01639904               -0.01775392               -0.05698611                0.12120521                0.01005358               -0.00343295               -0.02575269
               2.99719510                6.99514698               18.02138614                0.01000000                0.01753592               -0.11953558                0.12407895                0.10328046                0.06501178               -0.05133359
               3.99753618                6.99572781               18.02265362                0.01266400                0.00597066               -0.10900001                0.13655172                0.17890224                0.11172120               -0.01342791
               4.99731451                6.99649508               18.02368954                0.01121680               -0.03596302               -0.08743497                0.15023838                0.16766772                0.10876911                0.01148986
               5.99681692                6.99727915               18.02482615                0.01000000               -0.05062330               -0.07199110                0.16792530                0.16538912                0.16026586                0.09077628
               6.99630204                6.99804699               18.02685617                0.01000000               -0.05109796               -0.05382599                0.18590116                0.16397469                0.25601426                0.21087293
               7.99579496                6.99874474               18.02987745                0.01152997               -0.05631527               -0.05326546                0.18550501                0.13110649                0.21127006                0.25382624
               8.99517574                6.99889312               18.03102528                0.01000002               -0.06415102               -0.04130910                0.18238571                0.06856180                0.07906013                0.37622329
               9.99451194                6.99841528               18.03144944                0.08844151               -0.06638025               -0.03843856                0.17716322                0.03072076                0.03915830                0.31383402
              -0.00017896                7.99982480               18.02144982                0.99039252               -0.03662662               -0.03646335                0.12200373                0.00000785               -0.00461480                0.02082252
               0.99945477                7.99791742               18.02138928                0.94811263               -0.03647571               -0.03665316                0.12199294               -0.00011111               -0.00671499               -0.00221130
               1.99909152                7.99601156               18.02129225                0.04945047               -0.03548939               -0.03656923                0.12178892                0.00119583               -0.00707993               -0.01723031
               2.99874498                7.99413119               18.02125393                0.01316722               -0.02518426               -0.07072554                0.11933138                0.10442478                0.06027673               -0.04803930
               3.99858784                7.99466500               18.02254102                0.01088614               -0.02658413               -0.10351749                0.13581208                0.20100600                0.13829999               -0.04975666
               4.99821330                7.99560438               18.02392972                0.01000000               -0.04178147               -0.07972138                0.15541871                0.19089938                0.18423629                0.02597056
               5.99775221                7.99657663               18.02602943                0.01000000               -0.05108536               -0.06126234                0.18008588                0.17301385                0.27138777                0.12536989
               6.99719159                7.99753289               18.02903623                0.01157478               -0.06134185               -0.05539921                0.19734229                0.14103101                0.28348063                0.16040997
               7.99652537                7.99813285               18.03129166                0.01000002               -0.06378819               -0.05971408                0.20518864                0.10883997                0.34655122                0.14217765
               8.99591583                7.99858669               18.03557417                0.12682637               -0.06009674               -0.04517631                0.19901384                0.05946388                0.22663700                0.24208438
               9.99532344                7.99809989               18.03531461                0.61443615               -0.05923928               -0.04512076                0.19588881                0.01601565               -0.00019838                0.20342762
               0.00172927                8.99945795               18.02178320                1.00000000               -0.03680854               -0.03672266                0.12261387                0.00007104               -0.00036608                0.01726281
               1.00136118                8.99755063               18.02164721                0.99999999               -0.03668316               -0.03669441                0.12227702                0.00011561                0.00022280                0.00262708
               2.00099561                8.99564521               18.02152778                0.74603947               -0.03655129               -0.03669486                0.12165155               -0.00033461               -0.00099504               -0.00752371
               3.00063016                8.99373247               18.02139003                0.01420407               -0.04562514               -0.03803718                0.12084363                0.09030042                0.05225812               -0.02036409
               4.00008310                8.99365746               18.02235873                0.01000000               -0.07046467               -0.06139205                0.13363304                0.17563204                0.17152370               -0.04224142
               4.99922087                8.99490065               18.02457884                0.01000000               -0.08672099               -0.04849866                0.15886805                0.16305244                0.26459212                0.03549903
               5.99834868                8.99605391               18.02734327                0.01138760               -0.08272101               -0.04736455                0.18162230                0.11372701                0.27894035                0.08471092
               6.99756645                8.99693901               18.02969506                0.01000002               -0.07153649               -0.06157738                0.20654847                0.08289015                0.26719223                0.04333816
               7.99691795                8.99755045               18.03215739                0.01000001               -0.05842356               -0.06512167                0.21926002                0.07168338                0.30727669                0.08626046
               8.99639797                8.99798959               18.03537459                0.99999998               -0.05560568               -0.05969921                0.19889440                0.04579053                0.17429376                0.00314991
               9.99580584                8.99751286               18.03507794                0.98841357               -0.05921332               -0.05868416                0.19583041                0.00004569               -0.00129446               -0.00140960
               0.00363709                9.99909034               18.02203141                0.99499878               -0.03672812               -0.03676039                0.12235649                0.00010115                0.01461523                0.01291390
               1.00326981                9.99718353               18.02192691                1.00000000               -0.03670549               -0.03670979                0.12237224                0.00022911                0.01751529                0.00323977
               2.00290298                9.99527767               18.02188105                0.99336463               -0.03655349               -0.03675476                0.12231698                0.00008341                0.02006724               -0.00239213
               3.00253874                9.99337044               18.02183469                0.04904662               -0.09853444               -0.03620300                0.12153467                0.09883298                0.05818159               -0.00566113
               4.00093230                9.99343716               18.02256714                0.06342753               -0.17304214               -0.02203038                0.13411027                0.14811733                0.17315591               -0.02145135
               4.99907790                9.99463440               18.02508750                0.01501275               -0.14719532               -0.02662485                0.15510616                0.09531266                0.27064358                0.02498054
               5.99798839                9.99562934               18.02781981                0.08263460               -0.08625257               -0.04245684                0.18110341                0.04731726                0.24611819                0.03873940
               6.99735285                9.99630134               18.02967282                0.09028463               -0.05399655               -0.06376715                0.20361162                0.03869426                0.26080592               -0.00279035
               7.99690846                9.99683042               18.03260858                0.65173390               -0.02418087               -0.07200369                0.22822990                0.05361868                0.29480461                0.05303923
               8.99686923                9.99739270               18.03514018                0.98841418               -0.03153256               -0.05968853                0.19868205                0.05191543                0.14288609                0.00147920
               9.99627781                9.99692621               18.03484346                0.99834543               -0.05914244               -0.05866507                0.19561814                0.00054721                0.00137011               -0.00137286
              -0.00267876                0.00107500               19.01865755                0.97196718               -0.03079077               -0.03030893                0.10123205                0.00033245               -0.00165143                0.00170352
               0.99701333                0.00091401               19.01909154                0.77075391               -0.03119025               -0.03107369                0.10387013                0.00040477               -0.00207960               -0.00103640
               1.99669744                0.00075097               19.01951815                0.22447226               -0.03231675               -0.03193281                0.10648822               -0.00000310               -0.00231810               -0.00080739
               2.99636700                0.00057751               19.01994968                0.02638816               -0.07590844               -0.03262617                0.10956687               -0.10524491                0.03825577               -0.00092370
               3.99517927               -0.00170996               19.02119201                0.09728868               -0.07512441               -0.03288568                0.12044401               -0.14727434                0.03501244               -0.00195742
               4.99486451               -0.00096298               19.02185735                0.30931245               -0.03373309               -0.03643816                0.12087958               -0.00532700                0.00716196               -0.00162252
               5.99450461               -0.00009432               19.02254095                0.85115068               -0.03648361               -0.03692517                0.12247746               -0.00003482                0.00757234               -0.00162181
               6.99413484                0.00078627               19.02321529                0.99892099               -0.03729325               -0.03756957                0.12456760                0.00030458                0.00792401               -0.00117088
               7.99375874                0.00167186               19.02390672                0.99999999               -0.03793652               -0.03819761                0.12665407                0.00032372                0.00916143               -0.00087152
               8.99337611                0.00256196               19.02460615                1.00000000               -0.03859601               -0.03883369                0.12879909                0.00033872                0.00769723                0.00082749
               9.99298682                0.00345628               19.02526816                0.99526325               -0.03892872               -0.03949399                0.13094354                0.00014828                0.00585714                0.00582524
              -0.00251444                1.00077191               19.01870065                0.77449262               -0.03061594               -0.03030585                0.10079545               -0.00014014                0.00103895                0.00213765
               0.99717940                1.00060327               19.01913426                0.01127350               -0.03099505               -0.03093312                0.10341712               -0.00014503                0.00212087               -0.00216516
               1.99686566                1.00043164               19.01959020                0.01000000               -0.03171911               -0.03302579                0.10618394               -0.01859666                0.00322898                0.01267450
               2.99654502                1.00025125               19.02004845                0.01000001               -0.11944442               -0.03784384                0.10937833               -0.15042714                0.04656418                0.03272965
               3.99447677                0.99796118               19.02137414                0.01000000               -0.12707995                0.03018982                0.12128322               -0.08356470                0.03399860                0.00065683
               4.99400342                0.99867264               19.02200223                0.01000000               -0.04235674               -0.01584652                0.12214212                0.03181441               -0.00231610                0.00652191
               5.99362963                0.99953643               19.02263472                0.01000001               -0.03743087               -0.02805202                0.12375960                0.01681519               -0.00251524                0.00416423
               6.99325480                1.00041058               19.02326188                0.60732588               -0.03777499               -0.03773263                0.12580845               -0.00004990               -0.00205911               -0.00472098
               7.99287413                1.00128988               19.02390454                0.96131018               -0.03837571               -0.03836369                0.12789737                0.00001253               -0.00021413               -0.00178187
               8.99248729                1.00217363               19.02456911                0.99999999               -0.03900716               -0.03901627                0.13004490                0.00001753                0.00065966                0.00090842
               9.99209399                1.00306134               19.02522921                1.00000000               -0.03932951               -0.03967559                0.13218952               -0.00017966                0.00046250                0.00739441
              -0.00234428                2.00046888               19.01875252                0.23047607               -0.03050117               -0.03214130                0.10043347               -0.00371169                0.00085578                0.00268556
               0.99735070                2.00029535               19.01915601                0.01000000               -0.04890933               -0.02850790                0.10285385               -0.00544142                0.01962579               -0.00296581
               1.99667753                2.00009045               19.01993352                0.01000001               -0.07608939               -0.01533580                0.11065569               -0.07527604                0.04136405                0.04726799
               2.99582892                1.99982063               19.02082100                0.01000000               -0.07954745               -0.03962956                0.11593839               -0.12467963                0.03723977                0.05842169
               3.99508658                1.99889383               19.02159214                0.01000000               -0.09516855                0.04851340                0.12042106               -0.04226350                0.02530843                0.02787898
               4.99392555                1.99872009               19.02231050                0.01000001               -0.09918031                0.01054080                0.12430841                0.02564419                0.00528523                0.02491741
               5.99310297                1.99934464               19.02284525                0.01146837               -0.07725754               -0.01225756                0.12648649                0.03694492               -0.01777352                0.02156954
               6.99238039                2.00003162               19.02323810                0.01630726               -0.05535159               -0.02832983                0.12690745                0.01589325               -0.01881700                0.00796886
               7.99199594                2.00090458               19.02388430                0.04080809               -0.03876963               -0.03749237                0.12911079                0.00247523               -0.00603274               -0.00236035
               8.99160500                2.00178164               19.02453337                0.81274587               -0.03940683               -0.03937134                0.13129162               -0.00000213               -0.00397174               -0.00071445
               9.99120781                2.00266276               19.02522082                0.98975747               -0.03971961               -0.04004398                0.13346467               -0.00017854               -0.00202911                0.00869419
              -0.00224160                3.00012908               19.01880584                0.04208140               -0.03093957                0.01306205                0.10067188               -0.26567730                0.00086044                0.13605422
               0.99744900                3.00003311               19.01918423                0.01000001               -0.09617726               -0.03731089                0.10299700               -0.26039164                0.05883700                0.13287289
               1.99583485                3.00012492               19.02071853                0.01000000               -0.11004790               -0.03397177                0.11496317               -0.16048355                0.07268348                0.06815532
               2.99524804                2.99945865               19.02140482                0.01000000               -0.05514062               -0.05358268                0.11959758               -0.11551484                0.03208592                0.05300586
               3.99473204                2.99893145               19.02216656                0.01212861               -0.05912767               -0.02032733                0.12439787               -0.04961559                0.02484152                0.04228958
               4.99406549                2.99888346               19.02276733                0.01000000               -0.08375171               -0.00315792                0.12782140                0.03837549                0.00652350                0.03956058
               5.99305700                2.99929128               19.02325205                0.01000001               -0.10263808               -0.01060161                0.13027699                0.08059942               -0.01905918                0.05662676
               6.99201273                2.99984398               19.02353924                0.01000000               -0.09416920               -0.01450749                0.13090775                0.09430929               -0.03726403                0.07523417
               7.99117362                3.00054003               19.02387078                0.01299626               -0.06418337               -0.03458802                0.12966601                0.08531022               -0.02924320                0.05942385
               8.99072906                3.00138620               19.02446362                0.01390887               -0.04227278               -0.04537299                0.13251899                0.06951751               -0.00922999                0.04363752
               9.99032816                3.00226046               19.02520712                0.03452445               -0.04008957               -0.08635015                0.13465381                0.07510934               -0.00167585                0.04112011
              -0.00746589                4.00073012               19.02152855                0.11747332               -0.03870786                0.03185967                0.12202349               -0.31509316               -0.00321807                0.13942848
               0.99214703                3.99954913               19.02191903                0.01000000                0.07541031               -0.06052685                0.12251905               -0.26584597               -0.04292845                0.13028978
               1.99404232                3.99941102               19.02150396                0.01000000                0.12825317               -0.10828050                0.11925142               -0.12580892               -0.02840704                0.06042567
               2.99471210                3.99874898               19.02208222                0.01212953                0.03135753               -0.08616681                0.12391557               -0.06315524                0.02085737                0.04295648
               3.99466947                3.99848729               19.02262783                0.01000000               -0.01894375               -0.05948647                0.12823871                0.01512731                0.02392345                0.03745363
               4.99433322                3.99865693               19.02328370                0.01000001               -0.04575141               -0.04067015                0.13239269                0.08344275                0.03278761                0.05881767
               5.99375444                3.99913261               19.02406490                0.01000000               -0.06576951               -0.02808034                0.13654443                0.14052567                0.03092808                0.09540414
               6.99301783                3.99974147               19.02478629                0.01242296               -0.07972560               -0.02734246                0.14087985                0.16077144               -0.00025392                0.11578651
               7.99215993                4.00021282               19.02507876                0.01065603               -0.08714515               -0.03779255                0.14214350                0.16652799               -0.03224623                0.13145538
               8.99127493                4.00087418               19.02531474                0.01000000               -0.05992257               -0.06098829                0.14251562                0.13537901               -0.02684806                0.15246400
               9.99096148                4.00093576               19.02584657                0.06287358               -0.03134515               -0.13336058                0.14419157                0.10626335               -0.01055983                0.14377030
              -0.00618148                5.00076628               19.02184419                0.33134329               -0.03673346               -0.01461161                0.12133247               -0.03180645               -0.00331330                0.01769739
               0.99345119                4.99882258               19.02216038                0.01000000                0.01501505               -0.05626641                0.12275069                0.02328076               -0.01790691               -0.00257947
               1.99411882                4.99795931               19.02219000                0.01000001                0.07287400               -0.12644823                0.12349553                0.01990859               -0.01550904                0.02395361
               2.99490867                4.99773532               19.02250653                0.01000000                0.05039029               -0.12464695                0.12682082                0.04611696                0.01704400                0.01774221
               3.99512663                4.99774172               19.02312245                0.01000001                0.00901750               -0.09130225                0.13172473                0.09405642                0.05153028                0.03746751
               4.99508902                4.99807005               19.02407521                0.01000000               -0.01718241               -0.06858295                0.13834456                0.14711295                0.07482891                0.07536694
               5.99478298                4.99872967               19.02515870                0.01263507               -0.04705352               -0.05373073                0.14661272                0.16714975                0.05495775                0.09097827
               6.99414795                4.99929713               19.02575991                0.01090187               -0.07057546               -0.05002382                0.15239568                0.16353351                0.02843463                0.11167705
               7.99337147                4.99978418               19.02639612                0.01000000               -0.07171236               -0.04142401                0.15760266                0.16458154                0.04371830                0.18249238
               8.99271370                5.00016643               19.02739719                0.01000000               -0.05206045               -0.06603369                0.15941264                0.12725684                0.04411065                0.24968600
               9.99233026                4.99959325               19.02809964                0.01469856               -0.03834374               -0.10419607                0.15603798                0.07106512                0.02777917                0.24106049
              -0.00421462                6.00043789               19.02210433                0.92890792               -0.03657719               -0.03453493                0.12107415               -0.00211006               -0.00344980                0.01441653
               0.99541961                5.99842380               19.02230677                0.01000000               -0.01288183               -0.03837342                0.12261483                0.02153984               -0.00983906               -0.00843425
               1.99552775                5.99688205               19.02238740                0.01147299                0.02162093               -0.09579639                0.12459192                0.03923521                0.00011970               -0.01761813
               2.99585203                5.99625604               19.02277407                0.01000001                0.03440575               -0.14899058                0.12830042                0.09873451                0.04448856               -0.01943483
               3.99621586                5.99666124               19.02364815                0.01000000                0.02177461               -0.11327138                0.13527732                0.17012908                0.09198038                0.02664118
               4.99628752                5.99728527               19.02491317                0.01263672               -0.01727522               -0.08470253                0.14644622                0.18127363                0.09555058                0.04909428
               5.99587036                5.99805800               19.02581953                0.01102175               -0.05267638               -0.07104085                0.15687903                0.17587822                0.08360033                0.07176164
               6.99523399                5.99874099               19.02684514                0.01000000               -0.06440509               -0.05272420                0.16842924                0.17640942                0.12055973                0.16095530
               7.99458226                5.99938434               19.02851833                0.01000000               -0.06114974               -0.03607605                0.17489564                0.16359192                0.14891073                0.28557656
               8.99401100                5.99955350               19.03014582                0.01121576               -0.05265512               -0.05305949                0.16898624                0.09729601                0.09400619                0.28644928
               9.99352915                5.99885184               19.03078247                0.08269038               -0.04818469               -0.05731304                0.16768923                0.03811362                0.04224705                0.25421223
              -0.00219550                7.00007558               19.02235493                0.99999999               -0.03666791               -0.03644624                0.12162211                0.00039349               -0.00278949                0.01660960
               0.99743782                6.99805511               19.02244626                0.71634145               -0.03666069               -0.03705822                0.12278837                0.00072983               -0.01065296               -0.00676505
               1.99707129                6.99604339               19.02238488                0.01631395               -0.01668277               -0.06118819                0.12317181                0.01296746               -0.00204310               -0.02532260
               2.99710417                6.99475551               19.02265812                0.01000000                0.02143433               -0.13027502                0.12791915                0.11531049                0.07241009               -0.05634684
               3.99749998                6.99547629               19.02402994                0.01242780                0.01067827               -0.11717775                0.13838435                0.20187512                0.12307224               -0.01214088
               4.99731773                6.99637600               19.02520570                0.01090684               -0.03275747               -0.09284184                0.15186312                0.19308831                0.12433625                0.01688087
               5.99684483                6.99730886               19.02652575                0.01000000               -0.04839706               -0.07335570                0.17019374                0.19645529                0.17879582                0.10415108
               6.99634979                6.99824265               19.02873193                0.01000000               -0.05070134               -0.04844547                0.18633154                0.19772486                0.26686492                0.23122063
               7.99583080                6.99906266               19.03174825                0.01146488               -0.05788356               -0.04531074                0.18168865                0.15178113                0.21153359                0.27499044
               8.99519212                6.99910524               19.03286297                0.01000002               -0.06674687               -0.03598007                0.18325933                0.07797733                0.07670843                0.39173065
               9.99449586                6.99844698               19.03323450                0.08868625               -0.06962594               -0.02653817                0.17931131                0.03754338                0.03708874                0.32691610
              -0.00016581                7.99970897               19.02266342                0.99059443               -0.03677931               -0.03678083                0.12165754                0.00022268               -0.00273343                0.02076588
               0.99946640                7.99768264               19.02263583                0.94835760               -0.03737486               -0.03743677                0.12458962                0.00021354               -0.00424207               -0.00132953
               1.99908670                7.99565829               19.02258117                0.04985129               -0.03705333               -0.03863636                0.12794347                0.00059221               -0.01128387               -0.01579848
               2.99872533                7.99365054               19.02242425                0.01300439               -0.02269140               -0.07600115                0.11962394                0.11465072                0.06549639               -0.04995677
               3.99863287                7.99431769               19.02391297                0.01066729               -0.02043069               -0.11260391                0.13761790                0.22411958                0.15721673               -0.05095530
               4.99831672                7.99542844               19.02549529                0.01000000               -0.03500248               -0.08442730                0.15673764                0.21681051                0.20618489                0.03053163
               5.99793282                7.99659088               19.02785033                0.01000000               -0.04410155               -0.06403846                0.18163683                0.20599505                0.29649886                0.13485943
               6.99743469                7.99777208               19.03107296                0.01150758               -0.05887693               -0.05703853                0.20666654                0.17152708                0.30359778                0.18312344
               7.99675528                7.99847813               19.03343632                0.01000002               -0.06242340               -0.06394762                0.22120027                0.12058810                0.34695179                0.19035111
               8.99618622                7.99883390               19.03755912                0.12677629               -0.05793719               -0.04330553                0.19793909                0.06733842                0.22013005                0.24938869
               9.99559654                7.99832108               19.03726986                0.61440577               -0.05896848               -0.03557811                0.19516296                0.02916879               -0.00017366                0.21201927
               0.00186162                8.99933996               19.02300140                1.00000000               -0.03688446               -0.03680784                0.12189203               -0.00055109                0.00126913                0.01795434
               1.00149277                8.99730637               19.02289269                0.99999999               -0.03731933               -0.03738033                0.12437467               -0.00064750                0.00132677                0.00164269
               2.00111523                8.99527066               19.02278587                0.75152412               -0.03774940               -0.03808422                0.12590424               -0.00026174               -0.00255975               -0.01053746
               3.00073778                8.99323548               19.02260845                0.01401009               -0.04553812               -0.03934849                0.12409878                0.10034706                0.05674609               -0.01713079
               4.00020447                8.99322421               19.02370427                0.01000000               -0.06785192               -0.06508817                0.13509420                0.19272564                0.18960729               -0.04290209
               4.99938075                8.99468746               19.02616857                0.01000000               -0.07916939               -0.05228271                0.15921683                0.18226399                0.28850789                0.03587272
               5.99862108                8.99602809               19.02918428                0.01134154               -0.07438273               -0.05111644                0.18059236                0.13401332                0.30856514                0.08915137
               6.99789309                8.99710187               19.03188155                0.01000002               -0.07201690               -0.07335071                0.22764869                0.09789919                0.30699614                0.05876637
               7.99718074                8.99778371               19.03449721                0.01000001               -0.05985762               -0.07783450                0.29139859                0.07767973                0.30902246                0.12373310
               8.99669594                8.99823913               19.03736096                0.99999998               -0.05379273               -0.05954591                0.19838602                0.04807237                0.15806098                0.00318058
               9.99610489                8.99773542               19.03703576                0.98848118               -0.05910510               -0.05865384                0.19573653               -0.00001949               -0.00130235               -0.00133595
               0.00389035                9.99897281               19.02325470                0.99526704               -0.03675962               -0.03671528                0.12196095               -0.00090461                0.01394210                0.01381445
               1.00352275                9.99693503               19.02314856                1.00000000               -0.03690001               -0.03713436                0.12262643               -0.00081204                0.01694024                0.00137092
               2.00315235                9.99489660               19.02310193                0.99746072               -0.03720166               -0.03740547                0.12325515                0.00013899                0.02010182               -0.00547996
               3.00277872                9.99286357               19.02306439                0.01472065               -0.10584707               -0.03719158                0.12420816                0.11005969                0.06426592               -0.00447001
               4.00103541                9.99301592               19.02391324                0.06341146               -0.18102989               -0.02082896                0.13532030                0.15905486                0.18834957               -0.02071228
               4.99915812                9.99438278               19.02663526                0.01499916               -0.14183714               -0.03046735                0.15493040                0.10536940                0.29242624                0.02300708
               5.99819867                9.99556855               19.02965282                0.08267596               -0.07605344               -0.04595341                0.17950713                0.05387294                0.27439898                0.04084613
               6.99763706                9.99630507               19.03182761                0.09041559               -0.05135241               -0.07968062                0.22650881                0.04204044                0.30419094                0.00672210
               7.99717162                9.99692144               19.03509338                0.65093149               -0.02205502               -0.08622714                0.30307048                0.06598334                0.29363455                0.03568239
               8.99719595                9.99764298               19.03712749                0.98848186               -0.02840258               -0.05961485                0.19878583                0.06132975                0.11945095                0.00147337
               9.99660357                9.99714800               19.03680223                0.99854423               -0.05923877               -0.05874225                0.19613657                0.00036951                0.00136315               -0.00136438
              -0.00314294                0.00105155               20.01967067                0.97133556               -0.03083911               -0.03029936                0.10139826                0.00039774               -0.00168880                0.00184654
               0.99654867                0.00086293               20.02013185                0.77033881               -0.03128591               -0.03117121                0.10427248                0.00047487               -0.00226298               -0.00103425
               1.99623135                0.00067247               20.02058523                0.22455121               -0.03249906               -0.03200839                0.10678712               -0.00000369               -0.00229002               -0.00083559
               2.99589869                0.00047089               20.02104731                0.02728043               -0.08336992               -0.03268940                0.11002999               -0.10879936                0.04235697               -0.00079773
               3.99456395               -0.00191615               20.02239550                0.09755677               -0.08239293               -0.03198555                0.12022327               -0.15337164                0.03833108               -0.00200438
               4.99425083               -0.00113050               20.02306702                0.30765240               -0.03366226               -0.03644767                0.12101446               -0.00588471                0.00613612               -0.00164098
               5.99389070               -0.00021075               20.02376659                0.84767626               -0.03651190               -0.03696924                0.12262392               -0.00007195                0.00729897               -0.00163055
               6.99352060                0.00072159               20.02446146                0.99882136               -0.03731746               -0.03759532                0.12464860                0.00029249                0.00788856               -0.00120425
               7.99314435                0.00165903               20.02517336                0.99999999               -0.03794008               -0.03820247                0.12666475                0.00031133                0.00915862               -0.00088720
               8.99276179                0.00260106               20.02589383                1.00000000               -0.03857759               -0.03881707                0.12873703                0.00032702                0.00772477                0.00082965
               9.99237280                0.00354733               20.02657689                0.99546693               -0.03889926               -0.03945520                0.13080962                0.00013486                0.00588217                0.00584354
              -0.00295034                1.00074856               20.01970856                0.77378416               -0.03066948               -0.03028923                0.10083125               -0.00011891                0.00114413                0.00220907
               0.99674297                1.00055122               20.02016920                0.01123566               -0.03111659               -0.03105234                0.10375064                0.00001806                0.00218293               -0.00235979
               1.99642733                1.00035238               20.02065343                0.01000000               -0.03189795               -0.03365706                0.10650889               -0.01955450                0.00346190                0.01507918
               2.99610501                1.00014400               20.02114361                0.01000001               -0.12982010               -0.03735030                0.10987016               -0.15635781                0.05133447                0.03598915
               3.99383093                0.99776399               20.02258606                0.01000000               -0.13828606                0.03437649                0.12106414               -0.08095731                0.03861537               -0.00000182
               4.99333929                0.99850503               20.02322456                0.01000000               -0.04334947               -0.01447263                0.12228703                0.03728963               -0.00308675                0.00705650
               5.99296394                0.99941956               20.02387324                0.01000001               -0.03753282               -0.02725915                0.12391988                0.02002451               -0.00280842                0.00496312
               6.99258863                1.00034564               20.02452054                0.60478140               -0.03781014               -0.03776206                0.12590642               -0.00005846               -0.00212734               -0.00481430
               7.99220774                1.00127700               20.02518368                0.96195358               -0.03838589               -0.03837081                0.12792222                0.00000900               -0.00022973               -0.00180742
               8.99182091                1.00221289               20.02586932                0.99999999               -0.03899316               -0.03900148                0.12999537                0.00001646                0.00067418                0.00091121
               9.99142787                1.00315278               20.02655046                1.00000000               -0.03930402               -0.03963867                0.13206789               -0.00018166                0.00047392                0.00742244
              -0.00275064                2.00044577               20.01975575                0.22993427               -0.03041482               -0.03222731                0.10003143               -0.00395654                0.00095300                0.00313662
               0.99694521                2.00024189               20.02018432                0.01000000               -0.05009417               -0.02846850                0.10285935               -0.00595031                0.02244797               -0.00293088
               1.99624748                1.99999932               20.02104058                0.01000001               -0.07926441               -0.01670355                0.11193474               -0.07521854                0.04580646                0.05191826
               2.99535993                1.99972389               20.02198075                0.01000000               -0.08318510               -0.03950618                0.11561933               -0.12491642                0.04017040                0.06315583
               3.99458378                1.99877138               20.02279723                0.01000000               -0.10094313                0.05330177                0.12075706               -0.03432782                0.02755115                0.02861098
               4.99334106                1.99858005               20.02355601                0.01000001               -0.10665986                0.01399932                0.12483378                0.03552054                0.00617725                0.02662342
               5.99245058                1.99924407               20.02411249                0.01143192               -0.08395427               -0.00899247                0.12687771                0.04458920               -0.01872916                0.02348420
               6.99166198                1.99996635               20.02450783                0.01624953               -0.05866457               -0.02652711                0.12702628                0.01896943               -0.01972199                0.00932703
               7.99127729                2.00089161               20.02517564                0.04108890               -0.03878158               -0.03731330                0.12914848                0.00277213               -0.00598630               -0.00271284
               8.99088635                2.00182103               20.02584610                0.81755923               -0.03939567               -0.03936043                0.13125307               -0.00000320               -0.00393584               -0.00072193
               9.99048937                2.00275456               20.02655489                0.99163153               -0.03969716               -0.04001053                0.13335424               -0.00018010               -0.00199780                0.00868913
              -0.00262171                3.00010401               20.01981005                0.04298747               -0.03078877                0.00777792                0.10013352               -0.26925905                0.00110536                0.14758110
               0.99707041                2.99998185               20.02021287                0.01000001               -0.09686676               -0.04380371                0.10302989               -0.26518330                0.06377101                0.14351631
               1.99544096                3.00001831               20.02186954                0.01000000               -0.11178899               -0.03612551                0.11496986               -0.16026275                0.07905969                0.07234563
               2.99483463                2.99935388               20.02260214                0.01000000               -0.05763740               -0.05508033                0.12007860               -0.10990107                0.03494141                0.05661847
               3.99428821                2.99883003               20.02341383                0.01207526               -0.06288081               -0.01970309                0.12507464               -0.04271338                0.02688376                0.04509874
               4.99357701                2.99878501               20.02405012                0.01000000               -0.09093949                0.00018510                0.12864267                0.05008189                0.00722086                0.04225757
               5.99246942                2.99923971               20.02455865                0.01000001               -0.11282696               -0.00597178                0.13086305                0.09419981               -0.01987393                0.06020537
               6.99132047                2.99981510               20.02485031                0.01000001               -0.10304586               -0.00931821                0.13115311                0.10662225               -0.03980728                0.08083398
               7.99040850                3.00053074               20.02516798                0.01287180               -0.06812848               -0.03175998                0.12979025                0.09512525               -0.03061854                0.06462302
               8.98995790                3.00142568               20.02578865                0.01374961               -0.04256509               -0.04478031                0.13248736                0.07767181               -0.00889317                0.04790972
               9.98955720                3.00235257               20.02655314                0.03605757               -0.04006995               -0.09182322                0.13455517                0.08419440               -0.00168376                0.04516656
              -0.00789150                4.00060133               20.02274826                0.11768225               -0.03812526                0.02748123                0.12204592               -0.31940822               -0.00326920                0.14942188
               0.99172725                3.99936581               20.02314930                0.01000000                0.07808475               -0.06903203                0.12349846               -0.26519461               -0.04515203                0.14108627
               1.99367020                3.99927681               20.02270022                0.01000000                0.13114677               -0.11317096                0.12005480               -0.12004636               -0.02941025                0.06473038
               2.99435019                3.99862228               20.02332591                0.01207619                0.03140872               -0.08958025                0.12479810               -0.05642788                0.02343930                0.04582106
               3.99429837                3.99837732               20.02391513                0.01000000               -0.02085825               -0.06146671                0.12912703                0.02613348                0.02611927                0.03997045
               4.99393302                3.99858375               20.02461304                0.01000001               -0.04969416               -0.03916018                0.13326862                0.09910164                0.03492775                0.06263296
               5.99330449                3.99912463               20.02543602                0.01000001               -0.07148158               -0.02436571                0.13733477                0.16061572                0.03324508                0.10165975
               6.99250339                3.99977999               20.02619685                0.01224693               -0.08676386               -0.02201439                0.14098077                0.18114948                0.00101960                0.12447682
               7.99156921                4.00025641               20.02649938                0.01048390               -0.09427205               -0.03248617                0.14180395                0.18640588               -0.03261387                0.14341603
               8.99061795                4.00092542               20.02673788                0.01000000               -0.06248704               -0.05924060                0.14208103                0.15048547               -0.02696013                0.16427165
               9.99031947                4.00091810               20.02728651                0.06284780               -0.02984768               -0.14141642                0.14382249                0.11690285               -0.00989523                0.15253428
              -0.00653884                5.00065364               20.02306010                0.32847955               -0.03701296               -0.01385174                0.12205042               -0.03367550               -0.00339541                0.01724134
               0.99309103                4.99860121               20.02339589                0.01000000                0.01612029               -0.05857430                0.12425465                0.02725595               -0.01865062               -0.00262601
               1.99378356                4.99775489               20.02343223                0.01000001                0.07572696               -0.13363851                0.12486457                0.02898460               -0.01527289                0.02633786
               2.99460557                4.99756227               20.02378108                0.01000000                0.05329236               -0.13203347                0.12800066                0.05776132                0.01944237                0.01934844
               3.99484941                4.99760069               20.02444680                0.01000001                0.01030811               -0.09534894                0.13287902                0.10997823                0.05543703                0.03997635
               4.99481173                4.99800181               20.02546553                0.01000001               -0.01819553               -0.06896385                0.13933270                0.16847960                0.08029576                0.08067756
               5.99448550                4.99875239               20.02662711                0.01240698               -0.05000264               -0.05200014                0.14670354                0.19024420                0.06037051                0.09860394
               6.99381168                4.99937481               20.02728319                0.01066321               -0.07471557               -0.04617465                0.15179595                0.18576526                0.03285259                0.12279135
               7.99299119                4.99988102               20.02796747                0.01000000               -0.07528741               -0.03494281                0.15663812                0.18618707                0.04685876                0.19669728
               8.99230593                5.00024086               20.02898577                0.01000000               -0.05406410               -0.06246701                0.15824506                0.14281983                0.04381908                0.26111002
               9.99190991                4.99952424               20.02965742                0.01471970               -0.03960219               -0.10500231                0.15564247                0.07861296                0.02531184                0.25026028
              -0.00446015                6.00032429               20.02331828                0.92226487               -0.03687294               -0.03466628                0.12183275               -0.00225853               -0.00359367                0.01433656
               0.99517112                5.99819433               20.02354013                0.01000000               -0.01255081               -0.03909428                0.12398379                0.02479463               -0.00998639               -0.00865915
               1.99528883                5.99660404               20.02363994                0.01143645                0.02442464               -0.10392545                0.12604689                0.04682311                0.00147805               -0.01778647
               2.99565961                5.99598161               20.02406830                0.01000001                0.03847852               -0.15962024                0.12993339                0.11294840                0.04818392               -0.01963096
               3.99605840                5.99647034               20.02500962                0.01000001                0.02456521               -0.11902634                0.13663989                0.19117454                0.09888107                0.02906964
               4.99615092                5.99720447               20.02638159                0.01240850               -0.01610141               -0.08756166                0.14681088                0.20539913                0.10418350                0.05392209
               5.99573637                5.99808463               20.02738826                0.01075467               -0.05304212               -0.07105069                0.15623842                0.20165617                0.09270609                0.08119494
               6.99509007                5.99885649               20.02852421                0.01000000               -0.06547370               -0.04656112                0.16706215                0.20390489                0.12888718                0.17460528
               7.99442690                5.99955756               20.03026287                0.01000000               -0.06294774               -0.02772292                0.17220792                0.18614927                0.15037195                0.29224709
               8.99383112                5.99967608               20.03183168                0.01115642               -0.05509626               -0.04632166                0.16814066                0.10891117                0.09255533                0.29589399
               9.99332497                5.99881805               20.03245725                0.08280420               -0.05061436               -0.05290193                0.16738157                0.04423391                0.04347234                0.26378559
              -0.00232408                6.99996031               20.02357237                0.99999999               -0.03687475               -0.03653205                0.12200210               -0.00001425               -0.00295511                0.01681669
               0.99730717                6.99781933               20.02368301                0.71099458               -0.03715883               -0.03749663                0.12408160               -0.00014365               -0.01093210               -0.00642991
               1.99693274                6.99567638               20.02363834                0.01625616               -0.01544638               -0.06547194                0.12595109                0.01695663               -0.00168573               -0.02574116
               2.99699824                6.99436987               20.02394452                0.01000001                0.02586494               -0.13999511                0.12948065                0.13036387                0.07771513               -0.05951043
               3.99745004                6.99522017               20.02542131                0.01225176                0.01535898               -0.12493876                0.13950025                0.22417191                0.13296169               -0.01190155
               4.99730542                6.99625058               20.02672680                0.01066814               -0.02917177               -0.09761706                0.15184417                0.21799686                0.13772706                0.02064563
               5.99686660                6.99733138               20.02823003                0.01000000               -0.04442891               -0.07346696                0.16973920                0.22805762                0.19339600                0.11414736
               6.99641684                6.99844359               20.03058280                0.01000000               -0.04860078               -0.04053828                0.18168904                0.22913316                0.26968000                0.24724944
               7.99589459                6.99932656               20.03351122                0.01139623               -0.05965922               -0.01833226                0.18008665                0.17110985                0.21168921                0.29425357
               8.99522366                6.99931443               20.03469047                0.01000002               -0.06919720               -0.02998048                0.18194210                0.08967077                0.08235117                0.40279732
               9.99451064                6.99846620               20.03503567                0.08891023               -0.07130150               -0.01395166                0.18061436                0.04385192                0.03736297                0.33939432
              -0.00017846                7.99959365               20.02388297                0.99076179               -0.03693596               -0.03672818                0.12208536               -0.00011847               -0.00240978                0.02105975
               0.99945218                7.99744440               20.02388108                0.94863059               -0.03720563               -0.03742889                0.12438500               -0.00014859               -0.00390381               -0.00103027
               1.99907742                7.99529461               20.02385112                0.04960382               -0.03645362               -0.03813371                0.12660430                0.00166118               -0.01380754               -0.01567878
               2.99872310                7.99318171               20.02364641                0.01287983               -0.02081458               -0.08100754                0.12353822                0.12626985                0.07069006               -0.05033297
               3.99866113                7.99397156               20.02529338                0.01049491               -0.01617317               -0.12105048                0.13889553                0.24677569                0.17232543               -0.05284793
               4.99839964                7.99525213               20.02706448                0.01000000               -0.02783086               -0.08862156                0.15688226                0.24246565                0.22481752                0.03349727
               5.99810451                7.99661529               20.02966216                0.01000000               -0.03610413               -0.06484669                0.17862495                0.23670000                0.31784405                0.13703609
               6.99767756                7.99804573               20.03316956                0.01143721               -0.05631311               -0.05419468                0.21324302                0.22761107                0.32024923                0.20076208
               7.99697825                7.99919091               20.03571567                0.01000002               -0.05963362               -0.04792490                0.18958885                0.13775755                0.34608187                0.26392431
               8.99648489                7.99907647               20.03953295                0.12671906               -0.05398932               -0.04148013                0.19658350                0.05725447                0.20623992                0.25619576
               9.99589847                7.99853902               20.03921787                0.61439651               -0.05864197               -0.02562123                0.19459988                0.04223189               -0.00011313                0.21921387
               0.00197206                8.99922575               20.02422104                1.00000000               -0.03688166               -0.03668155                0.12193399               -0.00016649                0.00148283                0.01817559
               1.00160324                8.99707075               20.02413470                0.99999999               -0.03717064               -0.03725974                0.12401703               -0.00014128                0.00137893                0.00148658
               2.00122865                8.99491371               20.02404586                0.75895966               -0.03782811               -0.03793239                0.12591022               -0.00046312               -0.00283887               -0.01089348
               3.00084668                8.99274972               20.02387201                0.01385660               -0.04567593               -0.04062727                0.12711840                0.10875485                0.06082700               -0.01456914
               4.00031513                8.99279916               20.02506062                0.01000000               -0.06678370               -0.06832920                0.13665494                0.20978604                0.20468973               -0.04340376
               4.99951101                8.99447814               20.02776318                0.01000000               -0.07540609               -0.05454745                0.15866667                0.20112440                0.30473506                0.03517061
               5.99880701                8.99603444               20.03095512                0.01127775               -0.05587841               -0.05530495                0.18193256                0.15305264                0.33620572                0.08634506
               6.99839344                8.99735969               20.03424803                0.01000002               -0.05940053               -0.07510268                0.20692515                0.13260844                0.37266140                0.07438586
               7.99761900                8.99836806               20.03798536                0.01000001               -0.06863981               -0.14195881                0.50633712                0.08140754                0.23990201                0.21635878
               8.99702064                8.99848483               20.03934231                0.99999998               -0.05944046               -0.05936774                0.19784548                0.03251194                0.08386770                0.00316841
               9.99643019                8.99795378               20.03899267                0.98860254               -0.05904555               -0.05865096                0.19563242               -0.00024829               -0.00125345               -0.00120347
               0.00412821                9.99886002               20.02447063                0.99547055               -0.03668156               -0.03657283                0.12150388               -0.00046741                0.01360377                0.01387338
               1.00376139                9.99669920               20.02437944                1.00000000               -0.03695073               -0.03715484                0.12322114               -0.00038841                0.01654746                0.00106084
               2.00338919                9.99453596               20.02434615                1.00000000               -0.03743202               -0.03777506                0.12493482               -0.00044727                0.01966489               -0.00579998
               3.00301275                9.99236917               20.02431886                0.01839488               -0.11303843               -0.03805513                0.12631173                0.12005797                0.06887960               -0.00406275
               4.00112842                9.99260498               20.02527354                0.06342554               -0.19129556               -0.01941795                0.13685205                0.17093045                0.20177593               -0.01929390
               4.99918684                9.99416118               20.02818611                0.01499792               -0.14222033               -0.03169599                0.15554252                0.11279381                0.30621227                0.02064304
               5.99828402                9.99550919               20.03140996                0.08270296               -0.05953641               -0.05252562                0.17955464                0.06682555                0.29885063                0.04306636
               6.99799611                9.99654368               20.03420299                0.09052924               -0.04013750               -0.08160184                0.22565143                0.00239464                0.36318805                0.01866979
               7.99748127                9.99635174               20.03866999                0.65032881               -0.02233548               -0.20163227                0.46602129                0.05349908                0.26044713                0.16545255
               8.99754940                9.99788912               20.03911589                0.98860313               -0.02628356               -0.05957132                0.19885830                0.10358902                0.04119191                0.00150803
               9.99695560                9.99736600               20.03876619                0.99874312               -0.05938062               -0.05877825                0.19664574                0.00022909                0.00140979               -0.00140624
              -0.00363490                0.00103614               21.02068551                0.97061606               -0.03115845               -0.03051330                0.10123801                0.00045304               -0.00225581                0.00144832
               0.99605352                0.00081861               21.02117699                0.76994508               -0.03144645               -0.03150066                0.10452680                0.00055215               -0.00238017               -0.00136173
               1.99573617                0.00059784               21.02165390                0.22475056               -0.03248281               -0.03199688                0.10668704               -0.00005147               -0.00202487               -0.00071885
               2.99540386                0.00036895               21.02215028                0.02837408               -0.09049916               -0.03313643                0.11096798               -0.11292825                0.04606307               -0.00079157
               3.99392619               -0.00213116               21.02359648                0.09808505               -0.08938565               -0.03094221                0.11996572               -0.15979853                0.04149181               -0.00203612
               4.99361615               -0.00131089               21.02427764                0.30627822               -0.03350207               -0.03643297                0.12107882               -0.00661787                0.00535385               -0.00165611
               5.99325615               -0.00034023               21.02499343                0.84435933               -0.03651523               -0.03699735                0.12271767               -0.00012030                0.00706925               -0.00163946
               6.99288584                0.00064402               21.02570826                0.99874680               -0.03733052               -0.03761025                0.12469371                0.00028234                0.00785542               -0.00123514
               7.99250954                0.00163347               21.02644002                0.99999999               -0.03793829               -0.03820170                0.12665723                0.00030086                0.00915598               -0.00090301
               8.99212708                0.00262759               21.02718089                1.00000000               -0.03855904               -0.03879984                0.12867366                0.00031745                0.00775271                0.00083138
               9.99173836                0.00362600               21.02788435                0.99561612               -0.03887206               -0.03942100                0.13069083                0.00012386                0.00590834                0.00586293
              -0.00341284                1.00073100               21.02071727                0.77308954               -0.03089698               -0.03030047                0.10066843               -0.00011266                0.00098836                0.00229123
               0.99627819                1.00050360               21.02120927                0.01172956               -0.03133352               -0.03127763                0.10422245                0.00040955                0.00220583               -0.00247967
               1.99596048                1.00027787               21.02172038                0.01000000               -0.03195538               -0.03425623                0.10683995               -0.02024810                0.00401797                0.01840085
               2.99563908                1.00003759               21.02224585                0.01000001               -0.13961796               -0.03718667                0.11113057               -0.16233231                0.05562287                0.03853810
               3.99316813                0.99755941               21.02379542                0.01000000               -0.14922891                0.03847219                0.12081208               -0.07883256                0.04301377               -0.00028391
               4.99265450                0.99832478               21.02444797                0.01000000               -0.04453188               -0.01310502                0.12236529                0.04240364               -0.00359930                0.00781234
               5.99227749                0.99928980               21.02511312                0.01000001               -0.03763422               -0.02654274                0.12402919                0.02317802               -0.00305451                0.00584054
               6.99190182                1.00026791               21.02578001                0.60214341               -0.03783639               -0.03778124                0.12596999               -0.00006893               -0.00219371               -0.00490159
               7.99152076                1.00125145               21.02646299                0.96260731               -0.03839143               -0.03837244                0.12792943                0.00000437               -0.00024876               -0.00183337
               8.99113399                1.00223959               21.02716902                0.99999999               -0.03897900               -0.03898613                0.12994432                0.00001480                0.00068636                0.00091285
               9.99074118                1.00323179               21.02787057                1.00000000               -0.03928061               -0.03960630                0.13196095               -0.00018397                0.00048439                0.00745095
              -0.00318236                2.00043013               21.02075315                0.22956613               -0.03028043               -0.03214017                0.09906801               -0.00432189                0.00114210                0.00380352
               0.99651484                2.00019306               21.02121320                0.01000000               -0.05102098               -0.02825736                0.10302204               -0.00653319                0.02614962               -0.00239324
               1.99579722                1.99991271               21.02217222                0.01000001               -0.08195852               -0.01828388                0.11286676               -0.07507731                0.05531418                0.05946169
               2.99487567                1.99962522               21.02313338                0.01000000               -0.08674379               -0.03958625                0.11549071               -0.12554693                0.04386474                0.06750171
               3.99406235                1.99863828               21.02400728                0.01000000               -0.10709171                0.05780581                0.12187989               -0.02723006                0.02988716                0.02977773
               4.99273383                1.99842701               21.02480718                0.01000001               -0.11428897                0.01733996                0.12527922                0.04506110                0.00683935                0.02864579
               5.99177657                1.99912892               21.02538280                0.01141003               -0.09055139               -0.00589683                0.12715169                0.05216161               -0.01993981                0.02559099
               6.99092281                1.99988839               21.02577862                0.01621185               -0.06193090               -0.02481397                0.12711669                0.02212718               -0.02070523                0.01067656
               7.99053795                2.00086602               21.02646727                0.04127513               -0.03878848               -0.03713523                0.12916950                0.00308061               -0.00595080               -0.00301705
               8.99014704                2.00184786               21.02715843                0.82233402               -0.03938393               -0.03934894                0.13121267               -0.00000470               -0.00390488               -0.00073302
               9.98975027                2.00283387               21.02788791                0.99351152               -0.03967649               -0.03998153                0.13325776               -0.00018187               -0.00196908                0.00868436
              -0.00302515                3.00008820               21.02080851                0.04415518               -0.03099195                0.00191895                0.09990174               -0.27252429                0.00123549                0.15950401
               0.99666493                2.99993846               21.02124483                0.01000001               -0.09740382               -0.05026118                0.10399387               -0.26994085                0.06798190                0.15488684
               1.99502678                2.99991219               21.02301793                0.01000000               -0.11311805               -0.03848918                0.11473016               -0.16061587                0.08420716                0.07757935
               2.99440257                2.99924586               21.02380639                0.01000000               -0.06025195               -0.05693803                0.12104058               -0.10531767                0.03791730                0.06118903
               3.99382174                2.99871553               21.02466805                0.01203926               -0.06687444               -0.01922744                0.12584339               -0.03659546                0.02864097                0.04798838
               4.99306508                2.99867158               21.02534018                0.01000000               -0.09812018                0.00335837                0.12931492                0.06166903                0.00750937                0.04495912
               5.99185933                2.99917186               21.02586931                0.01000001               -0.12289157               -0.00157826                0.13116686                0.10795082               -0.02108919                0.06386434
               6.99060725                2.99977164               21.02616230                0.01000001               -0.11182161               -0.00451366                0.13119717                0.11944705               -0.04252471                0.08628792
               7.98962290                3.00050875               21.02646659                0.01277693               -0.07206055               -0.02921834                0.12992720                0.10548228               -0.03200744                0.06954105
               8.98916604                3.00145261               21.02711337                0.01362625               -0.04286895               -0.04426864                0.13245382                0.08624803               -0.00861262                0.05195632
               9.98876552                3.00243216               21.02789823                0.03764257               -0.04005192               -0.09758526                0.13446988                0.09375651               -0.00169130                0.04908249
              -0.00833336                4.00046851               21.02396947                0.11816126               -0.03746126                0.02264435                0.12226690               -0.32285792               -0.00335929                0.16057685
               0.99129203                3.99918783               21.02438900                0.01000000                0.08054288               -0.07796150                0.12434906               -0.26422294               -0.04782388                0.15253565
               1.99327750                3.99914293               21.02390506                0.01000000                0.13369740               -0.11829222                0.12146663               -0.11499875               -0.03101739                0.06961040
               2.99396598                3.99848646               21.02457818                0.01204021                0.03136136               -0.09329792                0.12569942               -0.05044125                0.02547506                0.04886270
               3.99390473                3.99825373               21.02521037                0.01000000               -0.02275469               -0.06343921                0.12982975                0.03684459                0.02782624                0.04248980
               4.99351088                3.99849417               21.02594907                0.01000001               -0.05346002               -0.03782629                0.13381676                0.11465778                0.03658867                0.06628424
               5.99283553                3.99909735               21.02681159                0.01000001               -0.07680121               -0.02111769                0.13761582                0.18086712                0.03484332                0.10751131
               6.99197486                3.99979812               21.02760591                0.01211589               -0.09344516               -0.01730152                0.14073050                0.20208452                0.00142825                0.13253299
               7.99096662                4.00028166               21.02791484                0.01034870               -0.10131352               -0.02770586                0.14133263                0.20737675               -0.03353288                0.15475302
               8.98994859                4.00096249               21.02815636                0.01000000               -0.06501603               -0.05788854                0.14160422                0.16673018               -0.02731115                0.17543742
               9.98966630                4.00088217               21.02872302                0.06285130               -0.02822865               -0.15022190                0.14350976                0.12835234               -0.00939769                0.16131568
              -0.00692096                5.00054109               21.02428520                0.32588306               -0.03729863               -0.01280748                0.12302062               -0.03602793               -0.00354481                0.01753042
               0.99270605                4.99837923               21.02464547                0.01000000                0.01745704               -0.06121700                0.12550156                0.03057240               -0.01973084               -0.00221909
               1.99342818                4.99754635               21.02468729                0.01000001                0.07884485               -0.14113595                0.12595116                0.03761607               -0.01567608                0.02913259
               2.99428295                4.99737991               21.02506654                0.01000000                0.05613689               -0.13932391                0.12893966                0.06902241                0.02118992                0.02097787
               3.99455092                4.99744675               21.02578003                0.01000001                0.01158360               -0.09928032                0.13361393                0.12553015                0.05871051                0.04244542
               4.99451462                4.99791505               21.02686186                0.01000001               -0.01890919               -0.06958614                0.13971227                0.18922157                0.08479492                0.08543389
               5.99417273                4.99874951               21.02809277                0.01223755               -0.05249898               -0.05091864                0.14631016                0.21284469                0.06452026                0.10521210
               6.99346464                4.99942560               21.02879583                0.01047831               -0.07833327               -0.04323148                0.15077034                0.20836964                0.03629433                0.13285262
               7.99260607                4.99995463               21.02952888                0.01000000               -0.07822530               -0.02980638                0.15525470                0.20924168                0.04928003                0.20860248
               8.99190013                5.00029484               21.03056209                0.01000000               -0.05564258               -0.05978992                0.15711400                0.15961164                0.04322360                0.27202472
               9.99149321                4.99942772               21.03121249                0.01476514               -0.04069192               -0.10664344                0.15553391                0.08734617                0.02319336                0.25947600
              -0.00473020                6.00021236               21.02454098                0.91583368               -0.03715857               -0.03469359                0.12269610               -0.00263242               -0.00372279                0.01458820
               0.99489822                5.99796349               21.02478645                0.01000001               -0.01203296               -0.03968321                0.12503534                0.02775084               -0.01015182               -0.00881086
               1.99502914                5.99632021               21.02490834                0.01141453                0.02739056               -0.11144796                0.12725008                0.05421898                0.00218044               -0.01758808
               2.99544603                5.99569998               21.02537274                0.01000001                0.04255212               -0.16963600                0.13088274                0.12702353                0.05113299               -0.01951501
               3.99588019                5.99626812               21.02638095                0.01000001                0.02732628               -0.12461226                0.13731298                0.21142416                0.10493821                0.03113874
               4.99599255                5.99710245               21.02784939                0.01223923               -0.01491596               -0.09045100                0.14655843                0.22798940                0.11133433                0.05796885
               5.99558187                5.99807898               21.02894430                0.01054877               -0.05277129               -0.07158007                0.15496653                0.22575245                0.10026383                0.08941073
               6.99493713                5.99893349               21.03018639                0.01000000               -0.06498210               -0.04416629                0.16486509                0.23020524                0.13511014                0.18450470
               7.99428222                5.99968553               21.03196249                0.01000000               -0.06346966               -0.02298478                0.17009984                0.20920279                0.15117520                0.30204484
               8.99366773                5.99976669               21.03350863                0.01109009               -0.05673816               -0.04174620                0.16723295                0.12391679                0.09237746                0.30448145
               9.99314746                5.99874930               21.03413010                0.08293027               -0.05202735               -0.04767363                0.16748915                0.05123569                0.04462213                0.27358481
              -0.00247589                6.99984721               21.02479498                0.99999999               -0.03708991               -0.03654346                0.12251334               -0.00016564               -0.00299535                0.01720125
               0.99715321                6.99758556               21.02492789                0.70581023               -0.03740202               -0.03765745                0.12467836               -0.00039305               -0.01101987               -0.00630511
               1.99677607                6.99531739               21.02490390                0.01621831               -0.01388536               -0.06915118                0.12664698                0.02088475               -0.00066357               -0.02537767
               2.99687550                6.99398719               21.02524773                0.01000001                0.03004290               -0.14917964                0.12997885                0.14439771                0.08252042               -0.06272566
               3.99737693                6.99495450               21.02681994                0.01212060                0.01940242               -0.13233552                0.14027363                0.24499839                0.14141666               -0.01153417
               4.99726355                6.99610603               21.02824258                0.01048312               -0.02600933               -0.10202253                0.15118539                0.24075721                0.14972610                0.02386028
               5.99685674                6.99731791               21.02992054                0.01000000               -0.04006787               -0.07362320                0.16705323                0.25194991                0.20434204                0.12160125
               6.99646220                6.99854228               21.03236571                0.01000000               -0.04499111               -0.04056982                0.17903972                0.25130357                0.27373211                0.26372117
               7.99595692                6.99949494               21.03534999                0.01132708               -0.05737484               -0.02015269                0.17738898                0.19744693                0.21535829                0.27606442
               8.99531470                6.99945991               21.03650181                0.01000002               -0.07021030               -0.02303593                0.18108750                0.10601977                0.08450638                0.41262654
               9.99455271                6.99847425               21.03684679                0.08913215               -0.07619848               -0.00004723                0.18152054                0.05528234                0.03912783                0.35126213
              -0.00021021                7.99948149               21.02510512                0.99089855               -0.03696111               -0.03656970                0.12225648               -0.00012145               -0.00230800                0.02131010
               0.99942018                7.99721035               21.02512353                0.94885698               -0.03722888               -0.03739118                0.12426292               -0.00009898               -0.00378943               -0.00093292
               1.99904522                7.99493719               21.02511325                0.04851782               -0.03616559               -0.03798172                0.12617860                0.00255577               -0.01563922               -0.01553606
               2.99869687                7.99271639               21.02489502                0.01278488               -0.01919536               -0.08577668                0.12930131                0.13741456                0.07479566               -0.05193563
               3.99866131                7.99362141               21.02669089                0.01035958               -0.01262889               -0.12892621                0.13951084                0.26878872                0.18595050               -0.05434387
               4.99844429                7.99506200               21.02863294                0.01000000               -0.02383461               -0.09183978                0.15621759                0.26512479                0.23996503                0.03543785
               5.99818462                7.99660651               21.03142283                0.01000000               -0.03290619               -0.06553560                0.17678896                0.25318457                0.34224061                0.14230109
               6.99778617                7.99812209               21.03533782                0.01136604               -0.04355440               -0.04930589                0.19805299                0.22649192                0.30320573                0.19359663
               7.99731353                7.99928247               21.03722810                0.01000002               -0.04886744               -0.01691866                0.19204545                0.10557335                0.32589077                0.45529575
               8.99680882                7.99930597               21.04149079                0.12666117               -0.05445440               -0.03701782                0.19492523                0.07585834                0.22948239                0.26283275
               9.99622444                7.99874835               21.04116186                0.61438779               -0.05843794               -0.01556086                0.19436172                0.05555740                0.00015329                0.22517242
               0.00206396                8.99911582               21.02544007                1.00000000               -0.03684328               -0.03651876                0.12186951               -0.00005793                0.00151055                0.01818993
               1.00169553                8.99683774               21.02537303                0.99999999               -0.03714102               -0.03717924                0.12380692               -0.00000343                0.00142121                0.00134996
               2.00132114                8.99455775               21.02530408                0.76888376               -0.03779810               -0.03785792                0.12577236               -0.00025347               -0.00287224               -0.01108449
               3.00093957                8.99227165               21.02515082                0.01373934               -0.04570264               -0.04138859                0.12775644                0.11751367                0.06496672               -0.01294525
               4.00040709                8.99237598               21.02643737                0.01000000               -0.06793107               -0.07086096                0.13804601                0.22699746                0.21778465               -0.04437868
               4.99958095                8.99426924               21.02934191                0.01000000               -0.07733750               -0.05561088                0.15928746                0.21664403                0.32531645                0.03435014
               5.99886034                8.99600719               21.03282294                0.01120679               -0.06324366               -0.05431567                0.17974265                0.16305535                0.33852075                0.08780778
               6.99831608                8.99755616               21.03602006                0.01000002               -0.09879170               -0.06767729                0.21021190                0.15019939                0.58524931                0.06959583
               7.99688451                8.99915656               21.04462396                0.15628271               -0.04750446               -0.02106188                0.33302925                0.06587635                0.30382893                0.40304796
               8.99736599                8.99871956               21.04131787                0.99999998               -0.00527036               -0.05899997                0.19654798                0.00606178               -0.14855725                0.00323037
               9.99677910                8.99816303               21.04094841                0.98876260               -0.05868859               -0.05877621                0.19592308               -0.00031623               -0.00157656               -0.00119819
               0.00434480                9.99875111               21.02568478                0.99561985               -0.03666175               -0.03647092                0.12139161               -0.00035177                0.01345076                0.01374960
               1.00397818                9.99646676               21.02561299                1.00000000               -0.03692820               -0.03709785                0.12333641               -0.00028927                0.01643210                0.00091909
               2.00360623                9.99418003               21.02560062                1.00000000               -0.03746293               -0.03777248                0.12544127               -0.00039827                0.01953871               -0.00576772
               3.00322892                9.99188862               21.02559063                0.02269751               -0.12012794               -0.03830356                0.12720443                0.13014345                0.07311466               -0.00380734
               4.00120367                9.99220420               21.02665028                0.06346869               -0.20414831               -0.01717813                0.13814166                0.18271667                0.21460555               -0.01864514
               4.99914595                9.99394978               21.02974611                0.01501268               -0.15224388               -0.03194522                0.15778645                0.12230099                0.32478362                0.01930455
               5.99815880                9.99552020               21.03324391                0.08272400               -0.07525842               -0.04869926                0.18269125                0.07078382                0.31751894                0.04251666
               6.99764079                9.99676855               21.03634064                0.09063332               -0.03455689               -0.07876138                0.22491987                0.09952289                0.53818566                0.05259427
               7.99746766                9.99886124               21.04441380                0.64686494                0.01414011               -0.02953273                0.28840003                0.12618652                0.31361892                0.12216805
               8.99792359                9.99812597               21.04110465                0.98876308               -0.00682449               -0.05935835                0.19816606               -0.00866004               -0.14585766                0.00165987
               9.99733117                9.99757283               21.04073514                0.99893763               -0.05924193               -0.05902003                0.19754865               -0.00010742                0.00108836               -0.00146791
              -0.00417101                0.00101700               22.02169543                0.99920595               -0.02963034               -0.02902549                0.09644781                0.00105689               -0.00352063                0.00039859
               0.99553269                0.00077114               22.02222238                0.77087130               -0.03057121               -0.03057177                0.10169540                0.00053491               -0.00382985               -0.00210016
               1.99521756                0.00052512               22.02271897                0.22560822               -0.03276571               -0.03230443                0.10687646               -0.00000677               -0.00224290               -0.00073357
               2.99487737                0.00026391               22.02326667                0.02965103               -0.09755729               -0.03322571                0.11181145               -0.11748933                0.04866866               -0.00097898
               3.99326642               -0.00235476               22.02479482                0.09881583               -0.09582064               -0.02977200                0.11967228               -0.16614312                0.04402099               -0.00205419
               4.99296096               -0.00150428               22.02548859                0.30514268               -0.03324745               -0.03639817                0.12108204               -0.00754240                0.00478133               -0.00167080
               5.99260147               -0.00048291               22.02622095                0.84120069               -0.03649201               -0.03700950                0.12275843               -0.00018286                0.00688246               -0.00164937
               6.99223112                0.00055339               22.02695533                0.99870279               -0.03733143               -0.03761416                0.12470192                0.00027407                0.00782650               -0.00126304
               7.99185484                0.00159503               22.02770651                0.99999999               -0.03793021               -0.03819507                0.12663028                0.00029268                0.00915492               -0.00091835
               8.99147251                0.00264142               22.02846731                1.00000000               -0.03853978               -0.03878192                0.12860844                0.00031038                0.00778116                0.00083261
               9.99108405                0.00369216               22.02919071                0.99572006               -0.03884683               -0.03939141                0.13058718                0.00011558                0.00593524                0.00588297
              -0.00391458                1.00072675               22.02172193                0.77375493               -0.03014488               -0.02931999                0.09737208                0.00002264                0.00030586                0.00111528
               0.99578397                1.00046542               22.02225365                0.01469239               -0.03071567               -0.03063361                0.10262608               -0.00041084                0.00191421               -0.00317883
               1.99547111                1.00020208               22.02279023                0.01000000               -0.03207769               -0.03170587                0.10761958               -0.01588758                0.00405740                0.02101991
               2.99514242                0.99993165               22.02336623                0.01000001               -0.14910133               -0.03752645                0.11255154               -0.16648864                0.05836308                0.04039510
               3.99248908                0.99734752               22.02500230                0.01000000               -0.15964066                0.04245328                0.12057853               -0.07793034                0.04657045                0.00042761
               4.99194961                0.99813174               22.02567187                0.01000000               -0.04591376               -0.01174821                0.12238815                0.04704215               -0.00389997                0.00869684
               5.99157081                0.99914700               22.02635383                0.01000001               -0.03773605               -0.02586990                0.12408652                0.02621862               -0.00325775                0.00678733
               6.99119489                1.00017724               22.02703994                0.59944488               -0.03785293               -0.03778971                0.12599710               -0.00008125               -0.00225800               -0.00498071
               7.99081375                1.00121308               22.02774227                0.96327274               -0.03839156               -0.03836815                0.12791716               -0.00000089               -0.00027099               -0.00185905
               8.99042706                1.00225360               22.02846821                0.99999999               -0.03896426               -0.03897002                0.12989093                0.00001293                0.00069602                0.00091324
               9.99003446                1.00329824               22.02918968                1.00000000               -0.03925909               -0.03957843                0.13186861               -0.00018629                0.00049369                0.00747939
              -0.00364790                2.00043060               22.02173711                0.22989230               -0.03029604               -0.03244876                0.09832644               -0.00496725                0.00135130                0.00367336
               0.99604914                2.00015847               22.02224476                0.01000000               -0.04592599               -0.02808163                0.10376092               -0.00514767                0.02846573               -0.00181477
               1.99543358                1.99989101               22.02329791                0.01000001               -0.08234890               -0.01825128                0.09616471               -0.07763268                0.05341373                0.06091990
               2.99440216                1.99951338               22.02429057                0.01000000               -0.09629253               -0.03993957                0.11993530               -0.12981369                0.04341221                0.07117092
               3.99350773                1.99849430               22.02523483                0.01000000               -0.11499186                0.06195933                0.12253873               -0.02072352                0.03099693                0.03123566
               4.99210232                1.99826076               22.02606159                0.01000001               -0.12136961                0.02052798                0.12565515                0.05408614                0.00648579                0.03096960
               5.99108034                1.99899969               22.02665552                0.01139816               -0.09694592               -0.00293965                0.12729959                0.05957718               -0.02132517                0.02779932
               6.99016340                1.99979759               22.02705016                0.01618876               -0.06509360               -0.02318363                0.12717319                0.02528959               -0.02175898                0.01198564
               7.98977846                2.00082767               22.02775903                0.04137898               -0.03878966               -0.03695466                0.12917133                0.00339859               -0.00592895               -0.00326709
               8.98938761                2.00186202               22.02847035                0.82706610               -0.03937141               -0.03933651                0.13116941               -0.00000644               -0.00387967               -0.00074780
               9.98899104                2.00290059               22.02922004                0.99539023               -0.03965753               -0.03995691                0.13317533               -0.00018371               -0.00194307                0.00867932
              -0.00346965                3.00007777               22.02180808                0.04550150               -0.03097357               -0.00472175                0.09973830               -0.27489100                0.00094152                0.17134153
               0.99622062                2.99990379               22.02229275                0.01000001               -0.09834076               -0.05712909                0.10532977               -0.27273375                0.07051980                0.16578652
               1.99456354                2.99983705               22.02416414                0.01000000               -0.11388844               -0.04456730                0.11863311               -0.16719140                0.08856208                0.08052107
               2.99394285                2.99913286               22.02502295                0.01000000               -0.06181498               -0.05869976                0.12136688               -0.10490648                0.03939360                0.06438793
               3.99332724                2.99858670               22.02593070                0.01201516               -0.07084546               -0.01895861                0.12667973               -0.03071445                0.02916962                0.05008374
               4.99252594                2.99854230               22.02663642                0.01000000               -0.10508621                0.00634995                0.12972414                0.07313723                0.00712729                0.04765840
               5.99122552                2.99908820               22.02718199                0.01000001               -0.13266208                0.00258536                0.13128226                0.12177303               -0.02272980                0.06752318
               6.98987270                2.99971357               22.02747425                0.01000001               -0.12041124               -0.00002348                0.13115272                0.13255465               -0.04530285                0.09154637
               7.98881729                3.00047399               22.02776653                0.01270540               -0.07593457               -0.02692465                0.13005398                0.11614699               -0.03337132                0.07423271
               8.98835401                3.00146687               22.02843773                0.01353581               -0.04318190               -0.04382900                0.13241709                0.09505243               -0.00839434                0.05576804
               9.98795365                3.00249911               22.02924253                0.03927582               -0.04003548               -0.10352230                0.13439824                0.10358122               -0.00169854                0.05289121
              -0.00879775                4.00033617               22.02519360                0.11884003               -0.03670676                0.01774817                0.12255293               -0.32506032               -0.00347397                0.17262737
               0.99083518                3.99901588               22.02563628                0.01000000                0.08292123               -0.08721997                0.12503510               -0.26314040               -0.05017318                0.16370051
               1.99286068                3.99899966               22.02512955                0.01000000                0.13595986               -0.12513959                0.12239039               -0.10955313               -0.03321998                0.07432492
               2.99355438                3.99833939               22.02583990                0.01201606                0.03116647               -0.09727983                0.12664063               -0.04453778                0.02635109                0.05116889
               3.99348400                3.99811513               22.02651172                0.01000000               -0.02454057               -0.06538397                0.13024705                0.04747125                0.02881248                0.04468950
               4.99306357                3.99838775               22.02728937                0.01000001               -0.05697409               -0.03660629                0.13407531                0.13026121                0.03767233                0.06969914
               5.99234452                3.99905140               22.02818833                0.01000001               -0.08174299               -0.01821374                0.13757592                0.20128960                0.03581178                0.11316449
               6.99142871                3.99979712               22.02901146                0.01201820               -0.09982103               -0.01310937                0.14033762                0.22332629                0.00122568                0.14031289
               7.99034810                4.00028918               22.02932603                0.01024221               -0.10825826               -0.02342882                0.14082666                0.22907760               -0.03488021                0.16527216
               8.98926354                4.00098544               22.02956997                0.01000000               -0.06749548               -0.05688924                0.14110784                0.18368734               -0.02793150                0.18615532
               9.98899819                4.00083014               22.03015671                0.06288317               -0.02653511               -0.15962112                0.14320363                0.14043628               -0.00909098                0.17043375
              -0.00733028                5.00043274               22.02552052                0.32361957               -0.03753985               -0.01149427                0.12395853               -0.03872440               -0.00367127                0.01841605
               0.99229432                4.99815939               22.02590592                0.01000000                0.01896276               -0.06400953                0.12639361                0.03335309               -0.02087308               -0.00152754
               1.99304897                4.99733426               22.02595125                0.01000001                0.08211521               -0.14819938                0.12681012                0.04566732               -0.01641481                0.03131559
               2.99393662                4.99718727               22.02635987                0.01000000                0.05896621               -0.14646308                0.12952242                0.08000246                0.02246106                0.02249493
               3.99422830                4.99727902               22.02711908                0.01000001                0.01291359               -0.10309641                0.13398566                0.14097107                0.06144098                0.04473925
               4.99419490                4.99781017               22.02825978                0.01000001               -0.01931785               -0.07023099                0.13965013                0.20977901                0.08859632                0.08995816
               5.99384194                4.99872393               22.02955331                0.01211201               -0.05467250               -0.05031648                0.14567877                0.23506712                0.06781876                0.11161490
               6.99310145                4.99945138               22.03029860                0.01033399               -0.08157086               -0.04102066                0.14960513                0.23134317                0.03876535                0.14223406
               7.99221052                5.00000541               22.03107256                0.01000000               -0.08073284               -0.02559138                0.15379691                0.23288796                0.05101661                0.22116489
               8.99148679                5.00032909               22.03212805                0.01000000               -0.05687751               -0.05797247                0.15605648                0.17743912                0.04259107                0.28298382
               9.99107297                4.99930668               22.03276809                0.01483590               -0.04138157               -0.10873469                0.15554550                0.09657371                0.02120892                0.26961792
              -0.00502554                6.00010628               22.02577220                0.90975997               -0.03737403               -0.03462712                0.12344318               -0.00303597               -0.00383233                0.01485902
               0.99460072                5.99773569               22.02604084                0.01000001               -0.01141586               -0.04016251                0.12568329                0.03064569               -0.01023846               -0.00898333
               1.99474614                5.99603567               22.02618495                0.01140255                0.03044733               -0.11851729                0.12786981                0.06125454                0.00279910               -0.01746665
               2.99520967                5.99541013               22.02668595                0.01000001                0.04671888               -0.17970936                0.13140142                0.14067579                0.05380062               -0.02011067
               3.99568052                5.99605320               22.02775588                0.01000001                0.03022896               -0.12997400                0.13748741                0.23141154                0.11037289                0.03338965
               4.99581425                5.99698313               22.02931276                0.01211348               -0.01379339               -0.09329701                0.14587481                0.24981608                0.11788052                0.06198630
               5.99540465                5.99804507               22.03048759                0.01038830               -0.05200803               -0.07195259                0.15331677                0.24909754                0.10709284                0.09700532
               6.99477409                5.99897671               22.03182151                0.01000000               -0.06382479               -0.04424054                0.16254535                0.25464358                0.14153735                0.19683357
               7.99412816                5.99977735               22.03366487                0.01000000               -0.06315148               -0.02115873                0.16826346                0.23522057                0.15172814                0.30799436
               8.99351106                5.99982599               22.03517633                0.01102285               -0.05768414               -0.03721401                0.16632217                0.14041470                0.09059892                0.31446100
               9.99297447                5.99865545               22.03580703                0.08307408               -0.05365815               -0.04234978                0.16775710                0.05945928                0.04491809                0.28470279
              -0.00264982                6.99974019               22.02602264                0.99999999               -0.03723345               -0.03657639                0.12296820               -0.00020073               -0.00305382                0.01745710
               0.99697784                6.99735614               22.02617658                0.70064581               -0.03752738               -0.03775480                0.12500999               -0.00043709               -0.01114048               -0.00638432
               1.99659963                6.99496392               22.02617128                0.01619503               -0.01226175               -0.07259801                0.12678474                0.02419759               -0.00028280               -0.02562386
               2.99673261                6.99359308               22.02654410                0.01000001                0.03419438               -0.15851107                0.13038316                0.15736742                0.08735565               -0.06271643
               3.99728352                6.99467954               22.02822678                0.01202289                0.02333700               -0.13929712                0.14041450                0.26564266                0.15019310               -0.01140215
               4.99719935                6.99594423               22.02975051                0.01033873               -0.02266009               -0.10607854                0.14993003                0.26290408                0.16031979                0.02731383
               5.99683032                6.99728488               22.03157109                0.01000000               -0.03686566               -0.07430795                0.16334413                0.27310652                0.21754313                0.13149372
               6.99646204                6.99856657               22.03416360                0.01000000               -0.03823331               -0.03566979                0.17624594                0.27298417                0.27569980                0.27020184
               7.99606565                6.99958224               22.03705900                0.01125905               -0.05225267               -0.03772463                0.17537221                0.21165912                0.21555599                0.30326482
               8.99541698                6.99958481               22.03831222                0.01000002               -0.07312045               -0.01544632                0.18018042                0.12535812                0.08905090                0.42454516
               9.99460324                6.99845969               22.03866608                0.08936400               -0.08137410                0.01426963                0.18206118                0.06673335                0.03980434                0.36265362
              -0.00026144                7.99937476               22.02632810                0.99100823               -0.03703023               -0.03651499                0.12239032               -0.00010686               -0.00229187                0.02144582
               0.99936826                7.99698060               22.02636634                0.94904770               -0.03727028               -0.03739223                0.12433048               -0.00006101               -0.00384909               -0.00098844
               1.99899315                7.99458371               22.02637469                0.04894123               -0.03634351               -0.03796326                0.12614616                0.00265440               -0.01288850               -0.01561711
               2.99864139                7.99223990               22.02623243                0.01271325               -0.01754661               -0.08989385                0.13166026                0.14818310                0.07923734               -0.05334680
               3.99864222                7.99326726               22.02808360                0.01025283               -0.00871953               -0.13636765                0.13944548                0.29089388                0.19562527               -0.05575892
               4.99846700                7.99486156               22.03018883                0.01000000               -0.01988898               -0.09461261                0.15472163                0.28620356                0.25793941                0.03950901
               5.99824444                7.99655891               22.03319794                0.01000000               -0.02652957               -0.06576796                0.17320915                0.27353530                0.35534655                0.14485083
               6.99793640                7.99826331               22.03713062                0.01129627               -0.04506686               -0.04088876                0.17514201                0.21496586                0.33508265                0.22567519
               7.99734310                7.99902286               22.03955658                0.01000002               -0.03978178               -0.01694634                0.20563275                0.17929323                0.33205059                0.38308456
               8.99714077                7.99951707               22.04343146                0.12660869               -0.03918623               -0.03246201                0.19322889                0.11130222                0.21001215                0.26799706
               9.99655938                7.99894084               22.04310510                0.61437336               -0.05813892               -0.00515752                0.19442798                0.06909431                0.00014546                0.23053113
               0.00213636                8.99900989               22.02665843                1.00000000               -0.03686908               -0.03645739                0.12187284               -0.00004794                0.00151083                0.01820803
               1.00176767                8.99660829               22.02661084                0.99999999               -0.03714732               -0.03714632                0.12377742                0.00003443                0.00138955                0.00130285
               2.00139341                8.99420465               22.02656131                0.77918240               -0.03774722               -0.03781014                0.12565921               -0.00019586               -0.00292420               -0.01107566
               3.00101272                8.99179520               22.02642714                0.01365545               -0.04568377               -0.04132475                0.12745096                0.12657719                0.06935159               -0.01595760
               4.00047974                8.99195219               22.02782154                0.01000000               -0.06904771               -0.07305016                0.13832398                0.24398064                0.23286284               -0.04469778
               4.99963177                8.99405198               22.03094893                0.01000000               -0.07902314               -0.05613418                0.15882291                0.23196025                0.34268229                0.03548991
               5.99889927                8.99596952               22.03454997                0.01113511               -0.06671815               -0.05206729                0.17440381                0.17461224                0.38321763                0.08942519
               6.99829741                8.99774880               22.03845227                0.01000002               -0.02507558               -0.06544544                0.20234996                0.14636644                0.52789398                0.09291520
               7.99839776                8.99924331               22.04464595                0.15548571               -0.02861820                0.00962719                0.06178509                0.14166464                0.32913411                0.26896156
               8.99772504                8.99893557               22.04327327                0.99999998               -0.06300946               -0.05841608                0.19470739                0.01416847               -0.05198715                0.00288930
               9.99713757                8.99835654               22.04291113                0.98894957               -0.05874690               -0.05888301                0.19662042               -0.00005231               -0.00138497               -0.00116642
               0.00454080                9.99864561               22.02689846                0.99572369               -0.03666141               -0.03642869                0.12135431               -0.00034925                0.01341121                0.01371275
               1.00417419                9.99623767               22.02684617                1.00000000               -0.03692380               -0.03706225                0.12326227               -0.00025279                0.01647079                0.00087625
               2.00380233                9.99382751               22.02685498                1.00000000               -0.03743998               -0.03771415                0.12531646               -0.00032155                0.01950825               -0.00565968
               3.00342539                9.99141341               22.02686295                0.02640425               -0.12686352               -0.03817928                0.12702205                0.14020399                0.07780067               -0.00377886
               4.00126506                9.99180626               22.02803638                0.06353856               -0.21682569               -0.01459347                0.13853419                0.19480555                0.22982120               -0.01850579
               4.99908888                9.99373888               22.03134184                0.01504455               -0.16125947               -0.03130989                0.15860985                0.13127609                0.34767784                0.01774009
               5.99803987                9.99551757               22.03506378                0.08274524               -0.07494696               -0.04519510                0.18135303                0.07483550                0.36469611                0.04757034
               6.99758994                9.99695440               22.03870139                0.09059542                0.04748798               -0.07943941                0.20116098                0.11414489                0.48568356                0.04070675
               7.99898963                9.99921540               22.04443799                0.64331559                0.03604879               -0.00279106                0.06285257                0.12890348                0.30839250               -0.00218318
               8.99831091                9.99834874               22.04307922                0.98894993               -0.06366174               -0.05868237                0.19695014               -0.01402394               -0.04839942                0.00173152
               9.99771639                9.99776318               22.04271716                0.99912397               -0.05945202               -0.05933556                0.19886815               -0.00067423                0.00121209               -0.00148973
              -0.00475923                0.00099110               23.02261447                0.99835726               -0.02873911               -0.02794766                0.09206680                0.00120301               -0.00223956                0.00149811
               0.99495338                0.00071407               23.02321090                0.77235695               -0.02968729               -0.02964176                0.09873843                0.00195582               -0.00259056               -0.00124346
               1.99464702                0.00044063               23.02379143                0.22699666               -0.03259994               -0.03213129                0.10633578                0.00001382               -0.00227388               -0.00093134
               2.99430138                0.00015027               23.02438650                0.03108079               -0.10311675               -0.03286736                0.11144221               -0.12210341                0.04887297               -0.00103127
               3.99258469               -0.00258721               23.02598992                0.09971444               -0.10078665               -0.02848315                0.11927553               -0.17213645                0.04636499               -0.00205617
               4.99228565               -0.00171086               23.02669928                0.30421343               -0.03288151               -0.03634238                0.12102206               -0.00865523                0.00440829               -0.00168633
               5.99192706               -0.00063898               23.02744860                0.83819888               -0.03644172               -0.03700541                0.12274597               -0.00025966                0.00673414               -0.00166061
               6.99155681                0.00044954               23.02820230                0.99869219               -0.03732004               -0.03760700                0.12467333                0.00026784                0.00780254               -0.00128798
               7.99118066                0.00154358               23.02897262                0.99999999               -0.03791566               -0.03818248                0.12658379                0.00028711                0.00915631               -0.00093299
               8.99079850                0.00264244               23.02975306                1.00000000               -0.03851969               -0.03876321                0.12854121                0.00030602                0.00781041                0.00083337
               9.99041026                0.00374571               23.03049610                0.99578570               -0.03882352               -0.03936636                0.13049875                0.00011015                0.00596276                0.00590345
              -0.00447017                1.00071162               23.02266471                0.77496497               -0.02816588               -0.02868286                0.09419232                0.00003349                0.00072927                0.00216836
               0.99524817                1.00041765               23.02326179                0.01000000               -0.03003828               -0.02982023                0.10072541               -0.00111616                0.00177103               -0.00209677
               1.99492906                1.00011932               23.02387277                0.01000000               -0.03269493               -0.03417142                0.10770426               -0.02116938                0.00340282                0.00640646
               2.99459427                0.99982160               23.02449688                0.01000001               -0.15675853               -0.03791798                0.11278661               -0.17428759                0.05851958                0.04558816
               3.99179389                0.99712795               23.02620699                0.01000000               -0.16846468                0.04609048                0.12034382               -0.07846549                0.04950783                0.00093702
               4.99122498                0.99792571               23.02689573                0.01000000               -0.04748140               -0.01036422                0.12235376                0.05101131               -0.00405110                0.00978565
               5.99084426                0.99899097               23.02759485                0.01000001               -0.03783815               -0.02521414                0.12409030                0.02910941               -0.00342713                0.00773686
               6.99046821                1.00007347               23.02829995                0.59671684               -0.03785934               -0.03778705                0.12598641               -0.00009524               -0.00232051               -0.00505138
               7.99008708                1.00116175               23.02902133                0.96395077               -0.03838592               -0.03835765                0.12788453               -0.00000635               -0.00029604               -0.00188418
               8.98970049                1.00225481               23.02976684                0.99999999               -0.03894872               -0.03895299                0.12983464                0.00001111                0.00070325                0.00091239
               9.98930810                1.00335204               23.03050794                1.00000000               -0.03923931               -0.03955495                0.13179046               -0.00018846                0.00050174                0.00750767
              -0.00417062                2.00041744               23.02271968                0.23072040               -0.03060215               -0.03265372                0.09748905               -0.00525135                0.00086490                0.00417116
               0.99552335                2.00011767               23.02328842                0.01000000               -0.05048426               -0.02774935                0.10385062               -0.00945635                0.01299787               -0.00121875
               1.99481969                1.99975721               23.02409551                0.01000001               -0.08581799               -0.02141741                0.10707337               -0.07934989                0.04492298                0.06018378
               2.99380699                1.99939191               23.02553209                0.01000000               -0.09542145               -0.04186541                0.11899256               -0.12964982                0.05491675                0.07381475
               3.99291126                1.99833459               23.02645805                0.01000000               -0.11820680                0.06561811                0.12272736               -0.01561399                0.02766797                0.03287825
               4.99144286                1.99808185               23.02732028                0.01000001               -0.12748838                0.02356245                0.12571740                0.06267536                0.00618925                0.03340595
               5.99036149                1.99885674               23.02792880                0.01139269               -0.10293677               -0.00007263                0.12731213                0.06672911               -0.02293036                0.03004121
               6.98938412                1.99969379               23.02832209                0.01617590               -0.06811536               -0.02161013                0.12719111                0.02840665               -0.02281783                0.01323339
               7.98899919                2.00077642               23.02905070                0.04141384               -0.03878463               -0.03676763                0.12915221                0.00372535               -0.00592129               -0.00345931
               8.98860843                2.00186338               23.02978182                0.83175323               -0.03935786               -0.03932279                0.13112238               -0.00000819               -0.00386050               -0.00076616
               9.98821203                2.00295461               23.03055142                0.99726086               -0.03964009               -0.03993646                0.13310626               -0.00018540               -0.00191979                0.00867420
              -0.00397565                3.00005855               23.02280327                0.04693561               -0.03050739               -0.01044096                0.09923911               -0.27546733                0.00081545                0.18184647
               0.99571928                2.99986267               23.02335143                0.01000001               -0.09782661               -0.06344962                0.10570826               -0.27691592                0.07562930                0.17485090
               1.99406782                2.99969097               23.02539059                0.01000000               -0.11476961               -0.04574450                0.11818415               -0.16442933                0.09197337                0.09657437
               2.99342388                2.99898429               23.02623373                0.01000000               -0.06380745               -0.06094972                0.12230171               -0.09734092                0.03616132                0.06290527
               3.99279167                2.99844032               23.02720165                0.01199914               -0.07337721               -0.01877241                0.12679386               -0.02335420                0.02961277                0.05238126
               4.99195634                2.99839696               23.02793466                0.01000000               -0.11123829                0.00914694                0.12978182                0.08470288                0.00617937                0.05020759
               5.99056690                2.99898951               23.02849495                0.01000001               -0.14198391                0.00662907                0.13119001                0.13562396               -0.02457167                0.07113728
               6.98911666                2.99964126               23.02878536                0.01000001               -0.12874534                0.00431162                0.13103051                0.14572177               -0.04804718                0.09660349
               7.98799200                3.00042640               23.02906767                0.01265237               -0.07972569               -0.02476802                0.13016122                0.12692107               -0.03468856                0.07862947
               8.98752215                3.00146835               23.02976171                0.01347619               -0.04350260               -0.04340544                0.13237583                0.10388823               -0.00824233                0.05933850
               9.98712194                3.00255331               23.03058619                0.04095429               -0.04002036               -0.10946617                0.13433939                0.11344408               -0.00170540                0.05656292
              -0.00928821                4.00020862               23.02642053                0.11967515               -0.03591821                0.01361301                0.12278586               -0.32547245               -0.00359453                0.18573038
               0.99035261                3.99884867               23.02688971                0.01000000                0.08488444               -0.09592714                0.12555522               -0.26138638               -0.05314157                0.17445455
               1.99240948                3.99884232               23.02635287                0.01000000                0.13791117               -0.12868523                0.12294566               -0.10488208               -0.03589056                0.07519766
               2.99311083                3.99817292               23.02711099                0.01200016                0.03110116               -0.10002661                0.12689567               -0.03713533                0.02709778                0.05374687
               3.99303150                3.99795915               23.02781531                0.01000000               -0.02615578               -0.06714743                0.13036002                0.05900178                0.02915208                0.04654174
               4.99258772                3.99826479               23.02863058                0.01000001               -0.06009155               -0.03530679                0.13392285                0.14630710                0.03838330                0.07297211
               5.99182967                3.99898932               23.02956311                0.01000001               -0.08630214               -0.01534846                0.13723118                0.22193095                0.03636455                0.11865937
               6.99086167                3.99978003               23.03041266                0.01194555               -0.10595774               -0.00905106                0.13979006                0.24478893                0.00057763                0.14773072
               7.98971052                4.00028106               23.03073137                0.01015941               -0.11511965               -0.01936532                0.14024303                0.25100973               -0.03655811                0.17533606
               8.98855928                4.00099527               23.03097852                0.01000000               -0.06997624               -0.05601047                0.14055856                0.20092482               -0.02875279                0.19644573
               9.98831099                4.00076528               23.03158710                0.06294295               -0.02482881               -0.16917761                0.14279525                0.15276943               -0.00900351                0.17987374
              -0.00776520                5.00033081               23.02676437                0.32169074               -0.03769434               -0.01006023                0.12468511               -0.04146409               -0.00375326                0.01965254
               0.99185785                4.99794412               23.02717335                0.01000000                0.02055674               -0.06677513                0.12695583                0.03572763               -0.02181360               -0.00070131
               1.99264593                4.99711727               23.02722350                0.01000001                0.08532461               -0.15457320                0.12725234                0.05350827               -0.01734312                0.03374171
               2.99356435                4.99698376               23.02765699                0.01000000                0.06169485               -0.15296852                0.12972728                0.09101839                0.02326263                0.02368213
               3.99387983                4.99709737               23.02845975                0.01000001                0.01439810               -0.10654659                0.13389393                0.15681989                0.06374444                0.04701749
               4.99385231                4.99769083               23.02965487                0.01000001               -0.01947712               -0.07066706                0.13916278                0.23079573                0.09187418                0.09427615
               5.99349029                4.99868255               23.03100634                0.01201851               -0.05658054               -0.04940065                0.14468285                0.25773595                0.07043460                0.11769685
               6.99272070                4.99946024               23.03178793                0.01022406               -0.08466708               -0.03874313                0.14822371                0.25427351                0.04075657                0.15148098
               7.99179694                5.00003909               23.03260482                0.01000000               -0.08321367               -0.02110439                0.15230461                0.25696718                0.05227829                0.23257346
               8.99105642                5.00034814               23.03368322                0.01000000               -0.05798163               -0.05617614                0.15488778                0.19544705                0.04167997                0.29414326
               9.99063731                4.99916976               23.03432340                0.01493254               -0.04191114               -0.11099569                0.15531951                0.10583373                0.01926438                0.28068044
              -0.00534412                6.00000742               23.02700984                0.90402315               -0.03751779               -0.03451773                0.12400133               -0.00340724               -0.00390006                0.01500648
               0.99428070                5.99751317               23.02730011                0.01000001               -0.01079332               -0.04058719                0.12609242                0.03336710               -0.01025599               -0.00918589
               1.99444001                5.99575085               23.02746574                0.01139710                0.03352006               -0.12510503                0.12819682                0.06786729                0.00338910               -0.01757179
               2.99495110                5.99511355               23.02800077                0.01000001                0.05104096               -0.18986916                0.13152176                0.15400682                0.05630653               -0.01992687
               3.99546083                5.99582821               23.02913069                0.01000001                0.03336761               -0.13493129                0.13719463                0.25162277                0.11529069                0.03557527
               4.99561845                5.99685145               23.03076688                0.01202005               -0.01229273               -0.09572934                0.14466266                0.27232099                0.12356489                0.06573591
               5.99521498                5.99800131               23.03201064                0.01026720               -0.05139280               -0.07225561                0.15119673                0.27289710                0.11367504                0.10423818
               6.99459060                5.99900516               23.03343729                0.01000000               -0.06265084               -0.04115197                0.15988446                0.28126255                0.14667319                0.20781499
               7.99396196                5.99985897               23.03532776                0.01000000               -0.06265217               -0.01852828                0.16542751                0.25945306                0.15193282                0.32041165
               8.99333755                5.99987175               23.03683508                0.01095862               -0.05887620               -0.03262242                0.16521040                0.15593053                0.08894566                0.32525659
               9.99278444                5.99854537               23.03748525                0.08323887               -0.05531189               -0.03702575                0.16752579                0.06754990                0.04456001                0.29659213
              -0.00284486                6.99964045               23.02725434                0.99999999               -0.03733844               -0.03664052                0.12334423               -0.00022666               -0.00312852                0.01757829
               0.99678176                6.99713238               23.02742809                0.69541738               -0.03761215               -0.03784241                0.12526292               -0.00046852               -0.01133402               -0.00653745
               1.99640290                6.99461517               23.02743960                0.01618222               -0.01073206               -0.07580188                0.12687187                0.02676647                0.00071211               -0.02607188
               2.99656712                6.99318637               23.02785539                0.01000001                0.03857391               -0.16735678                0.13096682                0.17025893                0.09194820               -0.06391913
               3.99717438                6.99439874               23.02962823                0.01195004                0.02792582               -0.14583697                0.13959145                0.28732271                0.15768199               -0.01079046
               4.99712564                6.99577624               23.03124118                0.01022883               -0.01899326               -0.10988464                0.14798061                0.28544882                0.16991822                0.03091563
               5.99679451                6.99723743               23.03318742                0.01000000               -0.03186777               -0.07383272                0.15951845                0.29978703                0.22844590                0.13880446
               6.99648828                6.99863720               23.03589063                0.01000000               -0.03375469               -0.03291216                0.16991221                0.29848404                0.28518908                0.27719054
               7.99611942                6.99966853               23.03885743                0.01119373               -0.04998201               -0.02508766                0.17477780                0.23751190                0.21545485                0.31255676
               8.99548864                6.99969570               23.04010542                0.01000002               -0.07391743               -0.00834445                0.17797867                0.14418499                0.08734457                0.43703391
               9.99464107                6.99842925               23.04048801                0.08961442               -0.08475679                0.02842786                0.18208383                0.07813590                0.04075092                0.37430067
              -0.00033251                7.99927461               23.02755293                0.99109483               -0.03708776               -0.03654129                0.12259723               -0.00011690               -0.00233042                0.02152966
               0.99929661                7.99675632               23.02761014                0.94921929               -0.03730727               -0.03742082                0.12443421               -0.00005532               -0.00394387               -0.00106988
               1.99892135                7.99423481               23.02763618                0.04945519               -0.03619542               -0.03796069                0.12613976                0.00267735               -0.01221355               -0.01572312
               2.99857271                7.99176641               23.02752822                0.01266000               -0.01519640               -0.09321923                0.12871316                0.15879579                0.08432076               -0.05481075
               3.99861742                7.99291148               23.02947979                0.01016989               -0.00419836               -0.14347490                0.13896008                0.31277617                0.20666847               -0.05682220
               4.99848874                7.99465376               23.03172737                0.01000000               -0.01338321               -0.09751086                0.15216974                0.30968521                0.27247514                0.04291971
               5.99834975                7.99652465               23.03488701                0.01000000               -0.01797767               -0.06537884                0.16565737                0.29599999                0.36625159                0.15158318
               6.99812919                7.99834692               23.03884066                0.01122905               -0.03480250               -0.03967532                0.16693039                0.25611337                0.34170375                0.21839806
               7.99765370                7.99935722               23.04134075                0.01000002               -0.03343247               -0.00070712                0.17493187                0.19423556                0.35208881                0.37715122
               8.99746054                7.99970486               23.04535536                0.12656787               -0.03868249               -0.02830560                0.19190774                0.11645618                0.21595221                0.27280087
               9.99688006                7.99911393               23.04505042                0.61438076               -0.05804811                0.00491980                0.19464843                0.08263679                0.00006536                0.23566704
               0.00218938                8.99890963               23.02787753                1.00000000               -0.03689292               -0.03646440                0.12197401               -0.00006100                0.00150193                0.01828748
               1.00182045                8.99638396               23.02784858                0.99999999               -0.03715075               -0.03713501                0.12377132                0.00003957                0.00136056                0.00129882
               2.00144636                8.99385595               23.02781726                0.78937366               -0.03770362               -0.03776544                0.12551978               -0.00018488               -0.00304280               -0.01104558
               3.00106637                8.99132199               23.02769984                0.01360265               -0.04519021               -0.04124937                0.12710635                0.13520590                0.07379253               -0.01694549
               4.00054256                8.99152924               23.02920385                0.01000000               -0.06801056               -0.07535358                0.13737235                0.26039099                0.24673011               -0.04536134
               4.99970616                8.99382602               23.03251837                0.01000000               -0.07606024               -0.05674965                0.15539126                0.24919896                0.36350439                0.03663503
               5.99902135                8.99592986               23.03631101                0.01106638               -0.04640919               -0.05403343                0.16813561                0.18805434                0.39315615                0.09336370
               6.99877798                8.99784370               23.04006706                0.01000002               -0.01875793               -0.06312376                0.16272046                0.17877977                0.51417113                0.08554854
               7.99864619                8.99965438               23.04585966                0.15471334               -0.03584597               -0.00618652                0.14390637                0.14449330                0.28456445                0.24852570
               8.99806106                8.99912958               23.04521202                0.99999998               -0.05852574               -0.05780753                0.19355256                0.00445721               -0.01688371                0.00215631
               9.99747568                8.99852764               23.04488082                0.98915375               -0.05853816               -0.05914792                0.19710769               -0.00022130               -0.00096835               -0.00095164
               0.00471760                9.99854532               23.02811186                0.99578960               -0.03665220               -0.03643083                0.12134554               -0.00034711                0.01344751                0.01376145
               1.00435108                9.99601362               23.02807823                1.00000000               -0.03689888               -0.03703406                0.12314288               -0.00022739                0.01657549                0.00088372
               2.00397962                9.99347951               23.02810695                1.00000000               -0.03737720               -0.03764486                0.12505875               -0.00028365                0.01951059               -0.00554749
               3.00360353                9.99094142               23.02813107                0.02984979               -0.13292090               -0.03805656                0.12658881                0.14996099                0.08266160               -0.00384380
               4.00132120                9.99140440               23.02942096                0.06363365               -0.22657142               -0.01248402                0.13769621                0.20673197                0.24495921               -0.01879554
               4.99907211                9.99351877               23.03291830                0.01509225               -0.16140182               -0.03072579                0.15581680                0.13857336                0.37256054                0.01674250
               5.99809317                9.99544398               23.03687097                0.08276903               -0.05459264               -0.04858723                0.17174303                0.08546579                0.38165949                0.04830446
               6.99798025                9.99708445               23.04036385                0.09058147                0.05822576               -0.07592501                0.16701925                0.10970280                0.47002314                0.03750264
               7.99925768                9.99923349               23.04567085                0.64029413                0.03480854               -0.04208931                0.14642073                0.13436233                0.26326213               -0.01137315
               8.99867642                9.99854871               23.04504366                0.98915389               -0.05890846               -0.05808732                0.19621047               -0.00358971               -0.01387771                0.00107132
               9.99807951                9.99793097               23.04471250                0.99929988               -0.05969093               -0.05966731                0.19975982               -0.00139057                0.00096053               -0.00103446
              -0.00540867                0.00094648               24.02353676                0.99748925               -0.02874178               -0.02815714                0.09283286                0.00125099               -0.00200306                0.00160909
               0.99430392                0.00064448               24.02419715                0.77252207               -0.02974262               -0.02985137                0.09874640                0.00060845               -0.00272979               -0.00086987
               1.99399648                0.00034381               24.02484568                0.22773597               -0.03237926               -0.03176831                0.10479540               -0.00033775               -0.00320471               -0.00085389
               2.99365633                0.00002253               24.02549552                0.03250043               -0.10577700               -0.03246985                0.10997574               -0.12646578                0.04896819               -0.00112169
               3.99188094               -0.00283002               24.02718033                0.10073817               -0.10329414               -0.02718441                0.11876284               -0.17772747                0.04921607               -0.00202298
               4.99159045               -0.00193091               24.02790903                0.30346102               -0.03239024               -0.03626338                0.12089299               -0.00990102                0.00426736               -0.00170050
               5.99123314               -0.00080861               24.02867586                0.83535117               -0.03636513               -0.03698477                0.12268055               -0.00034769                0.00662328               -0.00167289
               6.99086315                0.00033231               24.02944880                0.99871713               -0.03729660               -0.03758873                0.12460862                0.00026381                0.00778360               -0.00131015
               7.99048720                0.00147896               24.03023818                0.99999999               -0.03789480               -0.03816389                0.12651821                0.00028439                0.00916032               -0.00094684
               8.99010525                0.00263053               24.03103813                1.00000000               -0.03849885               -0.03874365                0.12847213                0.00030441                0.00784056                0.00083376
               9.98971723                0.00378654               24.03180068                0.99582009               -0.03880216               -0.03934579                0.13042566                0.00010767                0.00599084                0.00592422
              -0.00509416                1.00066491               24.02360578                0.77483323               -0.02945068               -0.02855057                0.09465207                0.00013475                0.00076994                0.00196035
               0.99461134                1.00034596               24.02426816                0.01000000               -0.03008825               -0.03000097                0.10060279               -0.00047184                0.00086012               -0.00186667
               1.99430408                1.00002612               24.02494432                0.01000000               -0.03163737               -0.03834739                0.10654808               -0.02781236                0.00214936                0.01931217
               2.99397859                0.99969783               24.02562196                0.01000001               -0.16118450               -0.03848502                0.11179546               -0.18231842                0.05844276                0.04540829
               3.99108039                0.99689813               24.02740918                0.01000000               -0.17489280                0.04936194                0.12004133               -0.07997101                0.05242257                0.00175929
               4.99048073                0.99770645               24.02811895                0.01000000               -0.04911708               -0.00895718                0.12225190                0.05441611               -0.00408648                0.01074274
               5.99009805                0.99882154               24.02883563                0.01000001               -0.03793693               -0.02454884                0.12403927                0.03183786               -0.00356758                0.00867395
               6.98972199                0.99995643               24.02955967                0.59398804               -0.03785525               -0.03777295                0.12593708               -0.00011067               -0.00238142               -0.00511414
               7.98934094                1.00109733               24.03029996                0.96464328               -0.03837435               -0.03834082                0.12783098               -0.00001167               -0.00032356               -0.00190869
               8.98895451                1.00224309               24.03106490                0.99999999               -0.03893226               -0.03893489                0.12977497                0.00000940                0.00070818                0.00091040
               9.98856230                1.00339308               24.03182549                1.00000000               -0.03922110               -0.03953563                0.13172582               -0.00019038                0.00050848                0.00753588
              -0.00476809                2.00037547               24.02368689                0.23091194               -0.02986497               -0.03255273                0.09672181               -0.00587507                0.00063567                0.00394337
               0.99493326                2.00004446               24.02432177                0.01000000               -0.05717724               -0.02732228                0.10282911               -0.01320300                0.02512655               -0.00122983
               1.99408837                1.99957686               24.02543938                0.01000001               -0.08976538               -0.02574701                0.12564111               -0.07875020                0.04890820                0.06455742
               2.99313795                1.99925283               24.02667042                0.01000000               -0.09077340               -0.04428826                0.11584870               -0.12716056                0.04719698                0.07742678
               3.99227290                1.99815721               24.02768938                0.01000000               -0.11912954                0.06894697                0.12234285               -0.01123566                0.02976271                0.03425158
               4.99075536                1.99788994               24.02857594                0.01000001               -0.13264892                0.02648473                0.12550323                0.07093416                0.00556855                0.03578047
               5.98961992                1.99870041               24.02920177                0.01139146               -0.10851097                0.00275460                0.12718424                0.07361272               -0.02438222                0.03221636
               6.98858514                1.99957686               24.02959399                0.01617032               -0.07098072               -0.02006794                0.12716690                0.03143944               -0.02386760                0.01440169
               7.98820031                2.00071215               24.03034207                0.04139383               -0.03877303               -0.03657106                0.12911084                0.00406013               -0.00592734               -0.00359481
               8.98780968                2.00185183               24.03109280                0.83639625               -0.03934300               -0.03930740                0.13107042               -0.00000980               -0.00384729               -0.00078781
               9.98741345                2.00299582               24.03188217                0.99911590               -0.03962376               -0.03991973                0.13304918               -0.00018663               -0.00189920                0.00866956
              -0.00454964                3.00001385               24.02379287                0.04831345               -0.03044725               -0.01428954                0.09881882               -0.27342855                0.00062197                0.19238489
               0.99514588                2.99979952               24.02440692                0.01000001               -0.09648267               -0.06807021                0.10498460               -0.27979595                0.07609783                0.18386246
               1.99352070                2.99951118               24.02652782                0.01000000               -0.11454309               -0.04530740                0.11594110               -0.15771211                0.09545272                0.09182145
               2.99285502                2.99881207               24.02746899                0.01000000               -0.06510712               -0.06308827                0.12296474               -0.08690862                0.03877235                0.06813046
               3.99221856                2.99827707               24.02846658                0.01198877               -0.07494004               -0.01846745                0.12637503               -0.01506792                0.02952288                0.05448294
               4.99135622                2.99823615               24.02923205                0.01000000               -0.11675854                0.01185253                0.12949616                0.09638133                0.00553814                0.05278834
               5.98988339                2.99887663               24.02980579                0.01000001               -0.15085888                0.01063957                0.13090218                0.14943662               -0.02643619                0.07458468
               6.98833904                2.99955507               24.03009486                0.01000001               -0.13681105                0.00861535                0.13083151                0.15880651               -0.05064268                0.10135965
               7.98714717                3.00036590               24.03036975                0.01261384               -0.08342043               -0.02267013                0.13023963                0.13763257               -0.03594101                0.08274291
               8.98667064                3.00145694               24.03108525                0.01344513               -0.04382960               -0.04294947                0.13232784                0.11259309               -0.00815534                0.06262715
               9.98627058                3.00259468               24.03192932                0.04267521               -0.04000583               -0.11527080                0.13429141                0.12314995               -0.00171191                0.06001442
              -0.00980799                4.00008968               24.02764931                0.12061946               -0.03519939                0.01113102                0.12299449               -0.32434453               -0.00371442                0.19975071
               0.98984001                3.99868305               24.02814739                0.01000000                0.08647859               -0.10322820                0.12586634               -0.25829618               -0.05593289                0.18533029
               1.99192158                3.99867071               24.02758847                0.01000000                0.13969415               -0.13074787                0.12298456               -0.09971130               -0.03900887                0.08081772
               2.99263389                3.99799106               24.02837782                0.01198961                0.03129407               -0.10204685                0.12663522               -0.02861214                0.02726843                0.05579092
               3.99254746                3.99778787               24.02911892                0.01000000               -0.02752318               -0.06865407                0.13012908                0.07113395                0.02966907                0.04881381
               4.99208343                3.99812699               24.02996783                0.01000001               -0.06288626               -0.03383794                0.13341100                0.16274499                0.03893533                0.07611294
               5.99128973                3.99891320               24.03093296                0.01000001               -0.09057154               -0.01231448                0.13661833                0.24281731                0.03671899                0.12378676
               6.99027200                3.99974916               24.03180727                0.01189073               -0.11193258               -0.00493487                0.13908193                0.26622996               -0.00027489                0.15466470
               7.98905108                4.00025875               24.03213089                0.01009488               -0.12196173               -0.01527038                0.13959489                0.27286537               -0.03843452                0.18454339
               8.98783277                4.00099284               24.03238114                0.01000000               -0.07250586               -0.05507741                0.13992817                0.21814166               -0.02978491                0.20619384
               9.98760096                4.00069041               24.03301261                0.06303023               -0.02318008               -0.17862699                0.14222297                0.16512283               -0.00912933                0.18934318
              -0.00822329                5.00023647               24.02801422                0.32003021               -0.03777821               -0.00866149                0.12519339               -0.04395577               -0.00379331                0.02114134
               0.99139892                4.99773496               24.02844504                0.01000000                0.02208800               -0.06929123                0.12730515                0.03797240               -0.02283737                0.00020299
               1.99221847                4.99689623               24.02849630                0.01000001                0.08833498               -0.16012883                0.12736508                0.06139313               -0.01849403                0.03583284
               2.99316562                4.99677113               24.02895442                0.01000000                0.06434212               -0.15889392                0.12956127                0.10223551                0.02386964                0.02534435
               3.99350531                4.99690399               24.02979695                0.01000001                0.01600806               -0.10958219                0.13341296                0.17305114                0.06569354                0.04924797
               4.99348579                4.99755939               24.03104304                0.01000001               -0.01938706               -0.07077285                0.13832388                0.25242605                0.09462204                0.09821694
               5.99311757                4.99863034               24.03244697                0.01194872               -0.05838441               -0.04822227                0.14336126                0.28074966                0.07254557                0.12312633
               6.99231810                4.99945637               24.03326307                0.01013794               -0.08783856               -0.03594249                0.14671023                0.27742906                0.04213644                0.15960031
               7.99136080                5.00006050               24.03411865                0.01000000               -0.08581461               -0.01628856                0.15061562                0.28084869                0.05322457                0.24360681
               8.99060181                5.00035540               24.03522581                0.01000000               -0.05914484               -0.05419566                0.15359375                0.21306836                0.04092134                0.30510420
               9.99017790                4.99902214               24.03587448                0.01505551               -0.04239054               -0.11338623                0.15470749                0.11489334                0.01758081                0.29197609
              -0.00568408                5.99991645               24.02825223                0.89852224               -0.03762174               -0.03438992                0.12443301               -0.00375155               -0.00394169                0.01510110
               0.99393971                5.99729723               24.02856269                0.01000001               -0.01013289               -0.04097985                0.12638287                0.03593350               -0.01024948               -0.00937834
               1.99411327                5.99546813               24.02874888                0.01139576                0.03655676               -0.13120937                0.12828327                0.07420312                0.00403135               -0.01747448
               2.99467084                5.99481319               24.02931639                0.01000001                0.05534779               -0.19919424                0.13137550                0.16727002                0.05846640               -0.01960139
               3.99522022                5.99559622               24.03049978                0.01000001                0.03673798               -0.13946772                0.13645548                0.27222055                0.11935016                0.03759919
               4.99540560                5.99671154               24.03220601                0.01195012               -0.01062379               -0.09786660                0.14309864                0.29526378                0.12824683                0.06891815
               5.99500775                5.99794875               24.03351153                0.01017334               -0.05075878               -0.07228758                0.14896684                0.29754986                0.11883134                0.10992353
               6.99439043                5.99903031               24.03501920                0.01000000               -0.06193575               -0.03746789                0.15672096                0.30809648                0.15179246                0.21681187
               7.99376903                5.99993297               24.03697342                0.01000000               -0.06289701               -0.01200566                0.16285371                0.28388875                0.15235392                0.32886777
               8.99313249                5.99990893               24.03848054                0.01089927               -0.06018480               -0.02750992                0.16376296                0.17105978                0.08719405                0.33537018
               9.99256533                5.99842268               24.03915754                0.08342770               -0.05671503               -0.03208092                0.16677971                0.07513409                0.04425547                0.30876767
              -0.00305989                6.99954867               24.02848952                0.99999999               -0.03742006               -0.03671441                0.12367388               -0.00025133               -0.00320610                0.01765039
               0.99656591                6.99691536               24.02868184                0.69009688               -0.03767669               -0.03792596                0.12546549               -0.00051047               -0.01155357               -0.00670390
               1.99618657                6.99427204               24.02870872                0.01617659               -0.00914844               -0.07882730                0.12693671                0.02947116                0.00152517               -0.02655466
               2.99638294                6.99278724               24.02916343                0.01000001                0.04323978               -0.17569735                0.13051922                0.18279703                0.09614331               -0.06516658
               3.99705137                6.99411463               24.03101861                0.01189529                0.03277952               -0.15205097                0.13833066                0.30855176                0.16412517               -0.01039637
               4.99703853                6.99560206               24.03271012                0.01014238               -0.01507892               -0.11343820                0.14577874                0.30868170                0.17750546                0.03352449
               5.99674979                6.99718459               24.03476146                0.01000000               -0.02713601               -0.07408862                0.15579521                0.32766952                0.23696792                0.14403527
               6.99649581                6.99870701               24.03756184                0.01000000               -0.02949170               -0.02877339                0.16489069                0.32810548                0.28907102                0.27857900
               7.99615996                6.99982038               24.04055456                0.01113193               -0.04812580               -0.01846591                0.16820210                0.25996669                0.21777373                0.31732546
               8.99553329                6.99980520               24.04187179                0.01000002               -0.07534422               -0.00212221                0.17587063                0.15889011                0.09021687                0.44933715
               9.99465307                6.99838053               24.04230776                0.08989022               -0.08802199                0.04193468                0.18170476                0.08779472                0.04306815                0.38642342
              -0.00042247                7.99918216               24.02878005                0.99116108               -0.03713955               -0.03659813                0.12282870               -0.00013494               -0.00237961                0.02161051
               0.99920613                7.99653871               24.02885502                0.94937904               -0.03733627               -0.03745896                0.12453415               -0.00006622               -0.00405366               -0.00115637
               1.99883080                7.99389159               24.02889748                0.04992772               -0.03609733               -0.03795363                0.12610524                0.00276248               -0.01234423               -0.01583947
               2.99848419                7.99129924               24.02880670                0.01262143               -0.01271794               -0.09668990                0.12751419                0.16913311                0.08854449               -0.05612143
               3.99857644                7.99255520               24.03086280                0.01010560                0.00125477               -0.15054184                0.13742815                0.33439903                0.21635703               -0.05816786
               4.99850928                7.99444277               24.03323222                0.01000000               -0.00601313               -0.10041553                0.14890728                0.33339727                0.28365409                0.04571563
               5.99845618                7.99646698               24.03651109                0.01000000               -0.00962703               -0.06658802                0.16023247                0.32379942                0.37127721                0.15122254
               6.99831674                7.99845484               24.04046923                0.01116563               -0.02930003               -0.03852180                0.16264934                0.28165249                0.34336034                0.21574213
               7.99787018                7.99956366               24.04305521                0.01000002               -0.02832978                0.00316709                0.17247599                0.20978864                0.35945437                0.36580632
               8.99775014                7.99986648               24.04726961                0.12654214               -0.03498039               -0.02573983                0.19132650                0.12653175                0.22427516                0.27845190
               9.99717057                7.99926138               24.04699807                0.61442183               -0.05795724                0.01474491                0.19488910                0.09586581                0.00000803                0.24076542
               0.00222430                8.99881671               24.02909791                1.00000000               -0.03691500               -0.03649925                0.12211114               -0.00007877                0.00149774                0.01840626
               1.00185515                8.99616618               24.02908626                0.99999999               -0.03715034               -0.03713358                0.12376517                0.00003671                0.00133066                0.00130529
               2.00148129                8.99351297               24.02907171                0.79936269               -0.03765826               -0.03772062                0.12536306               -0.00019152               -0.00318494               -0.01102879
               3.00110199                8.99085345               24.02896926                0.01357865               -0.04427398               -0.04125794                0.12677758                0.14356297                0.07759821               -0.01716061
               4.00059581                8.99110380               24.03056899                0.01000000               -0.06536464               -0.07795413                0.13560647                0.27704321                0.25908008               -0.04632833
               4.99979469                8.99359375               24.03405675                0.01000000               -0.06910535               -0.05844580                0.15132693                0.26649115                0.37577785                0.03737242
               5.99921371                8.99585283               24.03791268                0.01100272               -0.03812545               -0.05516266                0.15856208                0.20570773                0.39892927                0.09087151
               6.99903218                8.99793658               24.04170668                0.01000002               -0.01348089               -0.06719928                0.16565154                0.19523385                0.50405684                0.08548382
               7.99894409                8.99988373               24.04752407                0.15396887               -0.03329893               -0.00990555                0.17407467                0.15293557                0.29993290                0.23526064
               8.99836621                8.99929040               24.04714432                0.99999998               -0.05817439               -0.05797961                0.19331812                0.00166322               -0.00502979                0.00141010
               9.99778060                8.99867542               24.04685328                0.98936751               -0.05856034               -0.05911248                0.19728033               -0.00013072               -0.00061920               -0.00080586
               0.00487702                9.99845217               24.02932537                0.99582358               -0.03664044               -0.03645385                0.12137252               -0.00034187                0.01352660                0.01385808
               1.00451061                9.99579604               24.02930903                1.00000000               -0.03686560               -0.03701398                0.12302460               -0.00020383                0.01670908                0.00089862
               2.00413970                9.99313718               24.02935615                1.00000000               -0.03729996               -0.03757900                0.12478573               -0.00025700                0.01950911               -0.00545324
               3.00376461                9.99047408               24.02939472                0.03326969               -0.13813485               -0.03793664                0.12615409                0.15920981                0.08703072               -0.00389902
               4.00137701                9.99099612               24.03079030                0.06375272               -0.23372695               -0.01076786                0.13592968                0.21810807                0.25860562               -0.01911841
               4.99909007                9.99327386               24.03445818                0.01515537               -0.15747507               -0.03198897                0.15130796                0.14791851                0.38737041                0.01511882
               5.99822751                9.99536373               24.03849864                0.08279718               -0.04497764               -0.04890992                0.16075182                0.09322985                0.38996745                0.04871196
               6.99819052                9.99711086               24.04204177                0.09061624                0.06737810               -0.08257179                0.16988950                0.11592441                0.46196085                0.03485394
               7.99957507                9.99936554               24.04736640                0.63835840                0.04005948               -0.05181803                0.17708802                0.14289940                0.27769696               -0.00278157
               8.99899171                9.99870689               24.04700343                0.98936772               -0.05885782               -0.05835090                0.19591591               -0.00177043               -0.00310788                0.00050862
               9.99839791                9.99807913               24.04671236                0.99946391               -0.05937987               -0.05962966                0.19987768               -0.00104554                0.00064696               -0.00058458
              -0.00612008                0.00088525               25.02447112                0.99656952               -0.02900622               -0.02845530                0.09404401                0.00099389               -0.00217783                0.00184733
               0.99358986                0.00055466               25.02518583                0.77189939               -0.02976803               -0.02989558                0.09900275                0.00074855               -0.00306822               -0.00096399
               1.99328456                0.00022628               25.02588733                0.22778090               -0.03218838               -0.03144184                0.10384733               -0.00061603               -0.00374997               -0.00104895
               2.99294609               -0.00012504               25.02658602                0.03379666               -0.10645352               -0.03200963                0.10845352               -0.13036596                0.05024873               -0.00120511
               3.99115549               -0.00308537               25.02836518                0.10181880               -0.10353185               -0.02605366                0.11824222               -0.18299653                0.05294955               -0.00196555
               4.99087546               -0.00216469               25.02911714                0.30284856               -0.03178662               -0.03616444                0.12069946               -0.01119655                0.00436006               -0.00171091
               5.99051976               -0.00099197               25.02990221                0.83264709               -0.03626450               -0.03694823                0.12256461               -0.00044325                0.00655122               -0.00168550
               6.99015017                0.00020159               25.03069447                0.99877686               -0.03726161               -0.03755962                0.12450938                0.00026166                0.00776988               -0.00132985
               7.98977453                0.00140108               25.03150299                0.99999998               -0.03786786               -0.03813946                0.12643486                0.00028431                0.00916685               -0.00095958
               8.98939281                0.00260558               25.03232250                1.00000000               -0.03847734               -0.03872318                0.12840189                0.00030593                0.00787143                0.00083424
               9.98900498                0.00381457               25.03310461                0.99582826               -0.03878281               -0.03932942                0.13036761                0.00010874                0.00601941                0.00594516
              -0.00577954                1.00060069               25.02455775                0.77393491               -0.02936263               -0.02880149                0.09559283                0.00012089                0.00070380                0.00202953
               0.99392683                1.00025570               25.02527385                0.01000000               -0.03011019               -0.03001709                0.10054158               -0.00026461                0.00135621               -0.00185084
               1.99361825                0.99991187               25.02600373                0.01000000               -0.03142833               -0.03807171                0.10558015               -0.02680969                0.00201812                0.02361077
               2.99329826                0.99955486               25.02673279                0.01000001               -0.16364490               -0.03907704                0.11045467               -0.18514668                0.05971891                0.04771774
               3.99034535                0.99665409               25.02860782                0.01000000               -0.17907358                0.05238002                0.11965077               -0.08178498                0.05576599                0.00178230
               4.98971679                0.99747366               25.02934077                0.01000000               -0.05065836               -0.00754748                0.12207983                0.05754199               -0.00399801                0.01169117
               5.98933219                0.99863855               25.03007563                0.01000001               -0.03802673               -0.02385605                0.12393466                0.03441871               -0.00367830                0.00952956
               6.98895626                0.99982599               25.03081870                0.59127892               -0.03784061               -0.03774763                0.12584980               -0.00012804               -0.00244033               -0.00517056
               7.98857538                1.00101969               25.03157795                0.96536555               -0.03835654               -0.03831732                0.12775570               -0.00001704               -0.00035284               -0.00193220
               8.98818913                1.00221835               25.03236234                0.99999999               -0.03891451               -0.03891534                0.12971075                0.00000834                0.00071081                0.00090760
               9.98779708                1.00342127               25.03314246                1.00000000               -0.03920418               -0.03952011                0.13167397               -0.00019140                0.00051353                0.00756418
              -0.00542767                2.00030922               25.02465411                0.23045482               -0.02989337               -0.03284354                0.09707088               -0.00607886                0.00073327                0.00375255
               0.99427340                1.99995431               25.02534500                0.01000000               -0.05615627               -0.02706998                0.10203942               -0.01324608                0.02933269               -0.00089302
               1.99344921                1.99946485               25.02660833                0.01000001               -0.08862318               -0.02667750                0.11409493               -0.07821735                0.05826099                0.07283314
               2.99250094                1.99909342               25.02784906                0.01000000               -0.09241069               -0.04576798                0.11775039               -0.12701554                0.04883713                0.08135078
               3.99160099                1.99796223               25.02890491                0.01000000               -0.12295468                0.07231711                0.12157250               -0.00676768                0.03060023                0.03567637
               4.99004184                1.99768436               25.02983034                0.01000001               -0.13725950                0.02935886                0.12519080                0.07898877                0.00573140                0.03795184
               5.98885580                1.99853091               25.03047248                0.01139283               -0.11376886                0.00557357                0.12693730                0.08027312               -0.02576978                0.03425789
               6.98776647                1.99944664               25.03086543                0.01616970               -0.07369872               -0.01854075                0.12710021                0.03437097               -0.02483848                0.01547328
               7.98738183                2.00063474               25.03163292                0.04133269               -0.03875374               -0.03636259                0.12904352                0.00440271               -0.00594502               -0.00367700
               8.98699139                2.00182728               25.03240323                0.84099362               -0.03932603               -0.03928970                0.13101128               -0.00001134               -0.00384027               -0.00081278
               9.98659531                2.00302417               25.03321240                1.00000000               -0.03960814               -0.03990613                0.13300303               -0.00018754               -0.00188187                0.00866599
              -0.00519131                2.99994382               25.02477965                0.04958333               -0.03024114               -0.01634676                0.09894943               -0.26950121                0.00042205                0.20345884
               0.99450628                2.99971430               25.02545112                0.01000001               -0.09469434               -0.07185793                0.10402561               -0.27720544                0.07989645                0.19385557
               1.99291480                2.99937832               25.02770942                0.01000000               -0.11228512               -0.04873283                0.11784983               -0.15625653                0.09973749                0.09569582
               2.99226057                2.99863950               25.02869302                0.01000000               -0.06478699               -0.06450571                0.12215473               -0.08265353                0.04010150                0.07204732
               3.99161906                2.99810043               25.02972915                0.01198192               -0.07663432               -0.01785902                0.12603464               -0.00723944                0.03022308                0.05729268
               4.99072789                2.99806084               25.03052459                0.01000000               -0.12218462                0.01458553                0.12899166                0.10800647                0.00502921                0.05521555
               5.98917537                2.99875002               25.03111300                0.01000001               -0.15940199                0.01464851                0.13048052                0.16315773               -0.02813805                0.07780458
               6.98753985                2.99945518               25.03140199                0.01000001               -0.14462900                0.01292355                0.13056631                0.17170970               -0.05302973                0.10577049
               7.98628279                3.00029244               25.03167246                0.01258727               -0.08701894               -0.02058544                0.13028364                0.14817532               -0.03711144                0.08651886
               8.98579947                3.00143256               25.03240827                0.01344029               -0.04416173               -0.04243446                0.13227204                0.12105932               -0.00813004                0.06560178
               9.98539955                3.00262315               25.03327202                0.04443771               -0.03999146               -0.12085908                0.13425223                0.13256640               -0.00171812                0.06315708
              -0.01035864                3.99998228               25.02888042                0.12162123               -0.03465583                0.01034495                0.12327884               -0.32208284               -0.00382224                0.21429303
               0.98929480                3.99851715               25.02940703                0.01000000                0.08787585               -0.10907078                0.12596314               -0.25396705               -0.05940701                0.19691459
               1.99139888                3.99849019               25.02881256                0.01000000                0.14154741               -0.13524023                0.12255207               -0.09309905               -0.04209782                0.08488297
               2.99212575                3.99780330               25.02964370                0.01198288                0.03179968               -0.10437140                0.12639976               -0.02023183                0.02795806                0.05859131
               3.99203487                3.99760505               25.03041789                0.01000000               -0.02866802               -0.06994807                0.12959280                0.08293927                0.03013021                0.05112343
               4.99155239                3.99797607               25.03129880                0.01000001               -0.06551246               -0.03219279                0.13272677                0.17928371                0.03945327                0.07910075
               5.99072462                3.99882388               25.03229548                0.01000001               -0.09470734               -0.00917581                0.13584874                0.26374150                0.03699844                0.12842895
               6.98965824                3.99970511               25.03319430                0.01184984               -0.11783314               -0.00074306                0.13832112                0.28755213               -0.00120955                0.16094337
               7.98836796                4.00022303               25.03352327                0.01004429               -0.12881899               -0.01118673                0.13892449                0.29446957               -0.04039354                0.19297707
               8.98708186                4.00097859               25.03377708                0.01000000               -0.07512536               -0.05408681                0.13925612                0.23517545               -0.03096390                0.21533405
               9.98686545                4.00060698               25.03443156                0.06314449               -0.02164116               -0.18793993                0.14149924                0.17744091               -0.00944164                0.19852590
              -0.00870271                5.00015072               25.02926824                0.31855137               -0.03782616               -0.00740736                0.12557112               -0.04604562               -0.00381111                0.02280023
               0.99091903                4.99753288               25.02971945                0.01000000                0.02346925               -0.07141758                0.12753538                0.04035212               -0.02384621                0.00122640
               1.99176667                4.99667351               25.02977080                0.01000001                0.09110290               -0.16506242                0.12732176                0.06936271               -0.01987344                0.03860910
               2.99274108                4.99655207               25.03024822                0.01000000                0.06692055               -0.16453985                0.12915630                0.11358738                0.02418018                0.02707904
               3.99310508                4.99670147               25.03112801                0.01000001                0.01768242               -0.11232509                0.13273041                0.18941225                0.06736454                0.05140744
               4.99309473                4.99741698               25.03242134                0.01000001               -0.01919624               -0.07066681                0.13730540                0.27421402                0.09691598                0.10170057
               5.99272116                4.99856650               25.03387357                0.01189593               -0.06014956               -0.04692949                0.14201815                0.30385678                0.07413954                0.12769349
               6.99189174                4.99944032               25.03472214                0.01006988               -0.09112288               -0.03312358                0.14523273                0.30042571                0.04323298                0.16654232
               7.99089870                5.00006870               25.03561713                0.01000000               -0.08863602               -0.01113003                0.14908237                0.30451201                0.05406334                0.25318828
               8.99011902                5.00035082               25.03675510                0.01000000               -0.06035613               -0.05227065                0.15229343                0.23055513                0.04033994                0.31554976
               9.98969158                4.99886435               25.03741755                0.01520461               -0.04274422               -0.11597669                0.15384497                0.12385781                0.01625598                0.30314287
              -0.00604388                5.99983414               25.02949850                0.89318324               -0.03770692               -0.03425431                0.12480116               -0.00407839               -0.00397477                0.01522012
               0.99357905                5.99708880               25.02982777                0.01000001               -0.00945922               -0.04134587                0.12661086                0.03836383               -0.01033598               -0.00953052
               1.99376694                5.99518894               25.03003140                0.01139690                0.03952401               -0.13690194                0.12818765                0.08044219                0.00445840               -0.01732867
               2.99436954                5.99451251               25.03062828                0.01000001                0.05956327               -0.20796721                0.13092981                0.18043057                0.06025003               -0.01921237
               3.99495820                5.99535855               25.03185980                0.01000001                0.04010518               -0.14368409                0.13551576                0.29276687                0.12271368                0.03928624
               4.99517164                5.99656273               25.03362886                0.01189741               -0.00898917               -0.09982308                0.14156249                0.31824503                0.13193753                0.07137827
               5.99477842                5.99788529               25.03498997                0.01009884               -0.05035418               -0.07239612                0.14694906                0.32204486                0.12292773                0.11443591
               6.99416456                5.99904264               25.03657171                0.01000000               -0.06153646               -0.03407828                0.15412027                0.33499999                0.15576998                0.22364897
               7.99354769                6.00000043               25.03858484                0.01000000               -0.06336215               -0.00677295                0.16011677                0.30783921                0.15328780                0.33592376
               8.99289731                5.99993317               25.04011033                0.01084555               -0.06160747               -0.02287253                0.16242425                0.18538918                0.08672814                0.34493093
               9.99231554                5.99828745               25.04082084                0.08364209               -0.05817691               -0.02735833                0.16589993                0.08237372                0.04454733                0.32099090
              -0.00329362                6.99946564               25.02972782                0.99999999               -0.03748907               -0.03678562                0.12397235               -0.00027536               -0.00327759                0.01772292
               0.99633149                6.99670597               25.02993740                0.68468871               -0.03772855               -0.03800160                0.12562976               -0.00055572               -0.01177505               -0.00686601
               1.99595181                6.99393547               25.02997833                0.01617577               -0.00756996               -0.08169549                0.12696709                0.03213041                0.00208865               -0.02694530
               2.99618009                6.99239273               25.03046578                0.01000001                0.04791913               -0.18371782                0.12997777                0.19505309                0.09963838               -0.06673650
               3.99691020                6.99382779               25.03239485                0.01185424                0.03763982               -0.15804029                0.13698583                0.32943098                0.16944996               -0.01044934
               4.99693289                6.99542052               25.03415676                0.01007434               -0.01140228               -0.11706480                0.14378610                0.33163418                0.18370570                0.03518245
               5.99668215                6.99711858               25.03630332                0.01000000               -0.02281446               -0.07437028                0.15298857                0.35490510                0.24344140                0.14764674
               6.99647660                6.99875875               25.03918844                0.01000000               -0.02586019               -0.02628561                0.16158264                0.35511874                0.29233389                0.27988652
               7.99616495                6.99993324               25.04222147                0.01107426               -0.04684110               -0.01482965                0.16632919                0.28146688                0.22053447                0.32002137
               8.99553978                6.99989337               25.04362283                0.01000002               -0.07672234                0.00340970                0.17480450                0.17449071                0.09399524                0.46124965
               9.99463050                6.99831719               25.04412211                0.09019658               -0.09092798                0.05481283                0.18109218                0.09776908                0.04593879                0.39920445
              -0.00053004                7.99909842               25.03000950                0.99121043               -0.03718518               -0.03666034                0.12305784               -0.00015287               -0.00243222                0.02170238
               0.99909811                7.99632877               25.03010083                0.94953101               -0.03735863               -0.03749531                0.12461781               -0.00008077               -0.00416892               -0.00124531
               1.99872278                7.99355503               25.03015828                0.05033305               -0.03599131               -0.03793804                0.12604065                0.00286126               -0.01271993               -0.01597310
               2.99837828                7.99083815               25.03007851                0.01259487               -0.01018758               -0.10009887                0.12700605                0.17918342                0.09211357               -0.05729471
               3.99851903                7.99219774               25.03222836                0.01005553                0.00676271               -0.15763059                0.13583545                0.35548781                0.22469377               -0.05984390
               4.99851353                7.99422143               25.03470552                0.01000000                0.00096304               -0.10365008                0.14615565                0.35726368                0.29243263                0.04674598
               5.99853829                7.99639788               25.03809166                0.01000000               -0.00306335               -0.06794234                0.15695333                0.34816739                0.37592601                0.15097372
               6.99845227                7.99851692               25.04209365                0.01110673               -0.02479419               -0.03889622                0.16279626                0.30385367                0.34649870                0.21407460
               7.99804241                7.99970383               25.04479027                0.01000002               -0.02245422                0.00575837                0.17424166                0.22633544                0.36967557                0.36785494
               8.99800318                8.00000137               25.04918189                0.12652675               -0.03095581               -0.02346997                0.19139131                0.13856736                0.23128499                0.28510386
               9.99742329                7.99938371               25.04894820                0.61447465               -0.05798881                0.02400244                0.19513241                0.10897716               -0.00004657                0.24626555
               0.00224263                8.99873243               25.03031975                1.00000000               -0.03693642               -0.03654269                0.12226037               -0.00009397                0.00149399                0.01854169
               1.00187327                8.99595606               25.03032388                0.99999998               -0.03714853               -0.03713519                0.12375891                0.00003269                0.00129763                0.00130915
               2.00149966                8.99317671               25.03032452                0.80911366               -0.03761043               -0.03767417                0.12519719               -0.00019911               -0.00333971               -0.01103046
               3.00112106                8.99039075               25.03023539                0.01358134               -0.04314967               -0.04128105                0.12644730                0.15150933                0.08072959               -0.01715741
               4.00063667                8.99067518               25.03191598                0.01000000               -0.06215179               -0.08091668                0.13382598                0.29337988                0.26887865               -0.04751201
               4.99987802                8.99334752               25.03554491                0.01000000               -0.06433288               -0.06015674                0.14749018                0.28410960                0.38540062                0.03672982
               5.99935001                8.99575973               25.03948225                0.01094507               -0.03151494               -0.05757898                0.15642928                0.22019653                0.40362795                0.08925240
               6.99924772                8.99798083               25.04338009                0.01000002               -0.00713991               -0.07027930                0.16821547                0.20940611                0.51203506                0.08624091
               7.99920721                9.00004841               25.04934115                0.15324737               -0.03082353               -0.01053148                0.18458374                0.16253536                0.30945725                0.23571371
               8.99863125                8.99942397               25.04907838                0.99999998               -0.05809231               -0.05803478                0.19352305                0.00069756               -0.00113513                0.00121646
               9.99804537                8.99879724               25.04882643                0.98958575               -0.05858880               -0.05912919                0.19731702               -0.00010921               -0.00062921               -0.00089749
               0.00502082                9.99836757               25.03053931                0.99583152               -0.03663391               -0.03648606                0.12143097               -0.00033162                0.01362396                0.01397236
               1.00465448                9.99558607               25.03053872                1.00000000               -0.03683534               -0.03699930                0.12292658               -0.00017980                0.01685361                0.00091117
               2.00428411                9.99280155               25.03060267                1.00000000               -0.03722396               -0.03751598                0.12452758               -0.00023198                0.01950863               -0.00537331
               3.00391000                9.99001253               25.03065415                0.03670349               -0.14271236               -0.03782239                0.12574514                0.16778679                0.09067714               -0.00395152
               4.00142986                9.99057941               25.03213956                0.06389514               -0.23994138               -0.00957719                0.13390353                0.22960816                0.26951643               -0.01963239
               4.99911117                9.99301830               25.03594446                0.01523406               -0.15604728               -0.03292199                0.14727932                0.15665968                0.39846517                0.01372465
               5.99830892                9.99524630               25.04008601                0.08283028               -0.03797303               -0.05134298                0.15819866                0.10054268                0.39725935                0.04763921
               6.99835171                9.99711134               25.04376164                0.09067273                0.07705274               -0.08694890                0.17290027                0.12274379                0.47007935                0.03683316
               7.99984997                9.99949320               25.04921261                0.63729035                0.04582984               -0.05552058                0.18719597                0.15074285                0.28565366               -0.00075728
               8.99926831                9.99884067               25.04896198                0.98958621               -0.05876949               -0.05832989                0.19585196               -0.00089857                0.00061575                0.00055303
               9.99867458                9.99820112               25.04871006                0.99961536               -0.05937250               -0.05961116                0.19964831               -0.00103316                0.00058074               -0.00059383
              -0.00688163                0.00081017               26.02541764                0.99560785               -0.02920291               -0.02876593                0.09520575                0.00083382               -0.00230402                0.00196473
               0.99282634                0.00044915               26.02617721                0.77110089               -0.02985411               -0.02993792                0.09930604                0.00060699               -0.00322123               -0.00101305
               1.99252129                0.00009003               26.02692263                0.22772356               -0.03214428               -0.03126906                0.10332487               -0.00079261               -0.00409485               -0.00109050
               2.99218346               -0.00029512               26.02766459                0.03500483               -0.10562399               -0.03157416                0.10732641               -0.13369010                0.05268637               -0.00136129
               3.99040881               -0.00335461               26.02954517                0.10291631               -0.10214190               -0.02513354                0.11778843               -0.18797207                0.05718880               -0.00191813
               4.99014062               -0.00241239               26.03032302                0.30233600               -0.03109888               -0.03605323                0.12045616               -0.01249343                0.00461169               -0.00171892
               5.98978683               -0.00118917               26.03112716                0.83007443               -0.03614264               -0.03689737                0.12240257               -0.00054446                0.00651503               -0.00169819
               6.98941777                0.00005727               26.03193898                0.99886471               -0.03721617               -0.03752064                0.12437869                0.00026131                0.00776154               -0.00134680
               7.98904251                0.00130985               26.03276688                0.99999998               -0.03783550               -0.03810975                0.12633550                0.00028661                0.00917623               -0.00097281
               8.98866106                0.00256754               26.03360617                1.00000000               -0.03845534               -0.03870193                0.12833096                0.00031022                0.00790249                0.00083342
               9.98827340                0.00382974               26.03440803                0.99581400               -0.03876543               -0.03931694                0.13032383                0.00011309                0.00604755                0.00596697
              -0.00651228                1.00052251               26.02551763                0.77288174               -0.02952434               -0.02907729                0.09640970                0.00004798                0.00086303                0.00219289
               0.99319248                1.00014977               26.02627899                0.01000000               -0.03011131               -0.02999111                0.10052549               -0.00029073                0.00150311               -0.00197024
               1.99288550                0.99977734               26.02705592                0.01000000               -0.03118016               -0.03810961                0.10484617               -0.02661989                0.00232498                0.02568241
               2.99256888                0.99938914               26.02783105                0.01000001               -0.16488856               -0.03926354                0.10916129               -0.18743121                0.06240241                0.05047443
               3.98958773                0.99639405               26.02980219                0.01000000               -0.18179586                0.05520137                0.11920772               -0.08336259                0.05961773                0.00201197
               4.98893296                0.99722708               26.03056054                0.01000000               -0.05205846               -0.00612212                0.12184860                0.06048050               -0.00378358                0.01248160
               5.98854656                0.99844186               26.03131433                0.01000001               -0.03810450               -0.02313169                0.12378056                0.03687985               -0.00375881                0.01030983
               6.98817087                0.99968206               26.03207666                0.58860072               -0.03781592               -0.03771196                0.12572757               -0.00014669               -0.00249775               -0.00522127
               7.98779024                1.00092875               26.03285507                0.96609357               -0.03833287               -0.03828770                0.12766046               -0.00002237               -0.00038403               -0.00195721
               8.98740421                1.00218052               26.03365911                0.99999999               -0.03889550               -0.03889442                0.12964222                0.00000783                0.00071199                0.00090322
               9.98701233                1.00343657               26.03445897                1.00000000               -0.03918837               -0.03950799                0.13163355               -0.00019157                0.00051823                0.00759347
              -0.00613520                2.00022862               26.02562831                0.22993998               -0.02991038               -0.03328922                0.09771357               -0.00652241                0.00081628                0.00412727
               0.99356570                1.99984933               26.02636256                0.01000000               -0.05576383               -0.02675868                0.10158714               -0.01396095                0.03200963               -0.00073370
               1.99274952                1.99932784               26.02772128                0.01000001               -0.08737875               -0.02782336                0.11043106               -0.07708353                0.06139075                0.07705132
               2.99181812                1.99891961               26.02902543                0.01000000               -0.09229497               -0.04653804                0.11693590               -0.12549917                0.04988009                0.08576909
               3.99090362                1.99774941               26.03012083                0.01000000               -0.12578510                0.07579451                0.12125888               -0.00253576                0.03137306                0.03716535
               4.98930242                1.99746517               26.03107976                0.01000001               -0.14170903                0.03224641                0.12473181                0.08693907                0.00580415                0.03996906
               5.98806944                1.99834820               26.03174051                0.01139534               -0.11872402                0.00839306                0.12662233                0.08672670               -0.02694316                0.03612025
               6.98692794                1.99930303               26.03213599                0.01617240               -0.07629202               -0.01702283                0.12699370                0.03720072               -0.02573749                0.01644191
               7.98654360                2.00054410               26.03292294                0.04124341               -0.03872724               -0.03614146                0.12895187                0.00475224               -0.00597376               -0.00371083
               8.98615339                2.00178965               26.03371302                0.84554803               -0.03930695               -0.03926968                0.13094487               -0.00001280               -0.00383656               -0.00083958
               9.98575746                2.00303958               26.03454223                1.00000000               -0.03959300               -0.03989516                0.13296594               -0.00018813               -0.00186526                0.00866405
              -0.00588414                2.99985672               26.02577186                0.05080345               -0.03018123               -0.01708390                0.09949000               -0.26433579                0.00048105                0.21509442
               0.99381405                2.99961460               26.02648743                0.01000001               -0.09211563               -0.07481576                0.10328753               -0.27409090                0.08463877                0.20460223
               1.99227355                2.99922087               26.02888482                0.01000000               -0.10883636               -0.05104250                0.11688862               -0.15313932                0.10530929                0.09951749
               2.99163732                2.99845838               26.02991208                0.01000000               -0.06410434               -0.06559562                0.12147664               -0.07706644                0.04114517                0.07518773
               3.99099146                2.99790994               26.03098727                0.01197768               -0.07821817               -0.01689693                0.12548433                0.00024791                0.03078819                0.05978630
               4.99007296                2.99787200               26.03181188                0.01000000               -0.12741149                0.01735440                0.12840955                0.11961344                0.00457966                0.05756362
               5.98844323                2.99860972               26.03241540                0.01000001               -0.16769837                0.01865051                0.12997654                0.17671802               -0.02969679                0.08075648
               6.98671899                2.99934160               26.03270619                0.01000001               -0.15222833                0.01724267                0.13025792                0.18441403               -0.05517293                0.10983982
               7.98539866                3.00020592               26.03297542                0.01257029               -0.09052577               -0.01852424                0.13028479                0.15851731               -0.03819271                0.09001453
               8.98490847                3.00139513               26.03373069                0.01345996               -0.04449796               -0.04184805                0.13220785                0.12922770               -0.00816095                0.06826427
               9.98450870                3.00263867               26.03461437                0.04624176               -0.03997693               -0.12620945                0.13421946                0.14164024               -0.00172498                0.06592227
              -0.01093767                3.99988694               26.03011489                0.12265551               -0.03426023                0.01088332                0.12359635               -0.31928231               -0.00389427                0.22869304
               0.98871973                3.99835302               26.03066665                0.01000000                0.08903120               -0.11379269                0.12591233               -0.24872787               -0.06250321                0.20924526
               1.99084296                3.99830699               26.03003951                0.01000000                0.14339970               -0.13856546                0.12246135               -0.08633145               -0.04502947                0.08912057
               2.99158772                3.99760770               26.03090581                0.01197854                0.03260017               -0.10651276                0.12591386               -0.01204066                0.02839520                0.06125875
               3.99149496                3.99741148               26.03171078                0.01000000               -0.02964082               -0.07098581                0.12892043                0.09462827                0.03048803                0.05329545
               4.99099491                3.99781225               26.03262237                0.01000001               -0.06803783               -0.03043299                0.13195447                0.19576631                0.03989938                0.08183321
               5.99013420                3.99872121               26.03364993                0.01000001               -0.09874455               -0.00600030                0.13504455                0.28459834                0.03726410                0.13265034
               6.98902002                3.99964788               26.03457369                0.01181900               -0.12368875                0.00340997                0.13755178                0.30863023               -0.00209233                0.16666597
               7.98766043                4.00017361               26.03490938                0.01000535               -0.13574065               -0.00716129                0.13833545                0.31576232               -0.04233899                0.20069332
               8.98630520                4.00095269               26.03516626                0.01000000               -0.07786230               -0.05309940                0.13862943                0.25207459               -0.03221399                0.22384359
               9.98610318                4.00051539               26.03584260                0.06328507               -0.02020215               -0.19714756                0.14067971                0.18974070               -0.00990961                0.20729087
              -0.00920193                5.00007439               26.03052564                0.31718824               -0.03786243               -0.00628365                0.12589165               -0.04778613               -0.00382453                0.02453507
               0.99041944                4.99733875               26.03099575                0.01000000                0.02470816               -0.07321740                0.12770276                0.04277649               -0.02501448                0.00243442
               1.99129223                4.99644956               26.03104273                0.01000001                0.09362871               -0.16964814                0.12709670                0.07741723               -0.02139946                0.04127391
               2.99229202                4.99632813               26.03153755                0.01000000                0.06936196               -0.16981611                0.12865532                0.12501896                0.02435606                0.02879784
               3.99267947                4.99649022               26.03245156                0.01000001                0.01932637               -0.11481846                0.13195296                0.20570887                0.06878491                0.05339503
               4.99267855                4.99726334               26.03378914                0.01000001               -0.01899517               -0.07042814                0.13628127                0.29593821                0.09891158                0.10479546
               5.99229957                4.99848972               26.03528733                0.01185616               -0.06196776               -0.04567479                0.14083645                0.32678511                0.07549774                0.13165525
               6.99143919                4.99940980               26.03616773                0.01001529               -0.09452332               -0.03054474                0.14409993                0.32319650                0.04413129                0.17268268
               7.99040910                5.00006270               26.03710030                0.01000000               -0.09155033               -0.00632514                0.14777078                0.32795347                0.05489015                0.26202957
               8.98960818                5.00033314               26.03827168                0.01000000               -0.06154959               -0.05064378                0.15106464                0.24794296                0.04006765                0.32566101
               9.98917811                4.99869572               26.03895138                0.01538080               -0.04300745               -0.11887234                0.15296272                0.13286247                0.01529389                0.31420711
              -0.00642210                5.99976127               26.03074825                0.88797223               -0.03778111               -0.03411295                0.12513143               -0.00439430               -0.00400761                0.01538693
               0.99320009                5.99688867               26.03109490                0.01000001               -0.00879882               -0.04168822                0.12679704                0.04066006               -0.01052305               -0.00963202
               1.99340192                5.99491403               26.03131263                0.01139961                0.04236774               -0.14216552                0.12801769                0.08652249                0.00462014               -0.01699316
               2.99404744                5.99421138               26.03193498                0.01000001                0.06359989               -0.21629182                0.13040466                0.19341262                0.06166140               -0.01885691
               3.99467392                5.99511511               26.03321009                0.01000001                0.04333698               -0.14765656                0.13457355                0.31311145                0.12557770                0.04068465
               4.99491418                5.99640369               26.03503726                0.01185748               -0.00752369               -0.10171479                0.14025803                0.34091142                0.13507114                0.07338490
               5.99452345                5.99780771               26.03645051                0.01004011               -0.05016088               -0.07269404                0.14541639                0.34603315                0.12639423                0.11816133
               6.99391096                5.99903699               26.03810160                0.01000000               -0.06136408               -0.03134994                0.15222453                0.36122709                0.15942093                0.22989958
               7.99329616                6.00004711               26.04017576                0.01000000               -0.06399599               -0.00236627                0.15836826                0.33149903                0.15472256                0.34270572
               8.99263104                5.99993981               26.04172903                0.01079801               -0.06304464               -0.01872534                0.16151170                0.19976066                0.08690528                0.35459738
               9.99203527                5.99813795               26.04247554                0.08388341               -0.05957726               -0.02292336                0.16513054                0.08957249                0.04515595                0.33321230
              -0.00354461                6.99939213               26.03096897                0.99999999               -0.03754982               -0.03685011                0.12424660               -0.00029777               -0.00334313                0.01780894
               0.99607989                6.99650498               26.03119444                0.67920996               -0.03777089               -0.03806725                0.12576241               -0.00059951               -0.01199261               -0.00702202
               1.99569997                6.99360625               26.03124806                0.01617833               -0.00603502               -0.08440438                0.12695838                0.03470541                0.00246148               -0.02724144
               2.99595919                6.99200229               26.03176299                0.01000001                0.05247081               -0.19138252                0.12949286                0.20698908                0.10256736               -0.06825173
               3.99674939                6.99353709               26.03375832                0.01182344                0.04224873               -0.16389560                0.13582330                0.34980745                0.17407148               -0.01082788
               4.99680417                6.99522905               26.03558584                0.01002028               -0.00812264               -0.12070727                0.14231672                0.35395943                0.18919634                0.03626034
               5.99658693                6.99703584               26.03782123                0.01000000               -0.01899137               -0.07500939                0.15098274                0.38084394                0.24957109                0.15075721
               6.99642434                6.99878281               26.04079349                0.01000000               -0.02253397               -0.02461482                0.15984362                0.38083395                0.29622776                0.28241391
               7.99613626                7.00001537               26.04388114                0.01102177               -0.04558884               -0.01230168                0.16587164                0.30275547                0.22425251                0.32514138
               8.99551256                6.99995863               26.04536788                0.01000002               -0.07814805                0.00865993                0.17435966                0.19043737                0.09810456                0.47390990
               9.99457329                6.99823725               26.04592960                0.09053599               -0.09392668                0.06722116                0.18048095                0.10794955                0.04885804                0.41243003
              -0.00065376                7.99902427               26.03124120                0.99124459               -0.03722666               -0.03671981                0.12327697               -0.00016787               -0.00248529                0.02180681
               0.99897398                7.99612732               26.03134738                0.94967590               -0.03737598               -0.03752596                0.12468389               -0.00009419               -0.00428765               -0.00133744
               1.99859872                7.99322594               26.03141830                0.05066861               -0.03587965               -0.03791399                0.12595034                0.00297120               -0.01316085               -0.01612783
               2.99825638                7.99038373               26.03134682                0.01257772               -0.00777063               -0.10338171                0.12669995                0.18885935                0.09514754               -0.05832736
               3.99844331                7.99183719               26.03357951                0.01001668                0.01191233               -0.16473668                0.13459831                0.37601533                0.23199883               -0.06185145
               4.99849463                7.99398955               26.03615534                0.01000000                0.00716288               -0.10698251                0.14421571                0.38012987                0.30052357                0.04730174
               5.99858657                7.99630753               26.03965015                0.01000000                0.00267377               -0.06961538                0.15513816                0.37096479                0.38177915                0.15095581
               6.99854810                7.99854469               26.04372515                0.01105252               -0.02055597               -0.03947024                0.16336604                0.32415999                0.35232539                0.21534406
               7.99817545                7.99980108               26.04654005                0.01000002               -0.01650952                0.00801417                0.17538048                0.24335042                0.38019680                0.37505324
               8.99821791                8.00011301               26.05109744                0.12652320               -0.02692128               -0.02119912                0.19180531                0.15134798                0.23771614                0.29248389
               9.99763702                7.99948237               26.05090072                0.61452929               -0.05808917                0.03291850                0.19535965                0.12186730               -0.00009497                0.25231271
               0.00224592                8.99865774               26.03154312                1.00000000               -0.03695859               -0.03658840                0.12241612               -0.00010563                0.00148924                0.01868520
               1.00187634                8.99575446               26.03156144                0.99999998               -0.03714667               -0.03713714                0.12375346                0.00002974                0.00126080                0.00130807
               2.00150299                8.99284797               26.03157565                0.81862951               -0.03756082               -0.03762595                0.12502715               -0.00020390               -0.00350117               -0.01104872
               3.00112512                8.98993466               26.03149821                0.01360901               -0.04195569               -0.04130952                0.12611382                0.15896357                0.08322781               -0.01711496
               4.00066388                8.99024236               26.03324551                0.01000000               -0.05943461               -0.08404389                0.13231001                0.30942283                0.27742854               -0.04897302
               4.99993643                8.99308940               26.03700656                0.01000000               -0.06063957               -0.06201541                0.14529989                0.30097295                0.39454450                0.03600004
               5.99945109                8.99564353               26.04104127                0.01089403               -0.02612203               -0.05992645                0.15569195                0.23364727                0.41172276                0.08807410
               6.99941399                8.99799340               26.04507099                0.01000002               -0.00080717               -0.07301419                0.16951603                0.22247646                0.52356444                0.08876542
               7.99943494                9.00017566               26.05121575                0.15255063               -0.02778807               -0.00968028                0.18863056                0.17268055                0.31822107                0.24001574
               8.99885823                8.99953465               26.05101478                0.99999998               -0.05815081               -0.05811249                0.19377937                0.00043169                0.00012448                0.00117606
               9.99827193                8.99889562               26.05079962                0.98980481               -0.05863016               -0.05911895                0.19730865               -0.00008569               -0.00062632               -0.00097298
               0.00515067                9.99829250               26.03175399                0.99581733               -0.03663423               -0.03652345                0.12151676               -0.00031704                0.01372862                0.01409315
               1.00478433                9.99538458               26.03176756                1.00000000               -0.03681114               -0.03698827                0.12285078               -0.00015470                0.01700361                0.00092015
               2.00441445                9.99247342               26.03184670                1.00000000               -0.03715327               -0.03745544                0.12428876               -0.00020603                0.01951717               -0.00530403
               3.00404127                9.98955754               26.03190962                0.04015724               -0.14687138               -0.03771181                0.12535757                0.17575936                0.09358777               -0.00400388
               4.00147702                9.99015632               26.03346837                0.06406016               -0.24641730               -0.00860442                0.13203502                0.24089971                0.27910441               -0.02027179
               4.99911292                9.99274924               26.03740376                0.01532810               -0.15607569               -0.03401608                0.14515306                0.16528325                0.40905826                0.01234047
               5.99835551                9.99510900               26.04166262                0.08286973               -0.03237083               -0.05345292                0.15745100                0.10720096                0.40796224                0.04754618
               6.99846550                9.99708441               26.04549978                0.09074203                0.08661503               -0.09089937                0.17413873                0.13007516                0.48205331                0.03919825
               8.00008781                9.99960747               26.05111032                0.63659920                0.05205396               -0.05681861                0.19076696                0.15860465                0.29307960                0.00003692
               8.99950658                9.99895076               26.05092046                0.98980524               -0.05872236               -0.05838862                0.19586452               -0.00053840                0.00181453                0.00053767
               9.99891336                9.99829999               26.05070533                0.99975429               -0.05932200               -0.05956304                0.19939300               -0.00093341                0.00059465               -0.00058466
              -0.00768529                0.00072456               27.02637524                0.99461308               -0.02942600               -0.02906765                0.09629511                0.00065513               -0.00244021                0.00213735
               0.99202045                0.00033082               27.02717195                0.77025040               -0.02997125               -0.02998820                0.09965317                0.00048188               -0.00340171               -0.00109534
               1.99171529               -0.00006211               27.02795383                0.22762038               -0.03215876               -0.03110261                0.10294538               -0.00106004               -0.00432251               -0.00116519
               2.99137728               -0.00048519               27.02873255                0.03617175               -0.10372257               -0.03112956                0.10630632               -0.13650707                0.05595511               -0.00146014
               3.98964084               -0.00363778               27.03072095                0.10401950               -0.09957840               -0.02435486                0.11735232               -0.19270749                0.06180285               -0.00188939
               4.98938571               -0.00267411               27.03152626                0.30189694               -0.03033672               -0.03593313                0.12017209               -0.01379685                0.00495156               -0.00172726
               5.98903410               -0.00140027               27.03235026                0.82761916               -0.03600154               -0.03683385                0.12219908               -0.00065122                0.00650597               -0.00171094
               6.98866568               -0.00010071               27.03318204                0.99897558               -0.03716160               -0.03747316                0.12422040                0.00026310                0.00775834               -0.00136167
               7.98829087                0.00120523               27.03402970                0.99999998               -0.03779859               -0.03807548                0.12622184                0.00029131                0.00918848               -0.00098615
               8.98790971                0.00251636               27.03488912                1.00000000               -0.03843310               -0.03868017                0.12825944                0.00031623                0.00793407                0.00083190
               9.98752221                0.00383203               27.03571109                0.99578176               -0.03874990               -0.03930817                0.13029345                0.00011953                0.00607570                0.00598942
              -0.00728500                1.00043388               27.02648595                0.77179807               -0.02963924               -0.02935084                0.09722492               -0.00002154                0.00096707                0.00243004
               0.99241861                1.00003094               27.02728436                0.01000000               -0.03011517               -0.02998101                0.10057081               -0.00034226                0.00174205               -0.00215132
               1.99211269                0.99962686               27.02810066                0.01000000               -0.03092837               -0.03804554                0.10415805               -0.02642798                0.00268829                0.02746002
               2.99180004                0.99920351               27.02891602                0.01000001               -0.16522379               -0.03935196                0.10784504               -0.18932376                0.06605618                0.05338172
               3.98880822                0.99611868               27.03099198                0.01000000               -0.18355247                0.05791172                0.11873470               -0.08518310                0.06406358                0.00219978
               4.98812899                0.99696656               27.03177774                0.01000000               -0.05336653               -0.00467481                0.12157040                0.06326234               -0.00345894                0.01318540
               5.98774089                0.99823139               27.03255124                0.01000001               -0.03817170               -0.02237454                0.12358223                0.03923037               -0.00381453                0.01099334
               6.98736555                0.99952456               27.03333325                0.58596142               -0.03778209               -0.03766700                0.12557431               -0.00016503               -0.00255359               -0.00526789
               7.98698525                1.00082448               27.03413116                0.96681859               -0.03830425               -0.03825329                0.12754893               -0.00002723               -0.00041665               -0.00198311
               8.98659947                1.00212956               27.03495518                0.99999999               -0.03887558               -0.03887271                0.12957090                0.00000696                0.00071161                0.00089778
               9.98620773                1.00343895               27.03577513                1.00000000               -0.03917352               -0.03949906                0.13160274               -0.00019171                0.00052209                0.00762377
              -0.00687984                2.00013754               27.02660838                0.22941681               -0.02995357               -0.03373745                0.09826828               -0.00702563                0.00092416                0.00471174
               0.99282063                1.99973120               27.02737674                0.01000000               -0.05530023               -0.02643433                0.10129937               -0.01465400                0.03447346               -0.00070434
               1.99201416                1.99917698               27.02881695                0.01000001               -0.08608187               -0.02882134                0.10907159               -0.07598975                0.06558158                0.08167913
               2.99109899                1.99872777               27.03018778                0.01000000               -0.09200158               -0.04703193                0.11569037               -0.12377658                0.05231309                0.09042113
               3.99017413                1.99752046               27.03133009                0.01000000               -0.12803729                0.07937676                0.12048678                0.00157154                0.03250216                0.03870917
               4.98853824                1.99723239               27.03232498                0.01000001               -0.14567091                0.03514707                0.12424352                0.09470693                0.00608260                0.04180852
               5.98726071                1.99815224               27.03300493                0.01139874               -0.12344785                0.01121693                0.12624361                0.09299004               -0.02797511                0.03779820
               6.98606929                1.99914595               27.03340530                0.01617677               -0.07876921               -0.01551415                0.12685060                0.03993730               -0.02654323                0.01731118
               7.98568532                2.00044017               27.03421195                0.04113563               -0.03869553               -0.03590972                0.12884253                0.00510728               -0.00601188               -0.00370874
               8.98529537                2.00173891               27.03502212                0.85006618               -0.03928627               -0.03924776                0.13087276               -0.00001403               -0.00383662               -0.00086792
               9.98489960                2.00304205               27.03587172                1.00000000               -0.03957774               -0.03988635                0.13293471               -0.00018781               -0.00184997                0.00866412
              -0.00661284                2.99975913               27.02676945                0.05201312               -0.03010725               -0.01675921                0.09993233               -0.25869808                0.00060404                0.22709867
               0.99308609                2.99950226               27.02751687                0.01000001               -0.08954135               -0.07687312                0.10268365               -0.27046021                0.08980875                0.21566906
               1.99159633                2.99905044               27.03004719                0.01000000               -0.10525316               -0.05311446                0.11578207               -0.14972069                0.11117209                0.10477986
               2.99098103                2.99826287               27.03112256                0.01000000               -0.06306559               -0.06623768                0.12055028               -0.07104148                0.04254487                0.07856659
               3.99033502                2.99770621               27.03223884                0.01197499               -0.07948381               -0.01568967                0.12475055                0.00802875                0.03150914                0.06230459
               4.98939135                2.99766950               27.03309278                0.01000000               -0.13239459                0.02015389                0.12772581                0.13112466                0.00423035                0.05973599
               5.98768713                2.99845573               27.03371253                0.01000001               -0.17574909                0.02263586                0.12943130                0.19013254               -0.03108402                0.08348093
               6.98587637                2.99921428               27.03400715                0.01000001               -0.15963484                0.02154664                0.12992426                0.19691084               -0.05708535                0.11357285
               7.98449443                3.00010629               27.03427815                0.01256103               -0.09395303               -0.01640768                0.13024470                0.16868062               -0.03918939                0.09327732
               8.98399731                3.00134461               27.03505242                0.01350297               -0.04483685               -0.04122206                0.13213291                0.13719633               -0.00823490                0.07067124
               9.98359770                3.00264122               27.03595641                0.04808307               -0.03996101               -0.13131329                0.13418916                0.15041044               -0.00173209                0.06827971
              -0.01154004                3.99980236               27.03135234                0.12370877               -0.03398369                0.01244674                0.12382318               -0.31619055               -0.00391268                0.24286762
               0.98812012                3.99819374               27.03192528                0.01000000                0.08995847               -0.11744676                0.12579873               -0.24360574               -0.06551962                0.22223013
               1.99025913                3.99811469               27.03126179                0.01000000                0.14511325               -0.14122865                0.12193007               -0.07950876               -0.04777483                0.09376798
               2.99102238                3.99740301               27.03216197                0.01197555                0.03344737               -0.10820064                0.12525486               -0.00348362                0.02892810                0.06406012
               3.99092807                3.99720666               27.03299630                0.01000000               -0.03055819               -0.07180768                0.12815476                0.10633092                0.03083339                0.05539267
               4.99041122                3.99763547               27.03393789                0.01000001               -0.07047458               -0.02857530                0.13112921                0.21220654                0.04036546                0.08439426
               5.98951858                3.99860495               27.03499637                0.01000001               -0.10271382               -0.00283490                0.13426060                0.30534047                0.03756397                0.13657232
               6.98835694                3.99957689               27.03594533                0.01179582               -0.12949876                0.00758889                0.13681791                0.32960460               -0.00288965                0.17201967
               7.98692861                4.00011201               27.03628998                0.01000000               -0.14262899               -0.00316830                0.13775405                0.33678521               -0.04420660                0.20782919
               8.98550436                4.00091447               27.03654967                0.01000000               -0.08070156               -0.05216675                0.13802599                0.26878772               -0.03353557                0.23168417
               9.98531457                4.00041578               27.03724515                0.06345216               -0.01897891               -0.20628354                0.13989443                0.20214898               -0.01063861                0.21568140
              -0.00971942                5.00000807               27.03178607                0.31590622               -0.03789402               -0.00519052                0.12617673               -0.04933943               -0.00384138                0.02632978
               0.98990164                4.99715332               27.03227350                0.01000000                0.02581512               -0.07481329                0.12783084                0.04509419               -0.02628021                0.00384430
               1.99079689                4.99622586               27.03231273                0.01000001                0.09588670               -0.17354658                0.12683533                0.08528395               -0.02309139                0.04414961
               2.99181938                4.99609886               27.03282132                0.01000000                0.07161488               -0.17465443                0.12806676                0.13635583                0.02435917                0.03055137
               3.99222918                4.99627006               27.03376707                0.01000001                0.02089076               -0.11705942                0.13113600                0.22192688                0.07007971                0.05529441
               4.99223719                4.99709799               27.03514697                0.01000001               -0.01883279               -0.07008704                0.13533017                0.31751974                0.10081444                0.10769491
               5.99185253                4.99839903               27.03669030                0.01182563               -0.06378975               -0.04451690                0.13982493                0.34957239                0.07687130                0.13533087
               6.99096140                4.99936606               27.03760413                0.01000000               -0.09799865               -0.02810109                0.14322712                0.34573372                0.04506571                0.17841580
               7.98989255                5.00004292               27.03857255                0.01000000               -0.09460529               -0.00191575                0.14666868                0.35106643                0.05567971                0.27019713
               8.98906929                5.00030127               27.03977639                0.01000000               -0.06272550               -0.04927738                0.14988701                0.26519498                0.03992979                0.33553519
               9.98863804                4.99851555               27.04047681                0.01558421               -0.04312472               -0.12211520                0.15220349                0.14198087                0.01468303                0.32534543
              -0.00681734                5.99969855               27.03200113                0.88287615               -0.03784552               -0.03396043                0.12542921               -0.00470699               -0.00404313                0.01559671
               0.99280421                5.99669748               27.03236371                0.01000001               -0.00816995               -0.04201333                0.12694542                0.04280592               -0.01082886               -0.00968923
               1.99301926                5.99464376               27.03259176                0.01140274                0.04505492               -0.14704411                0.12780388                0.09240282                0.00454694               -0.01652648
               2.99370531                5.99390993               27.03323637                0.01000001                0.06741058               -0.22415009                0.12988006                0.20617592                0.06280901               -0.01843493
               3.99436748                5.99486548               27.03455127                0.01000001                0.04636687               -0.15141218                0.13371165                0.33316973                0.12816381                0.04193315
               4.99463264                5.99623373               27.03643402                0.01182709               -0.00627536               -0.10351694                0.13917620                0.36329276                0.13802768                0.07523169
               5.99424197                5.99771461               27.03789830                0.01000000               -0.05024582               -0.07324756                0.14441745                0.36972618                0.12980565                0.12167377
               6.99362773                5.99901486               27.03961620                0.01000000               -0.06136252               -0.02912890                0.15083229                0.38694668                0.16305457                0.23593141
               7.99301472                6.00007370               27.04175220                0.01000000               -0.06460484                0.00144294                0.15694129                0.35485573                0.15656762                0.34983239
               8.99233563                5.99992892               27.04334057                0.01075740               -0.06445428               -0.01490562                0.16091456                0.21419513                0.08758300                0.36476009
               9.99172563                5.99797348               27.04412345                0.08415354               -0.06099982               -0.01874713                0.16451891                0.09676464                0.04589738                0.34554485
              -0.00381141                6.99932886               27.03221275                0.99999999               -0.03760358               -0.03690705                0.12449920               -0.00031825               -0.00340442                0.01790840
               0.99581255                6.99631305               27.03245265                0.67368035               -0.03780480               -0.03812296                0.12586632               -0.00064131               -0.01220719               -0.00717509
               1.99543249                6.99328498               27.03251750                0.01618282               -0.00456877               -0.08694354                0.12691099                0.03718332                0.00269523               -0.02743163
               2.99572118                6.99161586               27.03305563                0.01000001                0.05681404               -0.19867732                0.12906223                0.21857719                0.10509393               -0.06962400
               3.99656877                6.99324181               27.03511131                0.01180010                0.04663665               -0.16959739                0.13487405                0.36974066                0.17833053               -0.01132808
               4.99665391                6.99502766               27.03700309                0.01000000               -0.00514265               -0.12434897                0.14125794                0.37564900                0.19447983                0.03713133
               5.99646592                6.99693408               27.03932298                0.01000000               -0.01563317               -0.07588266                0.14954082                0.40589563                0.25572054                0.15383098
               6.99634125                6.99878348               27.04238531                0.01000000               -0.01951541               -0.02342778                0.15862976                0.40594275                0.30098126                0.28621253
               7.99607561                7.00007178               27.04553891                0.01097414               -0.04439162               -0.01017039                0.16575555                0.32395138                0.22868386                0.33184654
               8.99545341                7.00000316               27.04711002                0.01000002               -0.07956965                0.01376115                0.17411246                0.20650167                0.10221988                0.48739153
               9.99448422                6.99814061               27.04773173                0.09091186               -0.09691953                0.07932283                0.17997894                0.11820480                0.05176718                0.42612049
              -0.00079209                7.99896041               27.03247504                0.99126661               -0.03726494               -0.03677547                0.12348653               -0.00017963               -0.00253890                0.02192285
               0.99883526                7.99593502               27.03259450                0.94981473               -0.03738922               -0.03755073                0.12473411               -0.00010587               -0.00440941               -0.00143356
               1.99846013                7.99290489               27.03267729                0.05093873               -0.03576216               -0.03788248                0.12583743                0.00308702               -0.01360730               -0.01630342
               2.99812002                7.98993638               27.03261251                0.01256799               -0.00548172               -0.10651056                0.12644906                0.19816125                0.09786958               -0.05926451
               3.99835049                7.99147353               27.03492032                0.01000000                0.01666714               -0.17174786                0.13367734                0.39592452                0.23878030               -0.06398167
               4.99845336                7.99374675               27.03758983                0.01000000                0.01267843               -0.11042803                0.14283706                0.40213367                0.30843424                0.04761389
               5.99860406                7.99619696               27.04119443                0.01000000                0.00777608               -0.07126624                0.15375177                0.39268340                0.38876541                0.15164323
               6.99860888                7.99854631               27.04536097                0.01100358               -0.01649981               -0.04009844                0.16369054                0.34383079                0.35971723                0.21835757
               7.99827406                7.99987029               27.04829788                0.01000002               -0.01060246                0.01033360                0.17597245                0.26050337                0.39116619                0.38457582
               8.99839683                8.00020414               27.05301800                0.12654147               -0.02296172               -0.01893472                0.19231902                0.16430492                0.24414662                0.30039260
               9.99781483                7.99955994               27.05285540                0.61459425               -0.05820035                0.04162795                0.19556582                0.13452597               -0.00009985                0.25887556
               0.00223578                8.99859335               27.03276808                1.00000000               -0.03698210               -0.03663540                0.12257849               -0.00011407                0.00148308                0.01883498
               1.00186595                8.99556204               27.03279895                0.99999998               -0.03714533               -0.03713895                0.12374954                0.00002788                0.00122056                0.00130271
               2.00149287                8.99252733               27.03282506                0.82792039               -0.03750977               -0.03757603                0.12485398               -0.00020644               -0.00366654               -0.01108086
               3.00111576                8.98948565               27.03275767                0.01365998               -0.04079894               -0.04133782                0.12577458                0.16597971                0.08533046               -0.01709000
               4.00067689                8.98980686               27.03456218                0.01000000               -0.05713046               -0.08726450                0.13114545                0.32503857                0.28528135               -0.05060990
               4.99997315                8.99281910               27.03845090                0.01000000               -0.05784291               -0.06380252                0.14375764                0.31733138                0.40433538                0.03529418
               5.99952003                8.99550875               27.04259609                0.01084913               -0.02143092               -0.06212165                0.15535102                0.24652488                0.42159020                0.08773704
               6.99954453                8.99798151               27.04677041                0.01000002                0.00539051               -0.07542922                0.17008703                0.23529441                0.53741351                0.09198022
               7.99962784                9.00027845               27.05311376                0.15188842               -0.02473323               -0.00827479                0.19038774                0.18298868                0.32685888                0.24580848
               8.99904987                8.99962447               27.05295397                0.99999998               -0.05823454               -0.05820425                0.19405978                0.00037396                0.00049405                0.00112590
               9.99846315                8.99897317               27.05277260                0.99002122               -0.05867154               -0.05909558                0.19728289               -0.00003359               -0.00062603               -0.00103988
               0.00526825                9.99822770               27.03296965                0.99578511               -0.03664138               -0.03656517                0.12162746               -0.00029863                0.01383797                0.01421801
               1.00490184                9.99519224               27.03299574                1.00000000               -0.03679311               -0.03698016                0.12279498               -0.00012844                0.01715808                0.00092636
               2.00453239                9.99215337               27.03308844                1.00000000               -0.03708753               -0.03739653                0.12406602               -0.00017881                0.01953736               -0.00524236
               3.00416009                9.98910962               27.03316130                0.04363093               -0.15072871               -0.03760242                0.12498193                0.18317632                0.09593678               -0.00405705
               4.00151781                9.98972824               27.03478026                0.06424705               -0.25309973               -0.00786176                0.13049761                0.25214630                0.28816359               -0.02117006
               4.99909809                9.99247070               27.03884752                0.01543730               -0.15728351               -0.03483937                0.14386395                0.17380863                0.42057774                0.01138531
               5.99837214                9.99495453               27.04323503                0.08291556               -0.02765097               -0.05542235                0.15709322                0.11356223                0.42033786                0.04774930
               6.99854507                9.99703772               27.04724442                0.09082565                0.09593682               -0.09437856                0.17449348                0.13756740                0.49619244                0.04190850
               8.00029088                9.99970480               27.05302795                0.63605260                0.05822606               -0.05736535                0.19222741                0.16642058                0.30045188                0.00031104
               8.99970959                9.99904006               27.05287927                0.99002173               -0.05870647               -0.05844063                0.19590162               -0.00036595                0.00218786                0.00053908
               9.99911675                9.99837803               27.05269792                0.99988085               -0.05928423               -0.05951429                0.19912473               -0.00084344                0.00059263               -0.00058477
              -0.00852385                0.00063150               28.02734354                0.99359109               -0.02964335               -0.02935357                0.09733630                0.00050118               -0.00259359                0.00232558
               0.99117972                0.00020242               28.02817027                0.76934730               -0.03009556               -0.03004712                0.10002031                0.00036854               -0.00358074               -0.00119416
               1.99087424               -0.00022692               28.02898154                0.22744921               -0.03221388               -0.03096601                0.10263977               -0.00134742               -0.00449726               -0.00123096
               2.99053544               -0.00069126               28.02979072                0.03730446               -0.10115449               -0.03071994                0.10539448               -0.13905219                0.05991011               -0.00153074
               3.98885115               -0.00393445               28.03189222                0.10511974               -0.09625511               -0.02366378                0.11687477               -0.19731970                0.06671403               -0.00187054
               4.98861034               -0.00294990               28.03272647                0.30151298               -0.02949886               -0.03580345                0.11984771               -0.01512713                0.00535953               -0.00173642
               5.98826117               -0.00162535               28.03357114                0.82527154               -0.03584198               -0.03675908                0.12195817               -0.00076442                0.00651715               -0.00172390
               6.98789350               -0.00027237               28.03442339                0.99911049               -0.03709861               -0.03741806                0.12403720                0.00026636                0.00775960               -0.00137534
               7.98751920                0.00108721               28.03529131                0.99999998               -0.03775742               -0.03803717                0.12609566                0.00029796                0.00920347               -0.00099866
               8.98713835                0.00245205               28.03617136                1.00000000               -0.03841064               -0.03865796                0.12818822                0.00032418                0.00796709                0.00083097
               9.98675099                0.00382144               28.03701390                0.99573347               -0.03873620               -0.03930278                0.13027575                0.00012853                0.00610498                0.00601236
              -0.00808976                1.00033796               28.02746213                0.77068252               -0.02976262               -0.02960724                0.09799094               -0.00008062                0.00109029                0.00269660
               0.99161261                0.99990195               28.02829041                0.01000000               -0.03013169               -0.02998436                0.10065926               -0.00038337                0.00198745               -0.00235772
               1.99130761                0.99946342               28.02913908                0.01000000               -0.03069659               -0.03790946                0.10358572               -0.02622662                0.00309394                0.02919361
               2.99099868                0.99900154               28.02998795                0.01000001               -0.16501673               -0.03936227                0.10664149               -0.19093472                0.07046317                0.05655227
               3.98800727                0.99582891               28.03217689                0.01000000               -0.18470842                0.06055940                0.11823648               -0.08720762                0.06902881                0.00223981
               4.98730451                0.99669207               28.03299195                0.01000000               -0.05462531               -0.00319008                0.12125231                0.06585227               -0.00304504                0.01375725
               5.98691477                0.99800706               28.03378597                0.01000001               -0.03823145               -0.02158878                0.12334477                0.04149148               -0.00385282                0.01158491
               6.98653988                0.99935345               28.03458815                0.58337358               -0.03773985               -0.03761384                0.12539304               -0.00018383               -0.00260870               -0.00531208
               7.98615997                1.00070684               28.03540605                0.96756329               -0.03827054               -0.03821414                0.12742119               -0.00003182               -0.00045053               -0.00200831
               8.98577447                1.00206547               28.03625053                0.99999999               -0.03885438               -0.03884989                0.12949587                0.00000629                0.00070934                0.00089211
               9.98538288                1.00342842               28.03709103                1.00000000               -0.03915927               -0.03949296                0.13158043               -0.00019114                0.00052429                0.00765470
              -0.00765344                2.00003935               28.02759368                0.22886288               -0.02999675               -0.03416136                0.09877144               -0.00751903                0.00103160                0.00538854
               0.99204660                1.99960274               28.02838855                0.01000000               -0.05482236               -0.02612522                0.10109608               -0.01522995                0.03694980               -0.00069391
               1.99125012                1.99901489               28.02990271                0.01000001               -0.08476727               -0.02958900                0.10821438               -0.07487739                0.07001035                0.08641360
               2.99035125                1.99852150               28.03133923                0.01000000               -0.09168235               -0.04730099                0.11468514               -0.12201318                0.05542630                0.09554465
               3.98941647                1.99727674               28.03253056                0.01000000               -0.13010104                0.08304538                0.11963299                0.00544774                0.03427602                0.04024580
               4.98774923                1.99698630               28.03356463                0.01000001               -0.14934239                0.03808729                0.12366495                0.10227484                0.00665887                0.04345939
               5.98642962                1.99794288               28.03426538                0.01140217               -0.12795911                0.01404162                0.12583142                0.09907336               -0.02881359                0.03929693
               6.98519005                1.99897535               28.03467300                0.01618229               -0.08115412               -0.01402110                0.12667362                0.04259088               -0.02726168                0.01808892
               7.98480654                2.00032293               28.03549979                0.04101907               -0.03865760               -0.03566970                0.12871278                0.00546660               -0.00605797               -0.00367593
               8.98441690                2.00167505               28.03633048                0.85454575               -0.03926312               -0.03922334                0.13079312               -0.00001476               -0.00384203               -0.00089850
               9.98402128                2.00303158               28.03720092                1.00000000               -0.03956188               -0.03987922                0.13290800               -0.00018671               -0.00183787                0.00866579
              -0.00736690                2.99965474               28.02777050                0.05320342               -0.03006173               -0.01558421                0.10024923               -0.25294668                0.00074991                0.23925071
               0.99233248                2.99937945               28.02854110                0.01000001               -0.08709003               -0.07808764                0.10223261               -0.26649002                0.09521545                0.22703699
               1.99089130                2.99887164               28.03120046                0.01000000               -0.10179562               -0.05490419                0.11496574               -0.14616387                0.11747974                0.11061800
               2.99029657                2.99805552               28.03232309                0.01000000               -0.06199390               -0.06656784                0.11961117               -0.06506484                0.04446110                0.08238685
               3.98965142                2.99748982               28.03348228                0.01197308               -0.08063504               -0.01428199                0.12393812                0.01587675                0.03258512                0.06496709
               4.98868387                2.99745381               28.03436640                0.01000000               -0.13721192                0.02298232                0.12698451                0.14254963                0.00412179                0.06182485
               5.98690718                2.99828790               28.03500403                0.01000001               -0.18361066                0.02660058                0.12886662                0.20338136               -0.03224943                0.08602579
               6.98501166                2.99907303               28.03530467                0.01000001               -0.16687916                0.02579673                0.12957737                0.20920558               -0.05877472                0.11703341
               7.98356960                2.99999344               28.03558032                0.01255813               -0.09730677               -0.01435616                0.13016877                0.17866998               -0.04010924                0.09629022
               8.98306552                3.00128101               28.03637335                0.01356731               -0.04517562               -0.04063253                0.13204690                0.14499078               -0.00834591                0.07280323
               9.98266609                3.00263083               28.03729815                0.04995884               -0.03994336               -0.13614806                0.13415911                0.15889118               -0.00173888                0.07029474
              -0.01216179                3.99972767               28.03259136                0.12476119               -0.03383150                0.01487307                0.12392790               -0.31300477               -0.00389820                0.25695872
               0.98749990                3.99804098               28.03318262                0.01000000                0.09062769               -0.12011228                0.12566328               -0.23880828               -0.06860316                0.23564721
               1.98965076                3.99791680               28.03247811                0.01000000                0.14659383               -0.14345264                0.12135998               -0.07297778               -0.05048109                0.09900786
               2.99043177                3.99719014               28.03341091                0.01197405                0.03424737               -0.10953846                0.12452860                0.00512957                0.02960222                0.06718115
               3.99033571                3.99699110               28.03427387                0.01000000               -0.03148135               -0.07243405                0.12735093                0.11799032                0.03129829                0.05756313
               4.98980215                3.99744595               28.03524495                0.01000001               -0.07288374               -0.02663505                0.13028827                0.22857650                0.04096626                0.08691731
               5.98887804                3.99847489               28.03633514                0.01000001               -0.10667663                0.00032529                0.13351558                0.32589930                0.03799269                0.14030922
               6.98766861                3.99949129               28.03731005                0.01177818               -0.13530386                0.01171127                0.13617627                0.35037543               -0.00360188                0.17710263
               7.98617196                4.00003580               28.03766446                0.01000000               -0.14946449                0.00054896                0.13716993                0.35759785               -0.04610877                0.21432144
               8.98467932                4.00086240               28.03792678                0.01000000               -0.08362556               -0.05140312                0.13738412                0.28549108               -0.03508585                0.23905679
               9.98449945                4.00030862               28.03864049                0.06364460               -0.01798742               -0.21532525                0.13921426                0.21486450               -0.01158751                0.22377322
              -0.01025362                4.99995220               28.03304918                0.31468898               -0.03791975               -0.00405710                0.12642100               -0.05081624               -0.00386175                0.02822757
               0.98936718                4.99697720               28.03355236                0.01000000                0.02681032               -0.07626223                0.12792005                0.04716874               -0.02768995                0.00543088
               1.99028259                4.99600258               28.03357944                0.01000001                0.09788423               -0.17690386                0.12648885                0.09284911               -0.02496424                0.04728798
               2.99132487                4.99586475               28.03409888                0.01000000                0.07364154               -0.17908855                0.12743212                0.14754426                0.02429171                0.03248414
               3.99175542                4.99604114               28.03507428                0.01000001                0.02233690               -0.11907878                0.13031123                0.23801004                0.07138302                0.05723499
               4.99177161                4.99692111               28.03649575                0.01000001               -0.01877941               -0.06968725                0.13446206                0.33894131                0.10277277                0.11055367
               5.99137983                4.99829440               28.03808383                0.01180214               -0.06566767               -0.04331919                0.13896881                0.37227373                0.07834008                0.13903788
               6.99045825                4.99930725               28.03903227                0.01000000               -0.10146951               -0.02584253                0.14242474                0.36797815                0.04594466                0.18374304
               7.98935044                5.00000442               28.04003368                0.01000000               -0.09778654                0.00207992                0.14567394                0.37384405                0.05640153                0.27784273
               8.98850252                5.00025294               28.04126942                0.01000000               -0.06397509               -0.04805108                0.14892267                0.28260175                0.04006482                0.34556269
               9.98807094                4.99832433               28.04199545                0.01581461               -0.04315840               -0.12573498                0.15154986                0.15153861                0.01454127                0.33658292
              -0.00722812                5.99964653               28.03325683                0.87789009               -0.03789958               -0.03379052                0.12569383               -0.00502299               -0.00408184                0.01584296
               0.99239288                5.99651574               28.03363381                0.01000001               -0.00758424               -0.04232571                0.12705482                0.04480062               -0.01123431               -0.00971344
               1.99262020                5.99437873               28.03386871                0.01140613                0.04756098               -0.15152482                0.12757441                0.09804674                0.00428442               -0.01587592
               2.99334410                5.99360837               28.03453258                0.01000001                0.07096782               -0.23155371                0.12937311                0.21865919                0.06378038               -0.01786143
               3.99403955                5.99460952               28.03588432                0.01000001                0.04918018               -0.15498274                0.13293754                0.35284792                0.13060640                0.04318420
               4.99432771                5.99605220               28.03782079                0.01180368               -0.00510893               -0.10526257                0.13827555                0.38547379                0.14111254                0.07706225
               5.99393737                5.99760851               28.03933886                0.01000000               -0.05047759               -0.07390356                0.14364707                0.39307637                0.13325997                0.12513179
               6.99331816                5.99897444               28.04111825                0.01000000               -0.06171118               -0.02724822                0.14962881                0.41193396                0.16662894                0.24164630
               7.99270315                6.00007740               28.04331458                0.01000000               -0.06533511                0.00511003                0.15576500                0.37808639                0.15894769                0.35760949
               8.99201145                5.99990138               28.04494732                0.01072280               -0.06578478               -0.01119567                0.16045683                0.22890689                0.08877239                0.37552832
               9.99138745                5.99779392               28.04576592                0.08445306               -0.06239993               -0.01483060                0.16404274                0.10396893                0.04669263                0.35803911
              -0.00409250                6.99927639               28.03345895                0.99999999               -0.03765052               -0.03695651                0.12473109               -0.00033685               -0.00346280                0.01801888
               0.99553100                6.99613069               28.03371176                0.66811839               -0.03783052               -0.03816949                0.12594230               -0.00068218               -0.01242092               -0.00732865
               1.99515089                6.99297209               28.03378628                0.01618801               -0.00318703               -0.08932107                0.12682598                0.03956843                0.00283657               -0.02753973
               2.99546726                6.99123368               28.03434423                0.01000001                0.06088243               -0.20559833                0.12868748                0.22980152                0.10736108               -0.07082223
               3.99636854                6.99294148               28.03645580                0.01178245                0.05074199               -0.17514129                0.13411984                0.38921115                0.18239469               -0.01182910
               4.99648210                6.99481586               28.03841100                0.01000000               -0.00247084               -0.12790958                0.14037539                0.39681759                0.19954954                0.03787560
               5.99631912                6.99681633               28.04081205                0.01000000               -0.01270296               -0.07706143                0.14831340                0.42998932                0.26172257                0.15683977
               6.99622804                6.99876229               28.04396609                0.01000000               -0.01669513               -0.02238443                0.15746643                0.43055639                0.30635692                0.29081308
               7.99598522                7.00010662               28.04719625                0.01093244               -0.04319502               -0.00798326                0.16569543                0.34526670                0.23375187                0.33981946
               8.99536414                7.00002903               28.04885013                0.01000002               -0.08099944                0.01877696                0.17392740                0.22264848                0.10633155                0.50159443
               9.99436523                6.99802771               28.04952918                0.09132590               -0.09989041                0.09125424                0.17953071                0.12850736                0.05461845                0.44026988
              -0.00094345                7.99890740               28.03371094                0.99127778               -0.03730045               -0.03682794                0.12368838               -0.00018845               -0.00259342                0.02204942
               0.99868354                7.99575235               28.03384206                0.94994798               -0.03739862               -0.03757038                0.12476996               -0.00011639               -0.00453433               -0.00153414
               1.99830857                7.99259231               28.03393505                0.05115042               -0.03564009               -0.03784419                0.12570323                0.00320518               -0.01403358               -0.01649824
               2.99797074                7.98949640               28.03387580                0.01256529               -0.00334910               -0.10948092                0.12622585                0.20708757                0.10040544               -0.06014355
               3.99824159                7.99110670               28.03625306                0.01000000                0.02092363               -0.17856263                0.13292108                0.41526703                0.24513575               -0.06622395
               4.99838921                7.99349401               28.03901208                0.01000000                0.01745717               -0.11391368                0.14170278                0.42338540                0.31616195                0.04777148
               5.99859073                7.99606728               28.04272519                0.01000000                0.01248901               -0.07293342                0.15258225                0.41384984                0.39674556                0.15304538
               6.99863899                7.99852675               28.04699896                0.01096026               -0.01244964               -0.04063657                0.16382277                0.36335053                0.36839598                0.22244390
               7.99834174                7.99991774               28.05005950                0.01000002               -0.00478303                0.01275658                0.17623527                0.27767559                0.40261603                0.39519321
               8.99854333                8.00027692               28.05494382                0.12658094               -0.01907549               -0.01665643                0.19283985                0.17732035                0.25082099                0.30876737
               9.99796023                7.99961901               28.05481204                0.61466830               -0.05830994                0.05022943                0.19576336                0.14705418               -0.00009352                0.26590948
               0.00221383                8.99853983               28.03399469                1.00000000               -0.03700720               -0.03668415                0.12274866               -0.00011968                0.00147568                0.01899142
               1.00184376                8.99537928               28.03403643                0.99999998               -0.03714459               -0.03714082                0.12374740                0.00002677                0.00117755                0.00129426
               2.00147094                8.99221520               28.03407273                0.83699763               -0.03745725               -0.03752444                0.12467696               -0.00020777               -0.00383407               -0.01112441
               3.00109462                8.98904406               28.03401370                0.01373250               -0.03973358               -0.04136340                0.12542672                0.17262376                0.08716660               -0.01710465
               4.00067627                8.98937023               28.03586841                0.01000000               -0.05526977               -0.09049684                0.13012886                0.34030056                0.29280768               -0.05254884
               4.99998922                8.99253759               28.03988171                0.01000000               -0.05564432               -0.06551543                0.14256934                0.33339596                0.41475488                0.03478302
               5.99956338                8.99535766               28.04414829                0.01081148               -0.01723160               -0.06405857                0.15505856                0.25933018                0.43279960                0.08813104
               6.99964459                8.99794956               28.04847273                0.01000002                0.01125874               -0.07760973                0.17024763                0.24807649                0.55246531                0.09548832
               7.99978856                9.00036175               28.05502350                0.15126043               -0.02176596               -0.00662143                0.19136520                0.19333025                0.33577828                0.25228000
               8.99920927                8.99969590               28.05489598                0.99999998               -0.05832090               -0.05829866                0.19434037                0.00037974                0.00057344                0.00107569
               9.99862214                8.99903230               28.05474528                0.99023400               -0.05871294               -0.05906739                0.19725238                0.00002426               -0.00062577               -0.00109923
               0.00537525                9.99817372               28.03418654                0.99573665               -0.03665503               -0.03661136                0.12176218               -0.00027661                0.01395177                0.01434734
               1.00500870                9.99500953               28.03422346                1.00000000               -0.03678072               -0.03697476                0.12275723               -0.00010099                0.01731722                0.00093085
               2.00463964                9.99184182               28.03432802                0.99999999               -0.03702568               -0.03733874                0.12385590               -0.00015042                0.01956954               -0.00518654
               3.00426819                9.98866913               28.03440926                0.04712396               -0.15427818               -0.03749266                0.12461213                0.19010422                0.09787860               -0.00411130
               4.00155407                9.98929676               28.03607832                0.06445479               -0.25992442               -0.00734716                0.12923152                0.26350881                0.29708814               -0.02236823
               4.99906970                9.99218370               28.04028104                0.01556193               -0.15943516               -0.03538855                0.14293255                0.18251517                0.43293478                0.01084416
               5.99836537                9.99478611               28.04480448                0.08296817               -0.02366347               -0.05715555                0.15679171                0.11974113                0.43378565                0.04818318
               6.99859643                9.99697455               28.04898965                0.09092483                0.10483156               -0.09750033                0.17439993                0.14514405                0.51143238                0.04466549
               8.00046200                9.99978531               28.05495487                0.63556250                0.06419738               -0.05764471                0.19297022                0.17416403                0.30810338                0.00041289
               8.99988038                9.99911095               28.05483850                0.99023427               -0.05870442               -0.05849531                0.19594597               -0.00027161                0.00227146                0.00053972
               9.99928791                9.99843766               28.05468782                0.99999550               -0.05924643               -0.05946424                0.19885792               -0.00075150                0.00059340               -0.00058490
              -0.00939062                0.00053389               29.02832197                0.99254621               -0.02985393               -0.02962135                0.09831368                0.00036356               -0.00275447                0.00252448
               0.99031085                0.00006666               29.02917235                0.76838915               -0.03022432               -0.03011541                0.10040457                0.00027019               -0.00376655               -0.00129858
               1.99000490               -0.00040182               29.03000663                0.22721777               -0.03230256               -0.03086180                0.10242901               -0.00163403               -0.00465129               -0.00130105
               2.98966479               -0.00091028               29.03084044                0.03839993               -0.09827662               -0.03036812                0.10463448               -0.14146498                0.06437816               -0.00159640
               3.98803937               -0.00424452               29.03305845                0.10620437               -0.09254067               -0.02303491                0.11635826               -0.20193314                0.07183943               -0.00186135
               4.98781398               -0.00323981               29.03392322                0.30117024               -0.02859246               -0.03566514                0.11948659               -0.01649212                0.00583310               -0.00174569
               5.98746752               -0.00186442               29.03478943                0.82302523               -0.03566435               -0.03667431                0.12168335               -0.00088482                0.00654343               -0.00173717
               6.98710069               -0.00045773               29.03566279                0.99926900               -0.03702719               -0.03735602                0.12383052                0.00027065                0.00776432               -0.00138780
               7.98672697                0.00095579               29.03655161                0.99999998               -0.03771162               -0.03799502                0.12595760                0.00030669                0.00922165               -0.00101181
               8.98634646                0.00237464               29.03745289                1.00000000               -0.03838767               -0.03863528                0.12811803                0.00033450                0.00800264                0.00082963
               9.98595922                0.00379803               29.03831660                0.99567259               -0.03872419               -0.03930061                0.13027058                0.00014070                0.00613630                0.00603731
              -0.00891975                1.00023768               29.02844577                0.76953452               -0.02988440               -0.02984755                0.09871247               -0.00013355                0.00121820                0.00297881
               0.99078141                0.99976551               29.02929755                0.01000000               -0.03016091               -0.03000160                0.10078737               -0.00041883                0.00224896               -0.00257489
               1.99047703                0.99928956               29.03017237                0.01000000               -0.03049552               -0.03771531                0.10313370               -0.02603468                0.00353483                0.03094184
               2.99017149                0.99878604               29.03104885                0.01000001               -0.16461169               -0.03930966                0.10564314               -0.19247824                0.07550355                0.05993791
               3.98718480                0.99552513               29.03335670                0.01000000               -0.18562445                0.06322521                0.11772466               -0.08938043                0.07436068                0.00213555
               4.98645901                0.99640354               29.03420279                0.01000000               -0.05585832               -0.00165310                0.12090321                0.06831666               -0.00256586                0.01419018
               5.98606763                0.99776884               29.03501814                0.01000001               -0.03828533               -0.02077338                0.12307341                0.04368551               -0.00388441                0.01208621
               6.98569330                0.99916871               29.03584111                0.58084715               -0.03768876               -0.03755298                0.12518512               -0.00020277               -0.00266760               -0.00535562
               7.98531386                1.00057584               29.03667958                0.96831811               -0.03823077               -0.03817010                0.12727602               -0.00003542               -0.00048715               -0.00203528
               8.98492868                1.00198828               29.03754510                0.99999999               -0.03883117               -0.03882563                0.12941596                0.00000672                0.00070627                0.00088561
               9.98453723                1.00340503               29.03840674                1.00000000               -0.03914516               -0.03948951                0.13156585               -0.00018908                0.00052653                0.00768770
              -0.00844895                1.99993694               29.02858381                0.22828194               -0.03004634               -0.03456051                0.09924285               -0.00799549                0.00114411                0.00611372
               0.99125059                1.99946663               29.02939867                0.01000000               -0.05436874               -0.02582960                0.10095875               -0.01570179                0.03947765               -0.00066631
               1.99046368                1.99884387               29.03098124                0.01000001               -0.08354640               -0.03010816                0.10757183               -0.07380969                0.07463376                0.09126014
               2.98957966                1.99830353               29.03248149                0.01000000               -0.09147125               -0.04735503                0.11383786               -0.12034794                0.05891684                0.10103634
               3.98863425                1.99701998               29.03372275                0.01000000               -0.13215303                0.08685585                0.11884212                0.00911104                0.03654032                0.04179130
               4.98693660                1.99672713               29.03479828                0.01000001               -0.15290963                0.04110660                0.12306933                0.10965844                0.00754943                0.04492579
               5.98557606                1.99772012               29.03552156                0.01140541               -0.13234786                0.01688205                0.12539548                0.10501592               -0.02945745                0.04064382
               6.98428964                1.99879121               29.03593877                0.01618774               -0.08346857               -0.01254027                0.12646115                0.04517763               -0.02790120                0.01878866
               7.98390669                2.00019238               29.03678621                0.04090073               -0.03861185               -0.03542089                0.12855867                0.00583177               -0.00611187               -0.00361881
               8.98351741                2.00159812               29.03763799                0.85898817               -0.03923665               -0.03919565                0.13070413               -0.00001351               -0.00384974               -0.00092961
               9.98312196                2.00300824               29.03852988                1.00000000               -0.03954507               -0.03987379                0.13288585               -0.00018437               -0.00182654                0.00866964
              -0.00813904                2.99954647               29.02877443                0.05435760               -0.03005190               -0.01370424                0.10053104               -0.24733512                0.00089476                0.25146345
               0.99156044                2.99924892               29.02956152                0.01000001               -0.08485075               -0.07856050                0.10189607               -0.26241806                0.10078231                0.23868533
               1.99016394                2.99868740               29.03234650                0.01000000               -0.09860070               -0.05640034                0.11430498               -0.14262197                0.12404460                0.11680475
               2.98958843                2.99783894               29.03351478                0.01000000               -0.06102661               -0.06663404                0.11878143               -0.05930733                0.04674059                0.08654378
               3.98894341                2.99726224               29.03471760                0.01197168               -0.08181938               -0.01270270                0.12315192                0.02362396                0.03399612                0.06779414
               4.98795204                2.99722567               29.03563247                0.01000000               -0.14197705                0.02586707                0.12623830                0.15384551                0.00430501                0.06388257
               5.98610387                2.99810648               29.03628986                0.01000001               -0.19137274                0.03056086                0.12830112                0.21647548               -0.03315562                0.08846418
               6.98412458                2.99891790               29.03659869                0.01000001               -0.17401477                0.03000647                0.12922453                0.22134396               -0.06025096                0.12031646
               7.98262358                2.99986742               29.03688153                0.01256066               -0.10060136               -0.01236493                0.13005894                0.18847387               -0.04096366                0.09910005
               8.98211256                3.00120437               29.03769336                0.01365229               -0.04551320               -0.03992962                0.13194978                0.15246734               -0.00848534                0.07465771
               9.98171331                3.00260755               29.03863959                0.05187189               -0.03992453               -0.14071478                0.13413028                0.16699027               -0.00174572                0.07200959
              -0.01280055                3.99966286               29.03383090                0.12578896               -0.03381517                0.01803359                0.12396053               -0.30994294               -0.00387274                0.27102121
               0.98686130                3.99789542               29.03443854                0.01000000                0.09108837               -0.12190838                0.12550879               -0.23449270               -0.07178285                0.24934485
               1.98902122                3.99771586               29.03368899                0.01000000                0.14786827               -0.14531882                0.12084024               -0.06687184               -0.05316909                0.10465812
               2.98981867                3.99697084               29.03465255                0.01197265                0.03493873               -0.11060342                0.12382886                0.01360034                0.03041970                0.07060120
               3.98971999                3.99676593               29.03554332                0.01000000               -0.03246966               -0.07289702                0.12655422                0.12950968                0.03193774                0.05986612
               4.98916927                3.99724447               29.03654365                0.01000001               -0.07533270               -0.02462214                0.12946729                0.24482331                0.04179179                0.08950454
               5.98821334                3.99833133               29.03766668                0.01000001               -0.11068434                0.00347946                0.13281687                0.34628999                0.03864865                0.14401345
               6.98695559                3.99939134               29.03866886                0.01176506               -0.14118213                0.01574054                0.13562531                0.37098074               -0.00417070                0.18204633
               7.98538970                3.99994509               29.03903338                0.01000000               -0.15644822                0.00411186                0.13664356                0.37840282               -0.04808934                0.22048658
               8.98382662                4.00079953               29.03929735                0.01000000               -0.08671467               -0.05061931                0.13673700                0.30225567               -0.03690972                0.24627866
               9.98365540                4.00019395               29.04002944                0.06386235               -0.01712175               -0.22428857                0.13857098                0.22761572               -0.01272034                0.23158751
              -0.01080303                4.99990714               29.03431449                0.31352351               -0.03793916               -0.00286141                0.12662036               -0.05225828               -0.00388473                0.03025356
               0.98881758                4.99681075               29.03483191                0.01000000                0.02770572               -0.07758067                0.12796437                0.04901096               -0.02924129                0.00716007
               1.98975109                4.99578102               29.03484251                0.01000001                0.09963955               -0.17982317                0.12611517                0.10005392               -0.02701654                0.05068914
               2.99081037                4.99562687               29.03536996                0.01000000                0.07544460               -0.18317493                0.12678235                0.15849594                0.02419807                0.03463850
               3.99125998                4.99580430               29.03637329                0.01000001                0.02363638               -0.12091447                0.12951007                0.25388826                0.07279688                0.05932357
               4.99128310                4.99673323               29.03783621                0.01000001               -0.01885865               -0.06923743                0.13366007                0.36014273                0.10491961                0.11351350
               5.99088280                4.99817607               29.03946967                0.01178418               -0.06763258               -0.04211499                0.13825311                0.39479251                0.08000717                0.14279823
               6.98993045                4.99923271               29.04045263                0.01000000               -0.10496833               -0.02386832                0.14168877                0.39012903                0.04686013                0.18887781
               7.98878344                4.99994966               29.04148603                0.01000001               -0.10108182                0.00591131                0.14489637                0.39670869                0.05715302                0.28558571
               8.98790881                5.00019199               29.04275484                0.01000000               -0.06533194               -0.04703772                0.14827807                0.30026196                0.04039414                0.35598309
               9.98747680                4.99812178               29.04350780                0.01607306               -0.04320110               -0.12967038                0.15096783                0.16132315                0.01456469                0.34794857
              -0.00765293                5.99960563               29.03451501                0.87301204               -0.03794267               -0.03360039                0.12592415               -0.00534497               -0.00412364                0.01612330
               0.99196764                5.99634381               29.03490481                0.01000001               -0.00704438               -0.04262587                0.12712318                0.04665000               -0.01172896               -0.00971305
               1.99220618                5.99411940               29.03514325                0.01140928                0.04988296               -0.15565840                0.12731609                0.10346023                0.00388037               -0.01504405
               2.99296530                5.99330735               29.03582384                0.01000001                0.07426081               -0.23853357                0.12886669                0.23083686                0.06467322               -0.01704153
               3.99369140                5.99434764               29.03721003                0.01000001                0.05175297               -0.15839026                0.13222363                0.37211495                0.13306988                0.04457599
               4.99400036                5.99585972               29.03919953                0.01178540               -0.00408446               -0.10696760                0.13753872                0.40734774                0.14434030                0.07901212
               5.99360971                5.99748903               29.04077124                0.01000000               -0.05078889               -0.07457654                0.14282822                0.41583627                0.13662807                0.12842451
               6.99298458                5.99891397               29.04260878                0.01000000               -0.06225537               -0.02568456                0.14864582                0.43640051                0.17031098                0.24738212
               7.99236460                6.00006331               29.04486750                0.01000000               -0.06624220                0.00867983                0.15501667                0.40139884                0.16197479                0.36624555
               8.99165974                5.99985878               29.04654971                0.01069383               -0.06711596               -0.00767174                0.16009881                0.24377677                0.09041456                0.38680266
               9.99102228                5.99760054               29.04740431                0.08478412               -0.06374573               -0.01109431                0.16369230                0.11126031                0.04769227                0.37076292
              -0.00438629                6.99923513               29.03470737                0.99999999               -0.03769048               -0.03699870                0.12494268               -0.00035364               -0.00351902                0.01813885
               0.99523681                6.99595823               29.03497150                0.66254098               -0.03784796               -0.03820732                0.12599012               -0.00072301               -0.01263539               -0.00748494
               1.99485675                6.99266785               29.03505402                0.01619327               -0.00189682               -0.09154657                0.12670335                0.04187473                0.00293662               -0.02757896
               2.99519887                6.99085620               29.03562938                0.01000001                0.06465726               -0.21216538                0.12839566                0.24067300                0.10951462               -0.07180124
               3.99614990                6.99263650               29.03779371                0.01176938                0.05448926               -0.18055988                0.13351350                0.40816061                0.18637977               -0.01224426
               4.99628866                6.99459388               29.03981060                0.01000000               -0.00023085               -0.13141268                0.13957646                0.41760732                0.20451415                0.03856779
               5.99614528                6.99668454               29.04228925                0.01000000               -0.01022388               -0.07837024                0.14729566                0.45337595                0.26782574                0.15993573
               6.99608418                6.99871902               29.04553464                0.01000000               -0.01393363               -0.02127146                0.15653304                0.45483119                0.31268188                0.29638626
               7.99586661                7.00012325               29.04885281                0.01089631               -0.04185297               -0.00582026                0.16561593                0.36682290                0.23960504                0.34867533
               8.99524712                7.00003855               29.05058857                0.01000002               -0.08240617                0.02374327                0.17378703                0.23888065                0.11053259                0.51651975
               9.99421849                6.99789989               29.05132234                0.09177993               -0.10286340                0.10307429                0.17911532                0.13884611                0.05744893                0.45486768
              -0.00110620                7.99886566               29.03494881                0.99128068               -0.03733329               -0.03687791                0.12388399               -0.00019460               -0.00264919                0.02218597
               0.99852046                7.99557966               29.03508990                0.95007578               -0.03740419               -0.03758550                0.12479204               -0.00012632               -0.00466263               -0.00163929
               1.99814571                7.99228847               29.03519135                0.05131040               -0.03551744               -0.03779934                0.12554768                0.00332703               -0.01440934               -0.01671064
               2.99781011                7.98906404               29.03513702                0.01256781               -0.00143925               -0.11230533                0.12611011                0.21562526                0.10283076               -0.06101841
               3.99811693                7.99073644               29.03757875                0.01000000                0.02471754               -0.18529430                0.13230415                0.43412841                0.25120028               -0.06864147
               4.99830447                7.99323147               29.04042389                0.01000001                0.02175782               -0.11740430                0.14077927                0.44424529                0.32408420                0.04787370
               5.99855208                7.99592163               29.04424607                0.01000000                0.01690148               -0.07462290                0.15177321                0.43483971                0.40587195                0.15519433
               6.99864250                7.99848854               29.04863743                0.01092294               -0.00852763               -0.04092162                0.16383007                0.38298606                0.37805627                0.22745943
               7.99838153                7.99994691               29.05182259                0.01000002                0.00091086                0.01527123                0.17634758                0.29493268                0.41464406                0.40658872
               8.99866071                8.00033364               29.05687480                0.12664245               -0.01525053               -0.01436252                0.19334964                0.19037773                0.25784102                0.31759344
               9.99807652                7.99966202               29.05677066                0.61475120               -0.05841916                0.05877536                0.19596162                0.15951499               -0.00008363                0.27337989
               0.00218181                8.99849758               29.03522305                1.00000000               -0.03703395               -0.03673519                0.12292771               -0.00012273                0.00146714                0.01915491
               1.00181147                8.99520652               29.03527390                0.99999998               -0.03714441               -0.03714298                0.12374705                0.00002612                0.00113215                0.00128354
               2.00143892                8.99191187               29.03531860                0.84587151               -0.03740304               -0.03747109                0.12449497               -0.00020856               -0.00400280               -0.01117759
               3.00106341                8.98861009               29.03526620                0.01382604               -0.03869419               -0.04138818                0.12506755                0.17879953                0.08877258               -0.01718674
               4.00066504                8.98893061               29.03716475                0.01000000               -0.05375166               -0.09376921                0.12916938                0.35532872                0.30033194               -0.05490618
               4.99998837                8.99224579               29.04130229                0.01000000               -0.05400157               -0.06712727                0.14169451                0.34938169                0.42595282                0.03449057
               5.99958500                8.99519208               29.04569726                0.01078009               -0.01348754               -0.06579108                0.15473753                0.27209804                0.44494492                0.08909078
               6.99971862                8.99790059               29.05017536                0.01000002                0.01675796               -0.07956736                0.17023995                0.26087149                0.56848561                0.09915554
               7.99992016                9.00042868               29.05694107                0.15066757               -0.01895327               -0.00482923                0.19207949                0.20366398                0.34512861                0.25923745
               8.99933956                8.99975130               29.05684078                0.99999998               -0.05840689               -0.05839152                0.19461600                0.00040404                0.00055606                0.00102239
               9.99875202                8.99907540               29.05671765                0.99044184               -0.05875326               -0.05903872                0.19722037                0.00008237               -0.00062552               -0.00115662
               0.00547345                9.99813095               29.03540489                0.99567621               -0.03667496               -0.03666237                0.12192108               -0.00025100                0.01407024                0.01448153
               1.00510670                9.99483680               29.03545088                1.00000000               -0.03677356               -0.03697204                0.12273647               -0.00007233                0.01748130                0.00093420
               2.00473797                9.99153905               29.03556556                0.99999999               -0.03696692               -0.03728172                0.12365612               -0.00012086                0.01961333               -0.00513541
               3.00436736                9.98823627               29.03565354                0.05063706               -0.15750877               -0.03738156                0.12424470                0.19649547                0.09952934               -0.00416665
               4.00158780                9.98886106               29.03736489                0.06468353               -0.26683640               -0.00695570                0.12809829                0.27490891                0.30596756               -0.02384213
               4.99903063                9.99188893               29.04170617                0.01570138               -0.16242757               -0.03568682                0.14212656                0.19146319                0.44597435                0.01057787
               5.99833925                9.99460581               29.04637087                0.08302819               -0.02036495               -0.05862750                0.15648385                0.12583792                0.44792406                0.04885177
               6.99862333                9.99689720               29.05073242                0.09104105                0.11324268               -0.10033945                0.17409916                0.15269649                0.52746863                0.04738803
               8.00060410                9.99985032               29.05688736                0.63510076                0.06993701               -0.05783548                0.19346056                0.18182469                0.31619789                0.00045406
               9.00002207                9.99916581               29.05679819                0.99044192               -0.05870657               -0.05854870                0.19599162               -0.00020231                0.00225451                0.00054127
               9.99942997                9.99848125               29.05667508                1.00000000               -0.05921011               -0.05941498                0.19859593               -0.00066188                0.00059354               -0.00058564
              -0.01027972                0.00043439               30.02930982                0.99148121               -0.03005586               -0.02986969                0.09921945                0.00024405               -0.00292187                0.00273120
               0.98941973               -0.00007393               30.03017836                0.76737527               -0.03035767               -0.03019272                0.10080526                0.00018536               -0.00395887               -0.00140767
               1.98911313               -0.00058443               30.03103012                0.22693523               -0.03242710               -0.03079305                0.10232269               -0.00191686               -0.00479580               -0.00137392
               2.98877118               -0.00114001               30.03188340                0.03945394               -0.09539871               -0.03007408                0.10405370               -0.14386480                0.06920063               -0.00166719
               3.98720516               -0.00456820               30.03421939                0.10725780               -0.08875825               -0.02244816                0.11584233               -0.20665883                0.07708774               -0.00186817
               4.98699602               -0.00354395               30.03511620                0.30085100               -0.02763421               -0.03552334                0.11910831               -0.01789158                0.00636354               -0.00175578
               5.98665247               -0.00211751               30.03600481                0.82087091               -0.03547096               -0.03658268                0.12138418               -0.00101171                0.00657766               -0.00174975
               6.98628660               -0.00065677               30.03690000                0.99944820               -0.03694688               -0.03728817                0.12360222                0.00027629                0.00776826               -0.00139928
               7.98591353                0.00081103               30.03781047                0.99999998               -0.03765935               -0.03794975                0.12580510                0.00031855                0.00924250               -0.00102633
               8.98553341                0.00228421               30.03873372                1.00000000               -0.03836257               -0.03861298                0.12804776                0.00034726                0.00804450                0.00082783
               9.98514628                0.00376192               30.03961931                0.99560083               -0.03871288               -0.03930234                0.13027924                0.00015581                0.00617392                0.00606780
              -0.00976895                1.00013569               30.02943638                0.76835197               -0.03000560               -0.03007138                0.09938572               -0.00018219                0.00135274                0.00327264
               0.98993099                0.99962414               30.03030616                0.01000000               -0.03020223               -0.03003179                0.10095502               -0.00045286                0.00252351               -0.00280083
               1.98962700                0.99910764               30.03120176                0.01000000               -0.03032855               -0.03748059                0.10280825               -0.02590241                0.00401341                0.03271392
               2.98932442                0.99855925               30.03210081                0.01000001               -0.16432294               -0.03918520                0.10485736               -0.19417081                0.08103428                0.06348535
               3.98634054                0.99520732               30.03453138                0.01000000               -0.18663282                0.06599330                0.11722081               -0.09165565                0.07993698                0.00191561
               4.98559176                0.99610081               30.03541001                0.01000000               -0.05708903               -0.00004535                0.12054110                0.07073638               -0.00204734                0.01449245
               5.98519876                0.99751666               30.03624744                0.01000001               -0.03833361               -0.01992267                0.12277892                0.04585244               -0.00392691                0.01250140
               6.98482509                0.99897035               30.03709185                0.57838916               -0.03762651               -0.03748476                0.12495161               -0.00021769               -0.00273985               -0.00540362
               7.98444623                1.00043153               30.03795157                0.96908214               -0.03818235               -0.03812152                0.12711148               -0.00003586               -0.00052900               -0.00206435
               8.98406144                1.00189808               30.03883885                0.99999999               -0.03880460               -0.03880049                0.12933097                0.00000890                0.00070404                0.00087859
               9.98367014                1.00336889               30.03972234                1.00000000               -0.03913038               -0.03948964                0.13156022               -0.00018504                0.00053041                0.00772535
              -0.00926026                1.99983296               30.02957853                0.22768161               -0.03010199               -0.03493882                0.09968869               -0.00846416                0.00126038                0.00688147
               0.99043872                1.99932543               30.03040772                0.01000000               -0.05398845               -0.02554336                0.10088488               -0.01609674                0.04206350               -0.00061692
               1.98965997                1.99866596               30.03205415                0.01000001               -0.08253190               -0.03038259                0.10707884               -0.07286077                0.07939733                0.09619484
               2.98878808                1.99807629               30.03361599                0.01000000               -0.09147450               -0.04719575                0.11312918               -0.11892097                0.06266931                0.10681530
               3.98783048                1.99675167               30.03490741                0.01000000               -0.13433372                0.09089031                0.11812789                0.01259817                0.03917173                0.04335740
               4.98610141                1.99645514               30.03602601                0.01000001               -0.15652509                0.04426390                0.12248393                0.11691528                0.00869549                0.04623236
               5.98469998                1.99748403               30.03677329                0.01140831               -0.13670193                0.01976965                0.12494713                0.11087423               -0.02993030                0.04186315
               6.98336737                1.99859354               30.03720223                0.01619328               -0.08574472               -0.01105426                0.12620844                0.04772231               -0.02847994                0.01942479
               7.98298509                2.00004860               30.03807097                0.04078777               -0.03855696               -0.03516309                0.12837846                0.00620462               -0.00617219               -0.00353875
               8.98259623                2.00150820               30.03894456                0.86339803               -0.03920611               -0.03916446                0.13060486               -0.00000846               -0.00385775               -0.00096140
               9.98220096                2.00297212               30.03985864                1.00000000               -0.03952673               -0.03987134                0.13287012               -0.00017955               -0.00181447                0.00867787
              -0.00892318                2.99943692               30.02978112                0.05546275               -0.03007605               -0.01124637                0.10080277               -0.24207758                0.00104151                0.26370169
               0.99077606                2.99911327               30.03057902                0.01000001               -0.08289444               -0.07839692                0.10164233               -0.25847473                0.10648270                0.25054971
               1.98941893                2.99849999               30.03348656                0.01000000               -0.09578860               -0.05759983                0.11375854               -0.13922645                0.13080252                0.12323665
               2.98886029                2.99761534               30.03469872                0.01000000               -0.06026377               -0.06646543                0.11805768               -0.05385540                0.04928439                0.09096442
               3.98821365                2.99702513               30.03594532                0.01197112               -0.08312908               -0.01094718                0.12241689                0.03118148                0.03568283                0.07077203
               4.98719770                2.99698609               30.03689117                0.01000000               -0.14679046                0.02885791                0.12550983                0.16500658                0.00476744                0.06594356
               5.98527785                2.99791205               30.03757005                0.01000001               -0.19913687                0.03456583                0.12773697                0.22945007               -0.03380586                0.09085632
               6.98321497                2.99874927               30.03788916                0.01000001               -0.18110933                0.03423692                0.12885526                0.23336755               -0.06153306                0.12349931
               7.98165566                2.99972827               30.03818150                0.01256769               -0.10386079               -0.01037822                0.12992469                0.19810607               -0.04177464                0.10175395
               8.98113775                3.00111479               30.03901234                0.01375558               -0.04584751               -0.03908556                0.13183670                0.15960176               -0.00865221                0.07624869
               9.98073871                3.00257147               30.03998076                0.05382487               -0.03990430               -0.14499814                0.13410546                0.17466273               -0.00175200                0.07342189
              -0.01345453                3.99960803               30.03507057                0.12677355               -0.03393172                0.02181234                0.12395765               -0.30720175               -0.00384536                0.28503980
               0.98620616                3.99775749               30.03569280                0.01000000                0.09139541               -0.12295671                0.12532646               -0.23078946               -0.07502957                0.26323537
               1.98837338                3.99751396               30.03489491                0.01000000                0.14898391               -0.14689398                0.12036849               -0.06126241               -0.05582605                0.11060786
               2.98918583                3.99674698               30.03588749                0.01197192                0.03549884               -0.11145527                0.12317951                0.02182627                0.03136704                0.07426011
               3.98908336                3.99653273               30.03680496                0.01000000               -0.03356085               -0.07321135                0.12578947                0.14083853                0.03275470                0.06231989
               4.98851462                3.99703230               30.03783430                0.01000001               -0.07787767               -0.02252907                0.12867199                0.26092673                0.04287982                0.09221505
               5.98752581                3.99817535               30.03899148                0.01000001               -0.11480578                0.00668766                0.13216090                0.36658449                0.03959195                0.14779649
               6.98621850                3.99927828               30.04002255                0.01175562               -0.14720622                0.01978108                0.13513345                0.39149094               -0.00458778                0.18695221
               7.98458168                3.99984104               30.04039733                0.01000000               -0.16367143                0.00768715                0.13615793                0.39919202               -0.05014928                0.22647855
               8.98294507                4.00072649               30.04066152                0.01000000               -0.09004025               -0.04972712                0.13611053                0.31909994               -0.03890602                0.25334422
               9.98278088                4.00007216               30.04141191                0.06410380               -0.01641973               -0.23315190                0.13793164                0.24044689               -0.01398507                0.23918741
              -0.01136614                4.99987316               30.03558158                0.31240290               -0.03795203               -0.00159587                0.12677449               -0.05368527               -0.00391046                0.03239987
               0.98825434                4.99665414               30.03611165                0.01000000                0.02851672               -0.07878040                0.12795813                0.05064287               -0.03091908                0.00900527
               1.98920420                4.99556211               30.03610174                0.01000001                0.10118519               -0.18238133                0.12573306                0.10687410               -0.02923122                0.05428076
               2.99027805                4.99538623               30.03663453                0.01000000                0.07704554               -0.18694309                0.12616328                0.16918741                0.02412663                0.03698955
               3.99074511                4.99556090               30.03766448                0.01000001                0.02477852               -0.12260522                0.12873736                0.26955885                0.07439302                0.06159001
               4.99077362                4.99653551               30.03916895                0.01000001               -0.01907766               -0.06871198                0.13291457                0.38117915                0.10734095                0.11668309
               5.99036355                4.99804581               30.04084889                0.01177042               -0.06972590               -0.04089639                0.13762700                0.41721301                0.08191348                0.14667180
               6.98937910                4.99914489               30.04186605                0.01000000               -0.10861352               -0.02191059                0.14103874                0.41229132                0.04789314                0.19408917
               7.98819128                4.99988202               30.04293160                0.01000001               -0.10452360                0.00972444                0.14427847                0.41977009                0.05802862                0.29354704
               8.98728863                5.00012025               30.04423498                0.01000000               -0.06674870               -0.04613928                0.14779869                0.31821399                0.04085660                0.36673877
               9.98685631                4.99790843               30.04501481                0.01635946               -0.04323163               -0.13387576                0.15047691                0.17137876                0.01465140                0.35952941
              -0.00809019                5.99957612               30.03577532                0.86823971               -0.03797444               -0.03339003                0.12611985               -0.00567240               -0.00416832                0.01643493
               0.99153007                5.99618189               30.03617627                0.01000001               -0.00655203               -0.04291241                0.12714881                0.04837582               -0.01230439               -0.00969421
               1.99177877                5.99386633               30.03641503                0.01141232                0.05203597               -0.15948538                0.12700795                0.10868851                0.00336180               -0.01407494
               2.99257079                5.99300812               30.03710992                0.01000001                0.07732426               -0.24508820                0.12823902                0.24270498                0.06554567               -0.01606797
               3.99332526                5.99408062               30.03852880                0.01000001                0.05412540               -0.16165118                0.13155242                0.39098759                0.13567807                0.04617198
               4.99365330                5.99565806               30.04057156                0.01177176               -0.00322864               -0.10863242                0.13689587                0.42900124                0.14778909                0.08112309
               5.99326069                5.99735742               30.04219542                0.01000000               -0.05125890               -0.07527939                0.14207517                0.43850246                0.14015138                0.13178960
               6.99262812                5.99884007               30.04409116                0.01000000               -0.06294829               -0.02417622                0.14792208                0.46085566                0.17431351                0.25357467
               7.99200172                6.00003553               30.04641491                0.01000000               -0.06725890                0.01215135                0.15456815                0.42478741                0.16551852                0.37551303
               8.99128294                5.99980371               30.04814930                0.01067164               -0.06848101               -0.00429599                0.15988732                0.25878768                0.09242589                0.39850221
               9.99063210                5.99739465               30.04903977                0.08514660               -0.06508410               -0.00748592                0.16344436                0.11861199                0.04888810                0.38364932
              -0.00469113                6.99920536               30.03595781                0.99999999               -0.03772335               -0.03703387                0.12513442               -0.00036866               -0.00357351                0.01826763
               0.99493164                6.99579589               30.03623156                0.65696264               -0.03785692               -0.03823651                0.12600920               -0.00076429               -0.01285168               -0.00764509
               1.99455174                6.99237240               30.03632035                0.01619890               -0.00068915               -0.09364127                0.12654224                0.04415339                0.00307041               -0.02755888
               2.99491786                6.99048447               30.03691214                0.01000001                0.06815918               -0.21844531                0.12806171                0.25123264                0.11165539               -0.07228578
               3.99591492                6.99232788               30.03912607                0.01175949                0.05794918               -0.18589002                0.13296278                0.42659348                0.19042949               -0.01259439
               4.99607684                6.99436286               30.04120253                0.01000000                0.00183378               -0.13491314                0.13884442                0.43813072                0.20967127                0.03934055
               5.99595160                6.99654022               30.04375796                0.01000000               -0.00793671               -0.07971369                0.14652205                0.47662261                0.27450964                0.16330041
               6.99591811                6.99866136               30.04709675                0.01000000               -0.01141022               -0.02024240                0.15604299                0.47901534                0.31997900                0.30287241
               7.99572339                7.00012504               30.05050857                0.01086600               -0.04064236               -0.00371339                0.16562718                0.38842501                0.24609853                0.35817217
               8.99510526                7.00003433               30.05232587                0.01000002               -0.08383590                0.02864402                0.17369879                0.25514013                0.11487049                0.53206157
               9.99404667                6.99775871               30.05311149                0.09227612               -0.10585874                0.11483275                0.17872166                0.14917409                0.06025969                0.46984269
              -0.00127862                7.99883544               30.03618862                0.99127658               -0.03736349               -0.03692584                0.12407442               -0.00019821               -0.00270633                0.02233212
               0.99834775                7.99541716               30.03633790                0.95020082               -0.03740575               -0.03759626                0.12480020               -0.00013597               -0.00479436               -0.00174891
               1.99797327                7.99199351               30.03644600                0.05142613               -0.03538914               -0.03774765                0.12536950                0.00344507               -0.01462848               -0.01693902
               2.99763996                7.98863921               30.03639800                0.01257480                0.00027342               -0.11503318                0.12654278                0.22376857                0.10517049               -0.06181318
               3.99797873                7.99036282               30.03889914                0.01000000                0.02818040               -0.19209557                0.13180768                0.45262438                0.25686559               -0.07131056
               4.99820357                7.99295979               30.04182766                0.01000001                0.02579495               -0.12088746                0.13992096                0.46496266                0.33244883                0.04810672
               5.99849463                7.99576315               30.04576065                0.01000000                0.02100148               -0.07627675                0.15125925                0.45565198                0.41590347                0.15788290
               6.99862360                7.99843522               30.05027557                0.01089166               -0.00486905               -0.04118449                0.16386784                0.40252512                0.38849347                0.23312377
               7.99839725                7.99996126               30.05358645                0.01000002                0.00642375                0.01783449                0.17643668                0.31218474                0.42729960                0.41865236
               8.99875208                8.00037659               30.05881081                0.12672773               -0.01152127               -0.01206856                0.19384386                0.20342963                0.26522719                0.32683836
               9.99816683                7.99969130               30.05873127                0.61484186               -0.05852492                0.06730247                0.19615496                0.17193200               -0.00007209                0.28126273
               0.00214148                8.99846685               30.03645325                1.00000000               -0.03706237               -0.03678895                0.12311659               -0.00012324                0.00145771                0.01932569
               1.00177085                8.99504397               30.03651137                0.99999998               -0.03714466               -0.03714547                0.12374813                0.00002584                0.00108479                0.00127103
               2.00139858                8.99161745               30.03656263                0.85455419               -0.03734676               -0.03741566                0.12430655               -0.00020921               -0.00417191               -0.01123918
               3.00102392                8.98818380               30.03651505                0.01393833               -0.03758792               -0.04140456                0.12469461                0.18440024                0.09018931               -0.01744043
               4.00064682                8.98848597               30.03845180                0.01000000               -0.05240740               -0.09715836                0.12827223                0.37016843                0.30791762               -0.05766470
               4.99997577                8.99194511               30.04271560                0.01000000               -0.05288061               -0.06861517                0.14099006                0.36541759                0.43788323                0.03434945
               5.99958921                8.99501468               30.04724304                0.01075434               -0.01026344               -0.06736044                0.15447465                0.28477692                0.45785150                0.09048682
               6.99977050                8.99783768               30.05187753                0.01000002                0.02182521               -0.08135101                0.17019888                0.27363792                0.58535437                0.10295220
               8.00002572                9.00048173               30.05886509                0.15011170               -0.01633448               -0.00297274                0.19269656                0.21391135                0.35494094                0.26660978
               8.99944381                8.99979296               30.05878830                0.99999998               -0.05849148               -0.05848168                0.19488420                0.00043512                0.00050378                0.00096676
               9.99885589                8.99910476               30.05868969                0.99064410               -0.05879238               -0.05901044                0.19718809                0.00013864               -0.00062516               -0.00121546
               0.00556467                9.99809966               30.03662496                0.99560400               -0.03670117               -0.03671854                0.12210490               -0.00022158                0.01419333                0.01462092
               1.00519766                9.99467425               30.03667819                1.00000000               -0.03677140               -0.03697198                0.12273229               -0.00004230                0.01765043                0.00093674
               2.00482924                9.99124520               30.03680115                0.88583742               -0.03691065               -0.03722511                0.12346513               -0.00009012                0.01966838               -0.00508826
               3.00445945                9.98781112               30.03689416                0.05416993               -0.16042250               -0.03726832                0.12387698                0.20227605                0.10090875               -0.00422303
               4.00162079                9.98841965               30.03864029                0.06493138               -0.27381207               -0.00663122                0.12694043                0.28621563                0.31485305               -0.02555212
               4.99898321                9.99158749               30.04312357                0.01585563               -0.16615936               -0.03576199                0.14137744                0.20055801                0.45966451                0.01039307
               5.99829761                9.99441594               30.04793416                0.08309547               -0.01769485               -0.05987439                0.15620550                0.13187488                0.46262951                0.04977117
               6.99862931                9.99680820               30.05247163                0.09117502                0.12112925               -0.10294775                0.17374424                0.16017417                0.54421149                0.05006056
               8.00072019                9.99990180               30.05882408                0.63465793                0.07542208               -0.05799291                0.19385656                0.18938546                0.32479306                0.00047689
               9.00013775                9.99920695               30.05875833                0.99064412               -0.05870946               -0.05860075                0.19603659               -0.00014150                0.00220067                0.00054285
               9.99954600                9.99851109               30.05865974                1.00000000               -0.05917476               -0.05936674                0.19834042               -0.00057452                0.00059365               -0.00058637
              -0.01118614                0.00033539               31.03030635                0.99039766               -0.03024866               -0.03009740                0.10004848                0.00014307               -0.00309453                0.00294541
               0.98851137               -0.00021708               31.03118846                0.76630880               -0.03049577               -0.03027898                0.10122199                0.00011470               -0.00415664               -0.00152111
               1.98820394               -0.00077258               31.03205308                0.22660599               -0.03259161               -0.03076133                0.10232578               -0.00219837               -0.00493347               -0.00144949
               2.98785954               -0.00137845               31.03292151                0.04046457               -0.09278062               -0.02983975                0.10367103               -0.14636323                0.07424460               -0.00174152
               3.98634833               -0.00490588               31.03537529                0.10827094               -0.08518530               -0.02187023                0.11535696               -0.21160464                0.08237377               -0.00189692
               4.98615583               -0.00386256               31.03630539                0.30052987               -0.02665322               -0.03538701                0.11875428               -0.01932285                0.00694704               -0.00177496
               5.98581526               -0.00238468               31.03721711                0.81878119               -0.03527168               -0.03649415                0.12109624               -0.00114413                0.00660874               -0.00176015
               6.98545040               -0.00086942               31.03813483                0.99964740               -0.03685783               -0.03721694                0.12335919                0.00028330                0.00775813               -0.00141231
               7.98507811                0.00065305               31.03906771                0.99999998               -0.03759464               -0.03789976                0.12562711                0.00033450                0.00926186               -0.00104098
               8.98469851                0.00218093               31.04001384                1.00000000               -0.03832994               -0.03859160                0.12796960                0.00036304                0.00810289                0.00082737
               9.98431151                0.00371333               31.04092219                0.99551909               -0.03869966               -0.03931209                0.13031152                0.00017467                0.00623302                0.00611070
              -0.01063225                1.00003442               31.03043348                0.76714041               -0.03012518               -0.03027794                0.10000674               -0.00022686                0.00149293                0.00357775
               0.98906650                0.99948013               31.03131665                0.01000000               -0.03025559               -0.03007479                0.10116292               -0.00048659                0.00281053               -0.00303535
               1.98876264                0.99891981               31.03222853                0.01000000               -0.03019735               -0.03722279                0.10261521               -0.02587807                0.00452482                0.03450436
               2.98846255                0.99832316               31.03314599                0.01000001               -0.16441519               -0.03898124                0.10429271               -0.19620685                0.08691107                0.06714212
               3.98547434                0.99487542               31.03570112                0.01000000               -0.18802763                0.06895347                0.11672669               -0.09401236                0.08566344                0.00161055
               4.98470200                0.99578357               31.03661361                0.01000000               -0.05835422                0.00165910                0.12018879                0.07318776               -0.00149424                0.01467166
               5.98430725                0.99725038               31.03747372                0.01000001               -0.03838167               -0.01902777                0.12248956                0.04804091               -0.00399860                0.01282617
               6.98393437                0.99875841               31.03834014                0.57599250               -0.03754873               -0.03740936                0.12469601               -0.00021783               -0.00284427               -0.00546558
               7.98355628                1.00027405               31.03922181                0.96985771               -0.03811867               -0.03806813                0.12691914               -0.00002979               -0.00058252               -0.00209466
               8.98317199                1.00179501               31.04013172                0.99999999               -0.03877112               -0.03877624                0.12923782                0.00001161                0.00070756                0.00087044
               9.98278086                1.00332021               31.04103794                1.00000000               -0.03911387               -0.03949720                0.13157440               -0.00018038                0.00054252                0.00776943
              -0.01008212                1.99972983               31.03057759                0.22706702               -0.03016363               -0.03529715                0.10010660               -0.00892861                0.00138073                0.00768869
               0.98961625                1.99918143               31.03141636                0.01000000               -0.05372635               -0.02526490                0.10087537               -0.01643552                0.04470018               -0.00055276
               1.98884336                1.99848296               31.03312282                0.01000001               -0.08182293               -0.03042223                0.10674006               -0.07209184                0.08427072                0.10119117
               2.98797979                1.99784193               31.03474407                0.01000000               -0.09178455               -0.04682126                0.11254982               -0.11784870                0.06657622                0.11279916
               3.98700766                1.99647319               31.03608530                0.01000000               -0.13675822                0.09523584                0.11746986                0.01594882                0.04207675                0.04496014
               4.98524462                1.99617063               31.03724796                0.01000001               -0.16032112                0.04763443                0.12189857                0.12411161                0.01004562                0.04740504
               5.98380124                1.99723477               31.03802050                0.01141096               -0.14111257                0.02275196                0.12448249                0.11671370               -0.03025827                0.04297213
               6.98242237                1.99838240               31.03846294                0.01619803               -0.08801660               -0.00954249                0.12591508                0.05025131               -0.02902215                0.01999819
               7.98204091                1.99989169               31.03935378                0.04069318               -0.03848963               -0.03489610                0.12816780                0.00658177               -0.00623753               -0.00342028
               8.98165258                2.00140541               31.04025008                0.86778223               -0.03916988               -0.03913134                0.13049249               -0.00000209               -0.00386491               -0.00099561
               9.98125751                2.00292338               31.04118728                1.00000000               -0.03950669               -0.03987457                0.13286794               -0.00017268               -0.00180024                0.00868910
              -0.00971401                2.99932847               31.03079049                0.05650613               -0.03013303               -0.00833188                0.10106415               -0.23735405                0.00119391                0.27594331
               0.98998466                2.99897484               31.03159437                0.01000001               -0.08128427               -0.07769630                0.10146521               -0.25484982                0.11229202                0.26255354
               1.98866030                2.99831136               31.03462167                0.01000000               -0.09346518               -0.05850635                0.11331943               -0.13607225                0.13770199                0.12983091
               2.98811535                2.99738673               31.03587593                0.01000000               -0.05978421               -0.06608471                0.11742220               -0.04875244                0.05202781                0.09559354
               3.98746462                2.99678014               31.03716594                0.01197069               -0.08463485               -0.00900146                0.12172101                0.03850709                0.03758550                0.07389204
               4.98642266                2.99673626               31.03814267                0.01000000               -0.15174303                0.03201833                0.12478673                0.17605030                0.00548883                0.06804271
               5.98442976                2.99770542               31.03884460                0.01000001               -0.20700900                0.03868264                0.12716817                0.24234919               -0.03421985                0.09324819
               6.98228248                2.99856756               31.03917580                0.01000001               -0.18824268                0.03855519                0.12846800                0.24531564               -0.06265022                0.12662761
               7.98066490                2.99957613               31.03948002                0.01257896               -0.10711117               -0.00835675                0.12975431                0.20758297               -0.04257065                0.10428105
               8.98014025                3.00101239               31.04033009                0.01387773               -0.04617304               -0.03808133                0.13169899                0.16639685               -0.00886216                0.07759467
               9.97974144                3.00252272               31.04132170                0.05581912               -0.03988102               -0.14898729                0.13408313                0.18190353               -0.00175599                0.07453892
              -0.01412192                3.99956319               31.03631006                0.12769621               -0.03417151                0.02609584                0.12392806               -0.30493738               -0.00381621                0.29898565
               0.98553636                3.99762750               31.03694507                0.01000000                0.09159693               -0.12337268                0.12511399               -0.22779884               -0.07829776                0.27724202
               1.98771001                3.99731284               31.03609636                0.01000000                0.14998024               -0.14824230                0.11993739               -0.05619910               -0.05842686                0.11678111
               2.98853597                3.99652024               31.03711614                0.01197145                0.03591310               -0.11212518                0.12257914                0.02975674                0.03243164                0.07814056
               3.98842828                3.99629316               31.03805911                0.01000000               -0.03478105               -0.07339361                0.12504574                0.15197779                0.03375335                0.06493713
               4.98784034                3.99681099               31.03911709                0.01000001               -0.08056758               -0.02033175                0.12789490                0.27690545                0.04424752                0.09510550
               5.98681692                3.99800842               31.04030990                0.01000001               -0.11911835                0.01000726                0.13153782                0.38683627                0.04084730                0.15172276
               6.98545798                3.99915350               31.04137153                0.01174899               -0.15345895                0.02391608                0.13467757                0.41196266               -0.00485897                0.19187756
               7.98374775                3.99972455               31.04175654                0.01000000               -0.17120246                0.01134439                0.13569279                0.42002264               -0.05229737                0.23234469
               8.98203393                4.00064378               31.04201956                0.01000000               -0.09364109               -0.04867018                0.13549354                0.33607853               -0.04106026                0.26029638
               9.98187492                3.99994364               31.04278807                0.06436896               -0.01590042               -0.24191048                0.13729999                0.25342221               -0.01536076                0.24659675
              -0.01194138                4.99985039               31.03684998                0.31131764               -0.03795871               -0.00025440                0.12688424               -0.05511535               -0.00393881                0.03464979
               0.98767904                4.99650738               31.03739107                0.01000000                0.02924811               -0.07987443                0.12789880                0.05208009               -0.03269175                0.01094547
               1.98864359                4.99534652               31.03735717                0.01000001                0.10255637               -0.18467677                0.12535592                0.11333038               -0.03153121                0.05799854
               2.98973016                4.99514423               31.03789323                0.01000000                0.07849156               -0.19059332                0.12554726                0.17961166                0.02409869                0.03943122
               3.99021342                4.99531226               31.03894804                0.01000001                0.02576712               -0.12418378                0.12800134                0.28502169                0.07617550                0.06407334
               4.99024551                4.99632963               31.04049450                0.01000001               -0.01947207               -0.06811933                0.13222048                0.40212373                0.11009516                0.12011659
               5.98982398                4.99790557               31.04222221                0.01175973               -0.07199533               -0.03963311                0.13707547                0.43962335                0.08407338                0.15072153
               6.98880560                4.99904588               31.04327340                0.01000000               -0.11244492               -0.01993681                0.14048017                0.43454167                0.04909551                0.19940792
               7.98757508                4.99980302               31.04437160                0.01000001               -0.10814325                0.01360264                0.14376465                0.44310964                0.05910981                0.30171746
               8.98664274                5.00003898               31.04571082                0.01000000               -0.06824556               -0.04529226                0.14740462                0.33654836                0.04145665                0.37784191
               9.98621017                4.99768451               31.04651734                0.01667437               -0.04325690               -0.13833948                0.15006280                0.18176117                0.01478426                0.37134212
              -0.00853822                5.99955811               31.03703741                0.86357097               -0.03799475               -0.03316013                0.12628121               -0.00600415               -0.00421574                0.01677609
               0.99108184                5.99603001               31.03744778                0.01000001               -0.00610038               -0.04318370                0.12713059                0.04996975               -0.01296813               -0.00965980
               1.99133978                5.99361930               31.03768340                0.01141496                0.05403078               -0.16304034                0.12667957                0.11361757                0.00258291               -0.01304285
               2.99216245                5.99270837               31.03838862                0.01000001                0.08017680               -0.25109161                0.12778421                0.25431347                0.06646143               -0.01504388
               3.99294331                5.99380949               31.03984107                0.01000001                0.05635326               -0.16489976                0.13088342                0.40974621                0.13864373                0.04793613
               4.99328952                5.99544861               31.04193745                0.01176142               -0.00250887               -0.11025184                0.13632612                0.45054804                0.15148343                0.08341642
               5.99289313                5.99721576               31.04361275                0.01000000               -0.05190779               -0.07601245                0.14145122                0.46117178                0.14392883                0.13530752
               6.99225136                5.99875476               31.04556722                0.01000001               -0.06381471               -0.02269077                0.14736750                0.48541965                0.17873589                0.26010849
               7.99161684                5.99999660               31.04795886                0.01000000               -0.06839782                0.01560733                0.15428213                0.44837767                0.16953720                0.38533451
               8.99088340                5.99973793               31.04974745                0.01065494               -0.06988699               -0.00103583                0.15979532                0.27395640                0.09473400                0.41055996
               9.99021910                5.99717685               31.05067319                0.08554309               -0.06643043               -0.00396316                0.16330096                0.12600562                0.05023579                0.39664823
              -0.00500527                6.99918719               31.03721006                0.99999999               -0.03774906               -0.03706234                0.12530689               -0.00038191               -0.00362654                0.01840503
               0.99461724                6.99564371               31.03749168                0.65139602               -0.03785724               -0.03825687                0.12599896               -0.00080607               -0.01307039               -0.00780963
               1.99423758                6.99208571               31.03758486                0.01620355                0.00045071               -0.09559482                0.12634110                0.04659763                0.00316666               -0.02747265
               2.99462625                6.99012240               31.03819062                0.01000001                0.07152618               -0.22417510                0.12688347                0.26132457                0.11383194               -0.07302128
               3.99566811                6.99201427               31.04045297                0.01175276                0.06119728               -0.19124921                0.13257772                0.44417297                0.19464348               -0.01275523
               4.99585020                6.99412459               31.04258749                0.01000000                0.00365744               -0.13840366                0.13815061                0.45867296                0.21511863                0.04008401
               5.99574125                6.99638532               31.04521969                0.01000001               -0.00585235               -0.08107743                0.14591869                0.49982975                0.28168223                0.16702062
               6.99573315                6.99859207               31.04865550                0.01000000               -0.00908967               -0.01922628                0.15577910                0.50325280                0.32799321                0.30998151
               7.99555946                7.00011516               31.05216536                0.01084096               -0.03957657               -0.00165850                0.16581147                0.41008183                0.25309200                0.36818855
               8.99494162                7.00001827               31.05406255                0.01000002               -0.08535071                0.03350248                0.17369257                0.27135559                0.11928347                0.54812641
               9.99385245                6.99760524               31.05489677                0.09281696               -0.10891706                0.12661124                0.17836611                0.15945077                0.06301979                0.48514223
              -0.00145890                7.99881686               31.03743030                0.99126700               -0.03739105               -0.03697209                0.12426062               -0.00019936               -0.00276515                0.02248777
               0.99816719                7.99526488               31.03758591                0.95032061               -0.03740312               -0.03760263                0.12479415               -0.00014544               -0.00492992               -0.00186285
               1.99779304                7.99170741               31.03769874                0.05150485               -0.03534042               -0.03768867                0.12516731                0.00371058               -0.01421792               -0.01718252
               2.99746038                7.98822487               31.03766788                0.01258548                0.00157685               -0.11786349                0.12923140                0.23144333                0.10730677               -0.06364685
               3.99782458                7.98998450               31.04021490                0.01000000                0.03157718               -0.19890494                0.13051705                0.47051997                0.26251657               -0.07394308
               4.99809193                7.99268053               31.04322230                0.01000001                0.02988365               -0.12438583                0.13926351                0.48571567                0.34124159                0.04847455
               5.99842225                7.99559421               31.04727126                0.01000000                0.02473219               -0.07785005                0.15088671                0.47642776                0.42680159                0.16104609
               6.99858657                7.99837024               31.05191478                0.01086599               -0.00149856               -0.04142510                0.16405079                0.42198655                0.39956287                0.23924248
               7.99839228                7.99996343               31.05535132                0.01000002                0.01169320                0.02040384                0.17658617                0.32932501                0.44048813                0.43123391
               8.99882044                8.00040798               31.06075167                0.12683647               -0.00790587               -0.00975754                0.19432178                0.21645306                0.27295385                0.33646566
               9.99823416                7.99970907               31.06069376                0.61493986               -0.05862734                0.07586875                0.19634114                0.18432359               -0.00005965                0.28954209
               0.00209471                8.99844775               31.03768538                1.00000000               -0.03709254               -0.03684580                0.12331634               -0.00012126                0.00144730                0.01950375
               1.00172378                8.99489166               31.03774886                0.99999998               -0.03714520               -0.03714826                0.12375039                0.00002588                0.00103558                0.00125715
               2.00135180                8.99133194               31.03780473                0.86305825               -0.03728800               -0.03735775                0.12411012               -0.00020983               -0.00434069               -0.01130796
               3.00097802                8.98776513               31.03776010                0.01406884               -0.03644811               -0.04156306                0.12430494                0.18951195                0.09146204               -0.01833742
               4.00062284                8.98803617               31.03973020                0.01000000               -0.05116096               -0.10057314                0.12724296                0.38513075                0.31562548               -0.06068906
               4.99995480                8.99163687               31.04412209                0.01000000               -0.05213675               -0.06998440                0.14034286                0.38151351                0.45050756                0.03449557
               5.99958010                8.99482832               31.04878676                0.01073474               -0.00755725               -0.06876080                0.15432122                0.29741098                0.47143315                0.09220387
               6.99980366                8.99776357               31.05357934                0.01000002                0.02640555               -0.08300182                0.17019808                0.28629948                0.60294586                0.10678910
               8.00010822                9.00052324               31.06079500                0.14959357               -0.01393095               -0.00107742                0.19326801                0.22402681                0.36519895                0.27434186
               8.99952504                8.99982312               31.06073846                0.99999998               -0.05857398               -0.05856891                0.19514403                0.00046848                0.00043803                0.00091036
               9.99893674                8.99912262               31.06066141                0.99084103               -0.05883015               -0.05898265                0.19715592                0.00019323               -0.00062465               -0.00127480
               0.00565086                9.99807994               31.03784699                0.99552238               -0.03673376               -0.03678022                0.12231470               -0.00018815                0.01432113                0.01476551
               1.00528352                9.99452191               31.03790553                1.00000000               -0.03677419               -0.03697452                0.12274448               -0.00001073                0.01782475                0.00093883
               2.00491537                9.99096025               31.03803486                0.88729245               -0.03685650               -0.03716852                0.12328154               -0.00005810                0.01973409               -0.00504408
               3.00454639                9.98739361               31.03813108                0.05772317               -0.16299639               -0.03715206                0.12350631                0.20747629                0.10197924               -0.00428040
               4.00165544                9.98797304               31.03990369                0.06519804               -0.28081688               -0.00631306                0.12576269                0.29762251                0.32375629               -0.02750658
               4.99893005                9.99128084               31.04453372                0.01602547               -0.17058343               -0.03560293                0.14067850                0.20982277                0.47407515                0.01033118
               5.99824378                9.99421899               31.04949498                0.08317092               -0.01562070               -0.06093222                0.15601473                0.13783504                0.47782030                0.05089024
               6.99861764                9.99671020               31.05420730                0.09132770                0.12847450               -0.10533663                0.17340010                0.16754269                0.56154689                0.05266184
               8.00081327                9.99994188               31.06076449                0.63423191                0.08063940               -0.05813546                0.19421238                0.19682530                0.33388303                0.00049386
               9.00023043                9.99923660               31.06071892                0.99084117               -0.05871226               -0.05865115                0.19608023               -0.00008435                0.00213283                0.00054445
               9.99963902                9.99852942               31.06064188                1.00000000               -0.05914042               -0.05931976                0.19809207               -0.00048979                0.00059365               -0.00058705
              -0.01210582                0.00023905               32.03131079                0.98929662               -0.03043164               -0.03030319                0.10079598                0.00006160               -0.00327208                0.00316617
               0.98758987               -0.00036073               32.03220280                0.76518985               -0.03063872               -0.03037435                0.10165481                0.00005892               -0.00435914               -0.00163908
               1.98728141               -0.00096433               32.03307663                0.22623720               -0.03280023               -0.03076824                0.10244304               -0.00248013               -0.00506346               -0.00152722
               2.98693386               -0.00162380               32.03395683                0.04143178               -0.09063259               -0.02966590                0.10349979               -0.14905405                0.07937769               -0.00181957
               3.98546876               -0.00525779               32.03652652                0.10923672               -0.08203607               -0.02126860                0.11490613               -0.21686179                0.08761432               -0.00194745
               4.98529314               -0.00419591               32.03749128                0.30018965               -0.02567789               -0.03524178                0.11843846               -0.02079313                0.00760332               -0.00180299
               5.98495520               -0.00266593               32.03842673                0.81670544               -0.03509916               -0.03642732                0.12088351               -0.00127961                0.00666537               -0.00178435
               6.98459116               -0.00109563               32.03936719                0.99986369               -0.03677186               -0.03714407                0.12315521                0.00029252                0.00770720               -0.00142292
               7.98421976                0.00048202               32.04032301                0.99999998               -0.03750806               -0.03784392                0.12538458                0.00035493                0.00925255               -0.00107666
               8.98384100                0.00206500               32.04129311                1.00000000               -0.03827540               -0.03857515                0.12784234                0.00037659                0.00820138                0.00081544
               9.98345425                0.00365262               32.04222554                0.99542909               -0.03867427               -0.03934305                0.13043470                0.00019079                0.00633293                0.00616544
              -0.01150543                0.99993602               32.03143652                0.76589647               -0.03024275               -0.03046601                0.10057153               -0.00026741                0.00163864                0.00389317
               0.98819215                0.99933553               32.03232942                0.01000000               -0.03032124               -0.03013092                0.10141210               -0.00052001                0.00310952               -0.00327900
               1.98788815                0.99872799               32.03325406                0.01000000               -0.03010459               -0.03695142                0.10256082               -0.02598613                0.00506732                0.03631858
               2.98759005                0.99807954               32.03418667                0.01000001               -0.16509780               -0.03869320                0.10396153               -0.19876026                0.09296857                0.07084885
               3.98458619                0.99452952               32.03686592                0.01000000               -0.19003864                0.07219248                0.11621320               -0.09642458                0.09143939                0.00126512
               4.98378928                0.99545167               32.03781379                0.01000000               -0.05969647                0.00350477                0.11982789                0.07571292               -0.00086459                0.01472375
               5.98339226                0.99696980               32.03869723                0.01000001               -0.03845853               -0.01807383                0.12223621                0.05029463               -0.00406299                0.01305804
               6.98302011                0.99853293               32.03958577                0.57360668               -0.03746321               -0.03732652                0.12445031               -0.00018646               -0.00299363               -0.00556215
               7.98264300                1.00010358               32.04048996                0.97066183               -0.03803237               -0.03800165                0.12666643               -0.00001272               -0.00066187               -0.00209985
               8.98225946                1.00167925               32.04142361                0.99999999               -0.03872259               -0.03875414                0.12911452                0.00000214                0.00072980                0.00088114
               9.98186855                1.00325919               32.04235383                1.00000000               -0.03909160               -0.03952353                0.13165090               -0.00019070                0.00057026                0.00779540
              -0.01091020                1.99962973               32.03158067                0.22644068               -0.03023095               -0.03563508                0.10049330               -0.00938875                0.00150516                0.00853134
               0.98878749                1.99903666               32.03242523                0.01000000               -0.05360613               -0.02499480                0.10093229               -0.01672581                0.04739257               -0.00048065
               1.98801768                1.99829664               32.03418895                0.01000001               -0.08151858               -0.03024601                0.10662519               -0.07155352                0.08912313                0.10618794
               2.98715712                1.99760233               32.03586699                0.01000000               -0.09247762               -0.04621979                0.11208586               -0.11720280                0.07055858                0.11890690
               3.98616813                1.99618606               32.03725680                0.01000000               -0.13949978                0.09998211                0.11680894                0.01921484                0.04511723                0.04663181
               4.98436713                1.99587419               32.03846399                0.01000001               -0.16441482                0.05130672                0.12124062                0.13130344                0.01161812                0.04847650
               5.98287983                1.99697259               32.03926294                0.01141338               -0.14567399                0.02589089                0.12400403                0.12258550               -0.03042873                0.04398262
               6.98145365                1.99815784               32.03972053                0.01620226               -0.09033205               -0.00798510                0.12559502                0.05279103               -0.02953926                0.02050082
               7.98107319                1.99972198               32.04063432                0.04062828               -0.03841087               -0.03462221                0.12796121                0.00695134               -0.00631424               -0.00326308
               8.98068543                2.00128992               32.04155441                0.87214033               -0.03913125               -0.03910203                0.13038379               -0.00002339               -0.00387876               -0.00103604
               9.98029057                2.00286215               32.04251600                1.00000000               -0.03948635               -0.03988651                0.13287876               -0.00018579               -0.00178547                0.00867999
              -0.01050706                2.99922331               32.03180241                0.05747733               -0.03022257               -0.00507373                0.10131114               -0.23330236                0.00135249                0.28816742
               0.98919071                2.99883564               32.03260833                0.01000001               -0.08007686               -0.07655106                0.10136780               -0.25169196                0.11818304                0.27462140
               1.98789140                2.99812307               32.03575295                0.01000000               -0.09170665               -0.05912773                0.11301448               -0.13321968                0.14471494                0.13649744
               2.98735658                2.99715514               32.03704716                0.01000000               -0.05963845               -0.06549177                0.11682761               -0.04396553                0.05486756                0.10037248
               3.98669863                2.99652917               32.03837974                0.01197025               -0.08638825               -0.00683460                0.12098982                0.04560027                0.03970172                0.07720036
               4.98562882                2.99647781               32.03938690                0.01000000               -0.15691589                0.03541919                0.12404447                0.18700479                0.00649643                0.07024143
               5.98356032                2.99748761               32.04011341                0.01000001               -0.21511382                0.04298009                0.12660045                0.25519537               -0.03437068                0.09569145
               6.98132654                2.99837323               32.04045852                0.01000001               -0.19551826                0.04301898                0.12808714                0.25722782               -0.06363448                0.12973598
               7.97964995                2.99941113               32.04077658                0.01259363               -0.11038542               -0.00628127                0.12950788                0.21692426               -0.04339550                0.10668213
               8.97911883                3.00089721               32.04164632                0.01401712               -0.04647878               -0.03691114                0.13152331                0.17286158               -0.00912528                0.07869064
               9.97872037                3.00246146               32.04266242                0.05784823               -0.03984565               -0.15268465                0.13403464                0.18872889               -0.00175616                0.07535585
              -0.01480089                3.99952825               32.03754913                0.12854207               -0.03452128                0.03077475                0.12387165               -0.30326285               -0.00378760                0.31283619
               0.98485390                3.99750563               32.03819508                0.01000000                0.09173342               -0.12326472                0.12487392               -0.22557787               -0.08155333                0.29128284
               1.98703378                3.99711409               32.03729366                0.01000000                0.15089071               -0.14940191                0.11952838               -0.05165651               -0.06095023                0.12309313
               2.98787172                3.99629250               32.03833907                0.01197124                0.03618425               -0.11263832                0.12196222                0.03739250                0.03362672                0.08222755
               3.98775747                3.99604937               32.03930587                0.01000000               -0.03614701               -0.07343816                0.12430741                0.16293932                0.03494985                0.06779400
               4.98714878                3.99658257               32.04039220                0.01000001               -0.08345752               -0.01801595                0.12713152                0.29276787                0.04593649                0.09824986
               5.98608832                3.99783219               32.04162224                0.01000001               -0.12370453                0.01348884                0.13095333                0.40707290                0.04243611                0.15585387
               6.98467468                3.99901822               32.04271610                0.01174436               -0.16003089                0.02820623                0.13425991                0.43246240               -0.00497935                0.19686889
               7.98288770                3.99959636               32.04311119                0.01000000               -0.17911733                0.01514533                0.13524862                0.44097942               -0.05454283                0.23815387
               8.98109234                4.00055170               32.04337139                0.01000000               -0.09755246               -0.04740038                0.13486118                0.35326392               -0.04337956                0.26717851
               9.98093665                3.99980845               32.04415791                0.06465692               -0.01556881               -0.25056553                0.13667009                0.26660436               -0.01683704                0.25383160
              -0.01252708                4.99983881               32.03811927                0.31026324               -0.03795963                0.00116548                0.12695035               -0.05656521               -0.00396999                0.03698434
               0.98709332                4.99637034               32.03866963                0.01000000                0.02992466               -0.08087778                0.12778598                0.05335140               -0.03452420                0.01295743
               1.98807141                4.99513503               32.03860886                0.01000001                0.10379151               -0.18681524                0.12494869                0.11939239               -0.03389168                0.06188232
               2.98916915                4.99490237               32.03914547                0.01000000                0.07979670               -0.19413217                0.12495085                0.18980021                0.02416203                0.04227890
               3.98966734                4.99506040               32.04022451                0.01000001                0.02660972               -0.12574748                0.12728697                0.30034755                0.07821227                0.06682180
               4.98970135                4.99611749               32.04181336                0.01000001               -0.02006122               -0.06745848                0.13158952                0.42297529                0.11318782                0.12389307
               5.98926612                4.99775739               32.04359040                0.01175182               -0.07448612               -0.03830492                0.13660091                0.46205189                0.08650958                0.15499442
               6.98821162                4.99893736               32.04467565                0.01000000               -0.11650273               -0.01790429                0.14001352                0.45693422                0.05047563                0.20487639
               7.98693607                4.99971404               32.04580690                0.01000001               -0.11198050                0.01760488                0.14333650                0.46681896                0.06038443                0.31013530
               8.98597201                4.99994920               32.04718307                0.01000000               -0.06985600               -0.04442599                0.14707550                0.35535301                0.04217960                0.38933590
               9.98553895                4.99745015               32.04801607                0.01701801               -0.04330673               -0.14301379                0.14971141                0.19252858                0.01494726                0.38344494
              -0.00899525                5.99955156               32.03830094                0.85900194               -0.03800374               -0.03291197                0.12640889               -0.00633887               -0.00426581                0.01714359
               0.99062471                5.99588808               32.03871889                0.01000001               -0.00575745               -0.04343823                0.12706802                0.05141641               -0.01367948               -0.00961360
               1.99088960                5.99337778               32.03894863                0.01141681                0.05588196               -0.16637112                0.12638668                0.11832467                0.00193381               -0.01186908
               2.99174235                5.99240985               32.03966560                0.01000001                0.08298535               -0.25787970                0.12731132                0.26569394                0.06744380               -0.01442208
               3.99254930                5.99353442               32.04114647                0.01000001                0.05844726               -0.16807266                0.13033438                0.42835614                0.14168112                0.05014686
               4.99291129                5.99523340               32.04329809                0.01175306               -0.00199080               -0.11189035                0.13582135                0.47214122                0.15546981                0.08590226
               5.99250949                5.99706610               32.04502445                0.01000000               -0.05272866               -0.07676344                0.14095351                0.48389211                0.14796210                0.13903174
               6.99185672                5.99866014               32.04703851                0.01000001               -0.06486278               -0.02119619                0.14694992                0.51015195                0.18355243                0.26699928
               7.99121223                5.99994846               32.04950056                0.01000000               -0.06967141                0.01911582                0.15410708                0.47225785                0.17398443                0.39570425
               8.99046329                5.99966318               32.05134520                0.01064436               -0.07134497                0.00217179                0.15979657                0.28936110                0.09731440                0.42296928
               9.98978533                5.99694818               32.05230579                0.08597374               -0.06779585               -0.00045811                0.16325822                0.13348369                0.05173025                0.40974711
              -0.00532689                6.99918057               32.03846394                0.99999999               -0.03776766               -0.03708445                0.12546078               -0.00039332               -0.00367840                0.01855109
               0.99429543                6.99550158               32.03875154                0.64585030               -0.03784872               -0.03826819                0.12595898               -0.00084834               -0.01329222               -0.00797868
               1.99391613                6.99180761               32.03884717                0.01620791                0.00154834               -0.09738969                0.12609885                0.04802713                0.00250121               -0.02736052
               2.99432640                6.98974478               32.03944981                0.01000001                0.07473941               -0.23065285                0.12701037                0.27094686                0.11610266               -0.07142969
               3.99541092                6.99169895               32.04177763                0.01174787                0.06430480               -0.19638454                0.13181678                0.46301185                0.19962728               -0.01342220
               4.99561249                6.99387968               32.04396554                0.01000000                0.00531533               -0.14193592                0.13762020                0.47919632                0.22069144                0.04102836
               5.99551723                6.99622212               32.04667634                0.01000001               -0.00400947               -0.08245474                0.14546170                0.52312247                0.28936641                0.17106287
               6.99553230                6.99851343               32.05021233                0.01000000               -0.00695207               -0.01819532                0.15565116                0.52761539                0.33666629                0.31767447
               7.99537818                7.00009636               32.05382480                0.01082321               -0.03863949                0.00039205                0.16612153                0.43185484                0.26050578                0.37865019
               8.99475951                6.99999264               32.05579972                0.01000002               -0.08697843                0.03834067                0.17376054                0.28750240                0.12369001                0.56462372
               9.99363862                6.99744098               32.05667881                0.09340291               -0.11208967                0.13846649                0.17806714                0.16964084                0.06566108                0.50069879
              -0.00164513                7.99880987               32.03867383                0.99125311               -0.03741622               -0.03701699                0.12444331               -0.00019805               -0.00282570                0.02265293
               0.99798070                7.99512272               32.03883378                0.95043641               -0.03739653               -0.03760453                0.12477384               -0.00015508               -0.00506912               -0.00198083
               1.99760693                7.99142999               32.03894935                0.05371710               -0.03553799               -0.03762186                0.12493934                0.00292422               -0.01136122               -0.01743975
               2.99726994                7.98779680               32.03898263                0.01259998                0.00338521               -0.11954653                0.12473744                0.23890169                0.10938123               -0.06382725
               3.99767464                7.98960673               32.04150948                0.01000000                0.03510515               -0.20577792                0.13010274                0.48921536                0.26632906               -0.07703364
               4.99797205                7.99239468               32.04461293                0.01000001                0.03317739               -0.12780386                0.13864753                0.50635727                0.35112032                0.04903670
               5.99833819                7.99541700               32.04877839                0.01000000                0.02813732               -0.07935405                0.15064808                0.49724755                0.43830194                0.16460835
               6.99853479                7.99829623               32.05355658                0.01084682                0.00159682               -0.04162475                0.16435025                0.44140851                0.41120568                0.24571687
               7.99837012                7.99995630               32.05711817                0.01000002                0.01669591                0.02295225                0.17679768                0.34630737                0.45407806                0.44419035
               8.99886871                8.00042999               32.06269725                0.12697040               -0.00443334               -0.00743558                0.19478158                0.22939292                0.28096108                0.34640835
               9.99828146                7.99971751               32.06265809                0.61504525               -0.05872544                0.08450791                0.19651835                0.19669577               -0.00004640                0.29818093
               0.00204346                8.99844023               32.03891957                1.00000000               -0.03712477               -0.03690603                0.12352786               -0.00011685                0.00143608                0.01968920
               1.00167221                8.99474949               32.03898638                0.99999998               -0.03714618               -0.03715131                0.12375389                0.00002614                0.00098486                0.00124205
               2.00130054                8.99105517               32.03904483                0.87140439               -0.03722595               -0.03729650                0.12390348               -0.00020984               -0.00450865               -0.01138355
               3.00092769                8.98735385               32.03900115                0.01421726               -0.03515981               -0.04066287                0.12389166                0.19442387                0.09244091               -0.02169386
               4.00059734                8.98758339               32.04099666                0.01000000               -0.04991649               -0.10420965                0.12599441                0.39941988                0.32361424               -0.06303889
               4.99992936                8.99132360               32.04552246                0.01000000               -0.05183557               -0.07119158                0.13980664                0.39765161                0.46392317                0.03463216
               5.99956063                8.99463504               32.05032946                0.01072135               -0.00540928               -0.06998471                0.15426157                0.30997896                0.48559739                0.09421823
               6.99982118                8.99768094               32.05528149                0.01000002                0.03049728               -0.08453637                0.17025817                0.29881504                0.62113722                0.11056585
               8.00017057                9.00055540               32.06273045                0.14911357               -0.01175088                0.00081994                0.19381197                0.23395526                0.37585439                0.28236127
               8.99958616                8.99984393               32.06269118                0.99999998               -0.05865396               -0.05865310                0.19539496                0.00050223                0.00036624                0.00085253
               9.99899749                8.99913114               32.06263281                0.99103301               -0.05886650               -0.05895534                0.19712399                0.00024594               -0.00062400               -0.00133545
               0.00573402                9.99807175               32.03907125                0.99543232               -0.03677312               -0.03684771                0.12255157               -0.00015058                0.01445369                0.01491548
               1.00536629                9.99437969               32.03913308                1.00000000               -0.03678214               -0.03697961                0.12277311                0.00002271                0.01800464                0.00094048
               2.00499837                9.99068406               32.03926678                0.88866230               -0.03680424               -0.03711114                0.12310363               -0.00002377                0.01981049               -0.00500272
               3.00463020                9.98698354               32.03936428                0.06129478               -0.16525460               -0.03703117                0.12312955                0.21217454                0.10276983               -0.00433995
               4.00169328                9.98752253               32.04115554                0.06548339               -0.28783860               -0.00608572                0.12467085                0.30895987                0.33264663               -0.02938031
               4.99887343                9.99097085               32.04593714                0.01621017               -0.17564240               -0.03527538                0.14004274                0.21914527                0.48920962                0.01034429
               5.99818043                9.99401731               32.05105445                0.08325344               -0.01413476               -0.06177338                0.15594075                0.14371321                0.49339790                0.05216217
               6.99859073                9.99660550               32.05593964                0.09149986                0.13529029               -0.10754332                0.17308899                0.17472506                0.57935153                0.05510639
               8.00088624                9.99997270               32.06270833                0.63382128                0.08561403               -0.05827054                0.19454789                0.20413779                0.34344864                0.00050940
               9.00030301                9.99925693               32.06267993                0.99103270               -0.05871484               -0.05869983                0.19612232               -0.00002925                0.00205866                0.00054601
               9.99971194                9.99853840               32.06262158                1.00000000               -0.05910711               -0.05927410                0.19785131               -0.00040781                0.00059355               -0.00058765
              -0.01303562                0.00014725               33.03232227                0.98818012               -0.03060405               -0.03048555                0.10145680                0.00000070               -0.00345380                0.00339312
               0.98665834               -0.00050308               33.03322156                0.76401968               -0.03078667               -0.03047911                0.10210401                0.00001882               -0.00456548               -0.00176137
               1.98634865               -0.00115798               33.03410194                0.22583705               -0.03305723               -0.03081579                0.10268031               -0.00276355               -0.00518545               -0.00160696
               2.98599720               -0.00187452               33.03499151                0.04235735               -0.08912459               -0.02955047                0.10354826               -0.15199419                0.08445874               -0.00190152
               3.98456616               -0.00562361               33.03767342                0.11015757               -0.07947531               -0.02059487                0.11446281               -0.22247062                0.09267587               -0.00201535
               4.98440769               -0.00454363               33.03867415                0.29984226               -0.02467453               -0.03510241                0.11813813               -0.02231734                0.00833789               -0.00183032
               5.98407267               -0.00296136               33.03963478                0.81463027               -0.03497142               -0.03633072                0.12069922               -0.00143667                0.00677985               -0.00181590
               6.98370826               -0.00133505               33.04059794                0.99999998               -0.03677161               -0.03711216                0.12314077                0.00029993                0.00766002               -0.00145207
               7.98333723                0.00029762               33.04157541                0.99999998               -0.03741324               -0.03768809                0.12507815                0.00036211                0.00923128               -0.00099646
               8.98296000                0.00193625               33.04257069                1.00000000               -0.03819669               -0.03849094                0.12764289                0.00039389                0.00828422                0.00094110
               9.98257330                0.00358006               33.04353088                0.99533144               -0.03866974               -0.03944006                0.13079857                0.00023305                0.00643093                0.00614008
              -0.01238527                0.99984240               33.03244491                0.76462166               -0.03035794               -0.03063433                0.10107615               -0.00030359                0.00178966                0.00421846
               0.98731115                0.99919213               33.03334489                0.01000000               -0.03039967               -0.03020074                0.10170394               -0.00055320                0.00342016               -0.00353156
               1.98700673                0.99853386               33.03427975                0.01000000               -0.03005391               -0.03670923                0.10265182               -0.02633715                0.00563872                0.03821247
               2.98671007                0.99782997               33.03522523                0.01000001               -0.16653649               -0.03829496                0.10387342               -0.20187562                0.09901495                0.07452774
               3.98367600                0.99417044               33.03802538                0.01000000               -0.19283375                0.07578056                0.11563940               -0.09888857                0.09708699                0.00091124
               4.98285340                0.99510535               33.03901017                0.01000000               -0.06109975                0.00553372                0.11940353                0.07840214               -0.00013636                0.01464966
               5.98245401                0.99667533               33.03991844                0.01000001               -0.03858124               -0.01702005                0.12194539                0.05259714               -0.00405356                0.01319258
               6.98208177                0.99829383               33.04082915                0.57113776               -0.03744008               -0.03726442                0.12429767               -0.00013218               -0.00313482               -0.00569791
               7.98170521                0.99992074               33.04175514                0.97148517               -0.03795270               -0.03789127                0.12637705                0.00005080               -0.00073667               -0.00210046
               8.98132272                1.00155134               33.04271401                0.99999999               -0.03866971               -0.03871384                0.12898550               -0.00008730                0.00077704                0.00091719
               9.98093181                1.00318566               33.04367096                1.00000000               -0.03909024               -0.03958337                0.13183740               -0.00030081                0.00063218                0.00776272
              -0.01174114                1.99953457               33.03258745                0.22580924               -0.03030419               -0.03595192                0.10084607               -0.00984334                0.00163336                0.00940406
               0.98795582                1.99889290               33.03343501                0.01000000               -0.05373986               -0.02473558                0.10105842               -0.01700530                0.05019541               -0.00040670
               1.98718406                1.99810783               33.03525532                0.01000001               -0.08163559               -0.02986322                0.10722682               -0.07121455                0.09435041                0.11134587
               2.98632310                1.99735958               33.03698579                0.01000000               -0.09355245               -0.04539346                0.11177719               -0.11699947                0.07395030                0.12491795
               3.98531301                1.99589200               33.03842148                0.01000000               -0.14261289                0.10523167                0.11569685                0.02251870                0.04846597                0.04846715
               4.98347085                1.99556704               33.03967277                0.01000001               -0.16884431                0.05537679                0.12050412                0.13858752                0.01358887                0.04949884
               5.98193613                1.99669824               33.04050058                0.01141544               -0.15053190                0.02923125                0.12355807                0.12846656               -0.03036686                0.04493143
               6.98046021                1.99791966               33.04097484                0.01620592               -0.09276915               -0.00635610                0.12526479                0.05532042               -0.02998652                0.02093774
               7.98008074                1.99953980               33.04191300                0.04058424               -0.03834394               -0.03439194                0.12783344                0.00731473               -0.00640730               -0.00319905
               8.97969333                2.00116197               33.04285776                0.87641837               -0.03910555               -0.03910580                0.13032178               -0.00011019               -0.00393063               -0.00110504
               9.97929863                2.00278840               33.04384486                1.00000000               -0.03946980               -0.03988706                0.13287148               -0.00024168               -0.00180766                0.00861940
              -0.01129881                2.99912336               33.03281671                0.05836403               -0.03034174               -0.00157566                0.10153755               -0.23001674                0.00151672                0.30035026
               0.98839778                2.99869741               33.03362172                0.01000001               -0.07927122               -0.07505220                0.10135100               -0.24909107                0.12414591                0.28667754
               1.98711577                2.99793660               33.03688196                0.01000000               -0.09059314               -0.05945246                0.11299762               -0.13061753                0.15152479                0.14282822
               2.98658591                2.99692210               33.03821249                0.01000000               -0.05984288               -0.06465511                0.11586134               -0.03941672                0.05789001                0.10540761
               3.98591891                2.99627508               33.03958573                0.01197046               -0.08835008               -0.00438652                0.12012160                0.05259567                0.04219274                0.08082100
               4.98481891                2.99621288               33.04062356                0.01000000               -0.16240945                0.03912447                0.12329454                0.19783702                0.00795777                0.07267232
               5.98267072                2.99725996               33.04137661                0.01000001               -0.22361465                0.04751363                0.12607837                0.26797197               -0.03420296                0.09824480
               6.98034662                2.99816671               33.04173754                0.01000001               -0.20307634                0.04770439                0.12774190                0.26910880               -0.06448767                0.13287164
               7.97860920                2.99923290               33.04207018                0.01261101               -0.11373531               -0.00412408                0.12912096                0.22616873               -0.04422341                0.10898093
               8.97807191                3.00076922               33.04296056                0.01417180               -0.04675348               -0.03556858                0.13127808                0.17906551               -0.00941120                0.07957227
               9.97767413                3.00238792               33.04400239                0.05988082               -0.03977863               -0.15608867                0.13391680                0.19519585               -0.00177412                0.07590664
              -0.01548958                3.99950306               33.03878749                0.12929595               -0.03496583                0.03574513                0.12378666               -0.30225416               -0.00376053                0.32657211
               0.98416076                3.99739186               33.03944255                0.01000000                0.09183028               -0.12273448                0.12460917               -0.22415436               -0.08477896                0.30527162
               1.98634702                3.99691879               33.03848692                0.01000000                0.15177664               -0.15036987                0.11888862               -0.04756222               -0.06327717                0.12949370
               2.98719629                3.99606647               33.03955538                0.01197133                0.03635618               -0.11294141                0.12126083                0.04486654                0.03505831                0.08667559
               3.98707415                3.99580427               33.04054526                0.01000000               -0.03767920               -0.07334852                0.12358968                0.17369627                0.03648032                0.07102944
               4.98644271                3.99634953               33.04165972                0.01000001               -0.08662035               -0.01556413                0.12642285                0.30843478                0.04800934                0.10174198
               5.98534174                3.99764851               33.04292897                0.01000001               -0.12866349                0.01716450                0.13044222                0.42726848                0.04437597                0.16023310
               6.98386944                3.99887375               33.04405673                0.01174191               -0.16700678                0.03271471                0.13389040                0.45304039               -0.00496916                0.20197125
               7.98200160                3.99945731               33.04446151                0.01000000               -0.18749089                0.01917265                0.13484999                0.46214981               -0.05692324                0.24399509
               8.98011962                4.00045060               33.04471679                0.01000000               -0.10182286               -0.04586660                0.13422733                0.37072765               -0.04588180                0.27408543
               9.97996515                3.99966662               33.04552147                0.06496739               -0.01544735               -0.25911974                0.13603929                0.28005239               -0.01839734                0.26100062
              -0.01312150                4.99983826               33.03938899                0.30923375               -0.03795456                0.00266232                0.12697271               -0.05804608               -0.00400394                0.03938759
               0.98649896                4.99624272               33.03994679                0.01000000                0.03057022               -0.08180162                0.12761941                0.05453691               -0.03641817                0.01501661
               1.98748991                4.99492920               33.03985614                0.01000001                0.10493996               -0.18875847                0.12445677                0.12526324               -0.03626285                0.06607470
               2.98859776                4.99466327               33.04039225                0.01000000                0.08099347               -0.19754442                0.12433478                0.19980508                0.02436146                0.04538001
               3.98910978                4.99480811               33.04149378                0.01000001                0.02728062               -0.12724837                0.12662498                0.31543138                0.08050920                0.07002727
               4.98914337                4.99590160               33.04312629                0.01000001               -0.02089514               -0.06675326                0.13105211                0.44366817                0.11663893                0.12804359
               5.98869188                4.99760325               33.04495423                0.01174615               -0.07723750               -0.03690239                0.13621796                0.48448056                0.08920656                0.15952616
               6.98759862                4.99882100               33.04607367                0.01000000               -0.12082656               -0.01578412                0.13963615                0.47949857                0.05201158                0.21052898
               7.98627534                4.99961636               33.04723833                0.01000001               -0.11607316                0.02177338                0.14298414                0.49095626                0.06181418                0.31883817
               8.98527716                4.99985189               33.04865233                0.01000000               -0.07161104               -0.04349633                0.14680151                0.37470080                0.04299111                0.40128934
               9.98484312                4.99720553               33.04951157                0.01739136               -0.04340339               -0.14787862                0.14941342                0.20373334                0.01512537                0.39590410
              -0.00945943                5.99955630               33.03956558                0.85453175               -0.03800126               -0.03264713                0.12650312               -0.00667481               -0.00431838                0.01753550
               0.99016056                5.99575583               33.03998914                0.01000001               -0.00544176               -0.04367424                0.12696044                0.05282623               -0.01438846               -0.00955840
               1.99043174                5.99314362               33.04021114                0.01141871                0.05764634               -0.16957105                0.12607548                0.12295934                0.00128168               -0.01043620
               2.99131349                5.99211559               33.04093484                0.01000001                0.08563554               -0.26432501                0.12684589                0.27678858                0.06859722               -0.01216552
               3.99214445                5.99325930               33.04244776                0.01000001                0.06037218               -0.17126482                0.12983177                0.44670144                0.14500011                0.05239465
               4.99252093                5.99501447               33.04465387                0.01174767               -0.00162508               -0.11356444                0.13540756                0.49365523                0.15966090                0.08868292
               5.99211195                5.99691046               33.04643182                0.01000000               -0.05373160               -0.07753061                0.14056542                0.50667580                0.15224990                0.14296682
               6.99144630                5.99855807               33.04850622                0.01000001               -0.06610531               -0.01967550                0.14664890                0.53508543                0.18871548                0.27425216
               7.99078984                5.99989278               33.05104101                0.01000000               -0.07109177                0.02270988                0.15402725                0.49647237                0.17881281                0.40661390
               8.99002446                5.99958067               33.05294338                0.01063864               -0.07286524                0.00534043                0.15988830                0.30502614                0.10012957                0.43572295
               9.98933254                5.99670905               33.05393836                0.08644043               -0.06919273                0.00306936                0.16331665                0.14105643                0.05334013                0.42295482
              -0.00565404                6.99918532               33.03971928                0.99999999               -0.03777910               -0.03710062                0.12559660               -0.00040278               -0.00372940                0.01870569
               0.99396817                6.99536924               33.04001086                0.64033305               -0.03783122               -0.03827023                0.12588901               -0.00089056               -0.01351732               -0.00815229
               1.99358933                6.99153778               33.04010684                0.01621134                0.00248364               -0.09913349                0.12581410                0.04963819                0.00315468               -0.02727299
               2.99401784                6.98937677               33.04073082                0.01000001                0.07777948               -0.23593005                0.12690062                0.28097078                0.11819878               -0.07421881
               3.99514492                6.99138281               33.04308930                0.01174553                0.06737385               -0.20172536                0.13109729                0.48149707                0.20358019               -0.01315443
               4.99536532                6.99363031               33.04533989                0.01000000                0.00684335               -0.14550595                0.13717606                0.49971593                0.22680820                0.04201995
               5.99528179                6.99605263               33.04812892                0.01000001               -0.00236553               -0.08386063                0.14512419                0.54649376                0.29740776                0.17543253
               6.99531801                6.99842749               33.05176852                0.01000000               -0.00498021               -0.01713266                0.15563520                0.55212615                0.34595181                0.32591547
               7.99518219                7.00007055               33.05548779                0.01081124               -0.03782980                0.00244032                0.16651213                0.45372706                0.26824097                0.38948115
               8.99456141                6.99995870               33.05753776                0.01000002               -0.08873472                0.04320108                0.17387646                0.30358173                0.12801810                0.58149063
               9.99340749                6.99726691               33.05845812                0.09403628               -0.11539185                0.15048209                0.17782131                0.17977197                0.06816393                0.51646570
              -0.00183532                7.99881429               33.03991917                0.99123641               -0.03743886               -0.03706090                0.12462316               -0.00019429               -0.00288779                0.02282762
               0.99779029                7.99499042               33.04008138                0.95054702               -0.03738561               -0.03760193                0.12473905               -0.00016464               -0.00521265               -0.00210241
               1.99741697                7.99116095               33.04019753                0.05381408               -0.03512095               -0.03754723                0.12468557                0.00320438               -0.01502105               -0.01771079
               2.99708787                7.98739698               33.04016263                0.01261747                0.00519432               -0.12135889                0.12024484                0.24605091                0.11230615               -0.06442020
               3.99752085                7.98922480               33.04281695                0.01000000                0.03787765               -0.21267396                0.12977818                0.50681286                0.27544208               -0.08016189
               4.99784543                7.99210435               33.04599526                0.01000001                0.03618931               -0.13125004                0.13811146                0.52717978                0.36041666                0.04968024
               5.99824464                7.99523325               33.05028422                0.01000000                0.03127382               -0.08080080                0.15050617                0.51811460                0.45059694                0.16852753
               6.99847090                7.99821541               33.05520179                0.01083332                0.00442678               -0.04178302                0.16474646                0.46078716                0.42329494                0.25247451
               7.99833318                7.99994159               33.05888727                0.01000002                0.02144171                0.02548774                0.17705097                0.36313544                0.46798507                0.45743079
               8.99889974                8.00044469               33.06464731                0.12712803               -0.00108171               -0.00506093                0.19522325                0.24228498                0.28921985                0.35663561
               9.99831154                7.99971869               33.06462413                0.61515645               -0.05881945                0.09327528                0.19668691                0.20907499               -0.00003274                0.30714514
               0.00198981                8.99844410               33.04015594                1.00000000               -0.03715909               -0.03696993                0.12375181               -0.00011004                0.00142445                0.01988215
               1.00161822                8.99461720               33.04022394                0.99999998               -0.03714753               -0.03715463                0.12375854                0.00002644                0.00093218                0.00122601
               2.00124686                8.99078683               33.04028280                0.87959408               -0.03716049               -0.03723197                0.12368619               -0.00020984               -0.00467921               -0.01146524
               3.00087501                8.98694960               33.04023793                0.01438147               -0.03365205               -0.04082206                0.12345427                0.19838206                0.09308702               -0.01854888
               4.00057382                8.98712933               33.04225009                0.01000000               -0.04872733               -0.10785638                0.12479669                0.41351886                0.33157982               -0.06672773
               4.99990046                8.99100531               33.04691822                0.01000000               -0.05203996               -0.07229932                0.13934064                0.41385977                0.47808134                0.03489567
               5.99953302                8.99443662               33.05187199                0.01071366               -0.00375258               -0.07104945                0.15428659                0.32255613                0.50025696                0.09643881
               6.99982541                8.99759183               33.05698450                0.01000002                0.03412997               -0.08596860                0.17037376                0.31117902                0.63985587                0.11422463
               8.00021562                9.00058031               33.06467124                0.14867366               -0.00977014                0.00273671                0.19433178                0.24372061                0.38686816                0.29063770
               8.99963001                8.99985748               33.06464636                0.99999998               -0.05873119               -0.05873405                0.19563660                0.00053608                0.00029045                0.00079586
               9.99904099                8.99913242               33.06460389                0.99122020               -0.05890137               -0.05892853                0.19709233                0.00029685               -0.00062322               -0.00139483
               0.00581628                9.99807489               33.04029802                0.99533511               -0.03681941               -0.03692125                0.12281626               -0.00010877                0.01459136                0.01507094
               1.00544809                9.99424733               33.04036099                1.00000000               -0.03679533               -0.03698726                0.12281824                0.00005791                0.01819035                0.00094172
               2.00508038                9.99041631               33.04049693                0.88995352               -0.03675353               -0.03705274                0.12293025                0.00001257                0.01989732               -0.00496372
               3.00471302                9.98658054               33.04059367                0.06488539               -0.16724289               -0.03690520                0.12274444                0.21636912                0.10335363               -0.00439876
               4.00173552                9.98706767               33.04239711                0.06578611               -0.29488421               -0.00616604                0.12364822                0.32006107                0.34166417               -0.03110540
               4.99881533                9.99065836               33.04733458                0.01641154               -0.18131388               -0.03469461                0.13948813                0.22871673                0.50498542                0.01021959
               5.99810924                9.99381226               33.05261379                0.08334380               -0.01322712               -0.06243574                0.15597442                0.14950626                0.50929910                0.05356582
               6.99855079                9.99649604               33.05766908                0.09169192                0.14163497               -0.10957888                0.17282059                0.18174133                0.59754375                0.05735608
               8.00094194                9.99999632               33.06465545                0.63342509                0.09037769               -0.05839846                0.19486699                0.21133078                0.35345713                0.00052474
               9.00035835                9.99927001               33.06464136                0.99122059               -0.05871719               -0.05874671                0.19616280                0.00002376                0.00198014                0.00054753
               9.99976760                9.99854012               33.06459891                1.00000000               -0.05907489               -0.05922984                0.19761850               -0.00032871                0.00059336               -0.00058817
              -0.01397345                0.00006164               34.03333992                0.98704532               -0.03076536               -0.03064314                0.10202656               -0.00003867               -0.00363860                0.00362588
               0.98571889               -0.00064262               34.03424488                0.76280388               -0.03093979               -0.03059368                0.10257012               -0.00000467               -0.00477429               -0.00188776
               1.98540775               -0.00135209               34.03513024                0.22541138               -0.03336639               -0.03090544                0.10304278               -0.00304919               -0.00530064               -0.00168844
               2.98505156               -0.00212927               34.03602779                0.04323917               -0.08840608               -0.02949169                0.10382563               -0.15518195                0.08931311               -0.00198661
               3.98363963               -0.00600204               34.03881578                0.11103299               -0.07765147               -0.01982814                0.11401215               -0.22842799                0.09738973               -0.00208460
               4.98349853               -0.00490455               34.03985404                0.29950755               -0.02363064               -0.03494011                0.11780434               -0.02388046                0.00903814               -0.00186124
               5.98316702               -0.00326957               34.04084072                0.81262403               -0.03474001               -0.03625788                0.12051444               -0.00160675                0.00694790               -0.00181444
               6.98280373               -0.00158709               34.04183000                0.99999998               -0.03676892               -0.03708434                0.12311517                0.00030755                0.00746159               -0.00154053
               7.98243164                0.00010262               34.04282457                0.99056569               -0.03762638               -0.03786460                0.12570936                0.00038935                0.00897992               -0.00068867
               8.98205121                0.00179718               34.04384597                1.00000000               -0.03845733               -0.03866550                0.12842632                0.00042968                0.00870571                0.00137262
               9.98166249                0.00349526               34.04484151                0.99522728               -0.03887166               -0.03947923                0.13102866                0.00028833                0.00719502                0.00599455
              -0.01326959                0.99975521               34.03345804                0.76331954               -0.03047039               -0.03078148                0.10151647               -0.00033516                0.00194594                0.00455305
               0.98642571                0.99905145               34.03436349                0.01000000               -0.03049136               -0.03028486                0.10203967               -0.00058532                0.00374247               -0.00379261
               1.98612058                0.99833886               34.03530710                0.01000000               -0.03004947               -0.03632818                0.10289444               -0.02647356                0.00623551                0.04067632
               2.98582472                0.99757581               34.03626414                0.01000001               -0.16887993               -0.03786503                0.10403838               -0.20603852                0.10482845                0.07814629
               3.98274299                0.99379968               34.03917870                0.01000000               -0.19656109                0.07985463                0.11500808               -0.10094617                0.10237253                0.00019655
               4.98189350                0.99474605               34.04020186                0.01000000               -0.06253848                0.00776632                0.11888683                0.08147215                0.00057883                0.01452589
               5.98149222                0.99636785               34.04113614                0.01000001               -0.03863908               -0.01586878                0.12156757                0.05497148               -0.00399362                0.01338939
               6.98112072                0.99804207               34.04207173                0.56853909               -0.03744087               -0.03723559                0.12411747               -0.00030594               -0.00334177               -0.00589677
               7.98074340                0.99972397               34.04301750                0.97217905               -0.03807661               -0.03798283                0.12667215               -0.00005298               -0.00090478               -0.00184411
               8.98035918                1.00141052               34.04400332                0.99999999               -0.03880533               -0.03879538                0.12932024                0.00001258                0.00099206                0.00120927
               9.97996729                1.00310047               34.04499058                1.00000000               -0.03918906               -0.03960782                0.13195197               -0.00011902                0.00096283                0.00764800
              -0.01257264                1.99944601               34.03359759                0.22517462               -0.03038253               -0.03624613                0.10116056               -0.01029022                0.00176500                0.01029857
               0.98712353                1.99875169               34.03444640                0.01000000               -0.05367234               -0.02449019                0.10125546               -0.01709939                0.05359773               -0.00033932
               1.98635391                1.99792135               34.03633348                0.01000001               -0.08267826               -0.02954129                0.11138081               -0.07138540                0.09597966                0.11490165
               2.98546997                1.99711343               34.03810253                0.01000000               -0.09517239               -0.04410566                0.10855118               -0.11701993                0.07805756                0.13171046
               3.98445046                1.99559505               34.03957074                0.01000000               -0.14550802                0.11110652                0.11427847                0.02628923                0.05310095                0.05030411
               4.98255981                1.99525078               34.04087407                0.01000001               -0.17400200                0.05991241                0.11999055                0.14607971                0.01630532                0.05057196
               5.98097042                1.99641305               34.04173410                0.01141681               -0.15591576                0.03281356                0.12315988                0.13437387               -0.03011280                0.04596075
               6.97944149                1.99766820               34.04222582                0.01620849               -0.09541493               -0.00466466                0.12501580                0.05762035               -0.03035899                0.02142133
               7.97906213                1.99934296               34.04319099                0.04052388               -0.03832650               -0.03408642                0.12759119                0.00760655               -0.00645006               -0.00309866
               8.97867496                2.00102127               34.04416085                0.88047912               -0.03909520               -0.03904468                0.13020612               -0.00003234               -0.00405603               -0.00109809
               9.97828022                2.00270310               34.04517343                1.00000000               -0.03947414               -0.03987451                0.13288556               -0.00012016               -0.00192635                0.00854967
              -0.01208675                2.99903028               34.03383316                0.05915924               -0.03048694                0.00207041                0.10173748               -0.22754312                0.00168611                0.31246899
               0.98760838                2.99856164               34.03463535                0.01000001               -0.07910575               -0.07328415                0.10141479               -0.24734496                0.13029793                0.29864665
               1.98633113                2.99774803               34.03801290                0.01000000               -0.08988839               -0.05957829                0.11153785               -0.12832229                0.16023755                0.14846779
               2.98581061                2.99669370               34.03936439                0.01000000               -0.05998573               -0.06335902                0.11477432               -0.03408197                0.06198685                0.11133250
               3.98513142                2.99602181               34.04078217                0.01197020               -0.09067596               -0.00165724                0.11918634                0.05914325                0.04587438                0.08531027
               4.98399709                2.99594430               34.04185279                0.01000000               -0.16845749                0.04319468                0.12274136                0.20838757                0.00998259                0.07538894
               5.98176227                2.99702412               34.04263498                0.01000001               -0.23269395                0.05230917                0.12567406                0.28064438               -0.03376598                0.10093587
               6.97934321                2.99794878               34.04301336                0.01000001               -0.21099035                0.05266564                0.12741716                0.28096932               -0.06531870                0.13616633
               7.97754246                2.99904224               34.04335900                0.01263096               -0.11724096               -0.00174230                0.12885430                0.23539491               -0.04508578                0.11130769
               8.97699839                3.00062963               34.04427188                0.01434325               -0.04706192               -0.03398164                0.13103512                0.18502558               -0.00962232                0.08033402
               9.97660122                3.00230298               34.04534075                0.06190080               -0.03971700               -0.15919062                0.13373930                0.20129040               -0.00177299                0.07633153
              -0.01618622                3.99948742               34.04002486                0.12994316               -0.03548899                0.04090912                0.12367609               -0.30194147               -0.00373794                0.34018150
               0.98345889                3.99728600               34.04068726                0.01000000                0.09208168               -0.12187805                0.12432468               -0.22341046               -0.08820311                0.31911932
               1.98565541                3.99672978               34.03967143                0.01000000                0.15278309               -0.15078607                0.11777739               -0.04350975               -0.06585013                0.13651297
               2.98651455                3.99584625               34.04076428                0.01197113                0.03636592               -0.11315939                0.12045111                0.05201315                0.03694271                0.09215058
               3.98638273                3.99556191               34.04177766                0.01000000               -0.03946492               -0.07316850                0.12305372                0.18402437                0.03843967                0.07481652
               4.98572525                3.99611467               34.04292065                0.01000001               -0.09019475               -0.01300437                0.12591693                0.32369524                0.05046802                0.10560524
               5.98457883                3.99745924               34.04423108                0.01000001               -0.13412465                0.02104715                0.13006873                0.44737215                0.04656851                0.16485995
               6.98304276                3.99872152               34.04539391                0.01174110               -0.17448300                0.03748328                0.13359884                0.47367111               -0.00489555                0.20721705
               7.98108917                3.99930811               34.04580819                0.01000000               -0.19640077                0.02345329                0.13451737                0.48356768               -0.05949855                0.25003391
               8.97911474                4.00034164               34.04605594                0.01000000               -0.10649191               -0.04406180                0.13361008                0.38856857               -0.04862469                0.28114691
               9.97895934                3.99951929               34.04687869                0.06529984               -0.01554064               -0.26758171                0.13540307                0.29385241               -0.02006490                0.26825127
              -0.01372276                4.99984847               34.04065872                0.30822428               -0.03794395                0.00422857                0.12695281               -0.05956423               -0.00404075                0.04184354
               0.98589781                4.99612408               34.04122202                0.01000000                0.03117251               -0.08265816                0.12740011                0.05581707               -0.03839253                0.01709544
               1.98690069                4.99473231               34.04109800                0.01000001                0.10604708               -0.19057105                0.12409134                0.13102740               -0.03863752                0.07066713
               2.98801875                4.99443051               34.04163217                0.01000000                0.08213940               -0.20091420                0.12382741                0.20946254                0.02476073                0.04902713
               3.98854348                4.99455844               34.04275701                0.01000001                0.02774627               -0.12875618                0.12612835                0.33006242                0.08313066                0.07352619
               4.98857367                4.99568421               34.04443440                0.01000001               -0.02203064               -0.06606060                0.13067514                0.46409137                0.12039605                0.13251522
               5.98810287                4.99744506               34.04631476                0.01174280               -0.08029571               -0.03542481                0.13595576                0.50687688                0.09209883                0.16428194
               6.98696776                4.99869844               34.04746837                0.01000000               -0.12545872               -0.01355925                0.13934752                0.50226640                0.05363182                0.21639186
               7.98559370                4.99951131               34.04866658                0.01000001               -0.12045832                0.02615791                0.14270984                0.51560491                0.06334126                0.32784023
               8.98455859                4.99974839               34.05011910                0.01000000               -0.07353640               -0.04247161                0.14658416                0.39469106                0.04385599                0.41376408
               9.98412297                4.99695134               34.05100433                0.01779408               -0.04356236               -0.15292805                0.14916974                0.21543746                0.01529676                0.40882090
              -0.00992874                5.99957199               34.04083100                0.85015396               -0.03798748               -0.03236823                0.12656462               -0.00700935               -0.00437331                0.01794911
               0.98969138                5.99563284               34.04125810                0.01000001               -0.00508650               -0.04388957                0.12680775                0.05430426               -0.01510666               -0.00949808
               1.98996953                5.99291836               34.04147013                0.01142001                0.05931416               -0.17282772                0.12569912                0.12768440                0.00078776               -0.00887796
               2.99087767                5.99182796               34.04220252                0.01000001                0.08803734               -0.26989454                0.12644017                0.28787955                0.06983244               -0.01064853
               3.99173028                5.99298679               34.04374310                0.01000001                0.06213939               -0.17458865                0.12936255                0.46477350                0.14845629                0.05495279
               4.99212046                5.99479346               34.04600624                0.01174394               -0.00140681               -0.11527569                0.13511775                0.51496581                0.16415393                0.09158256
               5.99170214                5.99675074               34.04783576                0.01000000               -0.05493075               -0.07833459                0.14028167                0.52953738                0.15674796                0.14708090
               6.99102184                5.99845033               34.04997149                0.01000001               -0.06754082               -0.01811359                0.14646140                0.56026240                0.19419048                0.28185543
               7.99035132                5.99983127               34.05258110                0.01000000               -0.07266551                0.02642004                0.15402716                0.52109738                0.18397977                0.41807792
               8.98956853                5.99949220               34.05454297                0.01063899               -0.07445683                0.00850673                0.16006617                0.32102047                0.10316232                0.44884377
               9.98886219                5.99646073               34.05557212                0.08694334               -0.07063434                0.00665919                0.16348211                0.14876289                0.05506818                0.43628817
              -0.00598465                6.99920110               34.04097588                0.99999999               -0.03778344               -0.03711125                0.12571499               -0.00041018               -0.00377971                0.01886898
               0.99363752                6.99524629               34.04126932                0.63484819               -0.03780462               -0.03826274                0.12578897               -0.00093226               -0.01374669               -0.00833032
               1.99325926                6.99127575               34.04136345                0.01621373                0.00351974               -0.10092748                0.12548596                0.05210349                0.00286301               -0.02719731
               2.99370791                6.98903262               34.04198783                0.01000001                0.08070987               -0.24133387                0.12555997                0.29049442                0.12065969               -0.07528911
               3.99487346                6.99106667               34.04439957                0.01174486                0.07005616               -0.20720423                0.13082382                0.49833270                0.20863142               -0.01345058
               4.99510903                6.99337870               34.04670906                0.01000000                0.00816457               -0.14917526                0.13674634                0.52021820                0.23304096                0.04316214
               5.99503675                6.99587837               34.04957882                0.01000001               -0.00082810               -0.08531273                0.14489495                0.56994633                0.30592083                0.18003933
               6.99509247                6.99833617               34.05332504                0.01000000               -0.00314891               -0.01602926                0.15571305                0.57685656                0.35580273                0.33467745
               7.99497377                7.00003971               34.05715504                0.01080460               -0.03714638                0.00450956                0.16699177                0.47576690                0.27626668                0.40067652
               8.99434955                6.99991853               34.05927725                0.01000002               -0.09062958                0.04809492                0.17405050                0.31962690                0.13224427                0.59869602
               9.99316118                6.99708453               34.06023523                0.09471881               -0.11883673                0.16269557                0.17760504                0.18984815                0.07050104                0.53236536
              -0.00202732                7.99882976               34.04116629                0.99121542               -0.03745909               -0.03710423                0.12480106               -0.00018801               -0.00295167                0.02301172
               0.99759809                7.99486759               34.04132856                0.95065622               -0.03737034               -0.03759475                0.12468971               -0.00017387               -0.00535962               -0.00222725
               1.99722527                7.99089981               34.04144306                0.05387858               -0.03507211               -0.03746466                0.12440533                0.00337027               -0.01619593               -0.01799385
               2.99689664                7.98700129               34.04138753                0.01263800                0.00627915               -0.12403979                0.12283626                0.25285641                0.11409798               -0.06522907
               3.99735085                7.98884270               34.04410504                0.01000000                0.04082364               -0.21989950                0.12858882                0.52419274                0.28253125               -0.08364214
               4.99771312                7.99180996               34.04737516                0.01000001                0.03963704               -0.13482512                0.13769697                0.54809185                0.37074608                0.05040401
               5.99814359                7.99504449               34.05178851                0.01000000                0.03422591               -0.08220641                0.15042292                0.53912660                0.46347183                0.17274320
               6.99839763                7.99812975               34.05685151                0.01082584                0.00703567               -0.04190186                0.16523440                0.48017761                0.43587222                0.25947556
               7.99828431                7.99992146               34.06065919                0.01000002                0.02593091                0.02801362                0.17735981                0.37983337                0.48215944                0.47092025
               8.99891625                8.00045410               34.06660171                0.12731058                0.00214236               -0.00263706                0.19564713                0.25514735                0.29768980                0.36710581
               9.99832715                7.99971464               34.06659183                0.61527496               -0.05890986                0.10219702                0.19684748                0.22149324               -0.00001850                0.31640058
               0.00193594                8.99845902               34.04139461                1.00000000               -0.03719538               -0.03703785                0.12398906               -0.00010074                0.00141250                0.02008264
               1.00156399                8.99449440               34.04146155                0.99999998               -0.03714907               -0.03715825                0.12376416                0.00002701                0.00087811                0.00120941
               2.00119296                8.99052646               34.04151856                0.88762564               -0.03709208               -0.03716438                0.12345886               -0.00021012               -0.00485103               -0.01155356
               3.00082215                8.98655182               34.04147024                0.01456129               -0.03221603               -0.04086068                0.12299779                0.20213346                0.09352308               -0.01790368
               4.00054864                8.98666868               34.04349259                0.01000000               -0.04765302               -0.11181621                0.12382195                0.42825906                0.33964088               -0.07010831
               4.99986909                8.99068220               34.04830927                0.01000000               -0.05245762               -0.07337103                0.13888778                0.43044534                0.49302346                0.03507304
               5.99949949                8.99423424               34.05341520                0.01071183               -0.00250211               -0.07197331                0.15438908                0.33521282                0.51545053                0.09888560
               6.99981905                8.99749813               34.05868897                0.01000002                0.03732949               -0.08731415                0.17054360                0.32340278                0.65904506                0.11771330
               8.00024608                9.00059998               34.06661709                0.14827189               -0.00798651                0.00466523                0.19483085                0.25332231                0.39819592                0.29912614
               8.99965932                8.99986579               34.06660391                0.99999998               -0.05880553               -0.05881171                0.19586865                0.00056928                0.00021397                0.00073898
               9.99906997                8.99912847               34.06657465                0.99140394               -0.05893471               -0.05890220                0.19706093                0.00034609               -0.00062230               -0.00145427
               0.00589990                9.99808900               34.04152758                0.99522990               -0.03687227               -0.03700115                0.12310934               -0.00006258                0.01473407                0.01523205
               1.00553118                9.99412442               34.04158944                1.00000000               -0.03681325               -0.03699753                0.12287966                0.00009490                0.01838158                0.00094282
               2.00516364                9.99015652               34.04172538                0.89117066               -0.03670421               -0.03699386                0.12276207                0.00005015                0.01999353               -0.00492786
               3.00479710                9.98618407               34.04181917                0.04057603               -0.16889878               -0.03677518                0.12235251                0.21998744                0.10374531               -0.00446013
               4.00178566                9.98660638               34.04362851                0.06610738               -0.30203192               -0.00623005                0.12260275                0.33162512                0.35085288               -0.03284078
               4.99875646                9.99034253               34.04872690                0.01662868               -0.18768759               -0.03396612                0.13901867                0.23866898                0.52146467                0.01005656
               5.99803191                9.99360502               34.05417394                0.08344272               -0.01282532               -0.06292244                0.15609420                0.15528847                0.52551025                0.05509030
               6.99849995                9.99638346               34.05939605                0.09190496                0.14755955               -0.11146725                0.17258629                0.18857797                0.61605385                0.05936802
               8.00098310               10.00001477               34.06660567                0.63304471                0.09496015               -0.05852135                0.19517335                0.21842251                0.36387798                0.00054000
               9.00039915                9.99927787               34.06660319                0.99140396               -0.05871926               -0.05879174                0.19620167                0.00007517                0.00190057                0.00054900
               9.99980872                9.99853660               34.06657395                1.00000000               -0.05904378               -0.05918701                0.19739391               -0.00025257                0.00059309               -0.00058860
              -0.01491831               -0.00001646               35.03436281                0.98589701               -0.03091488               -0.03077450                0.10250041               -0.00005544               -0.00382617                0.00386303
               0.98477254               -0.00077806               35.03527296                0.76154483               -0.03109806               -0.03071821                0.10305336               -0.00001040               -0.00498519               -0.00201799
               1.98445973               -0.00154547               35.03616280                0.22496275               -0.03373124               -0.03103933                0.10353565               -0.00333727               -0.00541071               -0.00177150
               2.98409792               -0.00238695               35.03706802                0.04407786               -0.08860158               -0.02948945                0.10434640               -0.15857249                0.09376982               -0.00207410
               3.98268770               -0.00639115               35.03995366                0.11185624               -0.07671983               -0.01894408                0.11357217               -0.23467333                0.10157206               -0.00215437
               4.98256352               -0.00527649               35.04103024                0.29918145               -0.02260150               -0.03476743                0.11745414               -0.02546589                0.00966602               -0.00186551
               5.98223567               -0.00358850               35.04204507                0.81069101               -0.03449411               -0.03617742                0.12031544               -0.00178090                0.00694239               -0.00184742
               6.98187364               -0.00184931               35.04306024                0.99999998               -0.03674002               -0.03706180                0.12308791                0.00031868                0.00771461               -0.00148346
               7.98150087               -0.00010200               35.04408959                0.99057979               -0.03782340               -0.03805591                0.12636389                0.00038112                0.00941166               -0.00100250
               8.98111717                0.00164900               35.04513922                1.00000000               -0.03873796               -0.03883574                0.12918263                0.00042200                0.00846819                0.00089272
               9.98072611                0.00340183               35.04615145                0.99511574               -0.03910619               -0.03951155                0.13126876                0.00032645                0.00649104                0.00625011
              -0.01415726                0.99967580               35.03447524                0.76198860               -0.03057956               -0.03090590                0.10188803               -0.00036145                0.00210721                0.00489508
               0.98553694                0.99891476               35.03538568                0.01000000               -0.03059675               -0.03038389                0.10242022               -0.00061610                0.00407595               -0.00406183
               1.98523080                0.99814414               35.03633764                0.01000000               -0.03009545               -0.03772354                0.10329558               -0.03044050                0.00685482                0.04659492
               2.98493503                0.99731816               35.03730599                0.01000001               -0.17225347               -0.03597569                0.10446878               -0.20878222                0.11020539                0.07854093
               3.98178573                0.99341941               35.04032555                0.01000000               -0.20137474                0.08428808                0.11438736               -0.10132592                0.10708680               -0.00072551
               4.98090754                0.99437584               35.04138791                0.01000000               -0.06407309                0.01020184                0.11834877                0.08501922                0.00120860                0.01465319
               5.98050427                0.99604973               35.04234979                0.01000001               -0.03869803               -0.01464475                0.12116850                0.05753399               -0.00406522                0.01370854
               6.98013358                0.99778007               35.04331150                0.56598189               -0.03743738               -0.03721179                0.12393911               -0.00048916               -0.00327046               -0.00583721
               7.97975552                0.99951744               35.04428858                0.97281009               -0.03820503               -0.03808409                0.12698836               -0.00017882               -0.00077877               -0.00216134
               8.97936948                1.00126064               35.04530042                0.99999999               -0.03894881               -0.03887804                0.12965771                0.00009380                0.00080390                0.00086608
               9.97897655                1.00300671               35.04631000                1.00000000               -0.03929291               -0.03963070                0.13206785                0.00004865                0.00064031                0.00788565
              -0.01340346                1.99936542               35.03461066                0.22453730               -0.03046622               -0.03651631                0.10143231               -0.01072619                0.00189946                0.01120566
               0.98629187                1.99861426               35.03546012                0.01000000               -0.05745074               -0.02426375                0.10152642               -0.01891547                0.06048245               -0.00028608
               1.98544752                1.99770006               35.03748294                0.01000001               -0.08224372               -0.02880688                0.12264948               -0.06800232                0.13702259                0.13686609
               2.98464700                1.99689354               35.03915681                0.01000000               -0.09220134               -0.04155779                0.10401460               -0.11420503                0.08820603                0.13631732
               3.98360349                1.99529462               35.04070705                0.01000000               -0.15067052                0.11774720                0.11488237                0.02981383                0.06078532                0.05242071
               4.98163359                1.99492755               35.04207258                0.01000001               -0.18106900                0.06491179                0.11971131                0.15411044                0.01931078                0.05179233
               5.97998211                1.99611861               35.04296378                0.01141790               -0.16187232                0.03659832                0.12287864                0.14047337               -0.02999328                0.04719418
               6.97839614                1.99740645               35.04347516                0.01621018               -0.09826978               -0.00290634                0.12479816                0.06001788               -0.03089821                0.02219028
               7.97801672                1.99913632               35.04446483                0.04047227               -0.03831845               -0.03377921                0.12737703                0.00792105               -0.00657121               -0.00296657
               8.97762977                2.00087144               35.04546188                0.88444239               -0.03908868               -0.03899165                0.13011697                0.00005670               -0.00399369               -0.00122584
               9.97723495                2.00260921               35.04650257                1.00000000               -0.03948287               -0.03987137                0.13291626               -0.00000388               -0.00181196                0.00867015
              -0.01286947                2.99894547               35.03485146                0.05985111               -0.03065426                0.00578486                0.10190973               -0.22588291                0.00186049                0.32450620
               0.98682399                2.99842948               35.03565002                0.01000001               -0.07695261               -0.07133430                0.10156097               -0.24596093                0.13489040                0.31045514
               1.98559148                2.99756800               35.03911272                0.01000000               -0.08838060               -0.05680579                0.10676439               -0.12185026                0.16378931                0.15647417
               2.98505638                2.99648700               35.04050797                0.01000000               -0.06217436               -0.06259156                0.11460615               -0.03058647                0.06977611                0.12304807
               3.98434799                2.99577436               35.04196946                0.01197010               -0.09453124                0.00155745                0.11887423                0.06350765                0.05023718                0.09019082
               4.98316575                2.99567408               35.04307838                0.01000000               -0.17565799                0.04762396                0.12267237                0.21861994                0.01214831                0.07813236
               5.98083483                2.99678169               35.04389009                0.01000001               -0.24247650                0.05736596                0.12535786                0.29328029               -0.03354120                0.10379334
               6.97831622                2.99772195               35.04428588                0.01000001               -0.21929381                0.05783119                0.12707861                0.29292183               -0.06602648                0.13968117
               7.97644896                2.99884186               35.04464727                0.01265475               -0.12092551                0.00070492                0.12913063                0.24458773               -0.04591263                0.11390826
               8.97589771                3.00048081               35.04558126                0.01452939               -0.04740171               -0.03225623                0.13084152                0.19071388               -0.00996289                0.08113226
               9.97550092                3.00220928               35.04667718                0.06396065               -0.03967901               -0.16205729                0.13360677                0.20701673               -0.00182681                0.07667265
              -0.01688915                3.99948112               35.04126101                0.13047491               -0.03607293                0.04617617                0.12354026               -0.30232596               -0.00372494                0.35365652
               0.98275012                3.99718758               35.04192905                0.01000000                0.09210742               -0.12078405                0.12402169               -0.22246654               -0.09205981                0.33273515
               1.98495300                3.99656395               35.04084247                0.01000000                0.15393972               -0.15120803                0.11807210               -0.04151730               -0.06798116                0.14507265
               2.98582892                3.99564170               35.04196440                0.01197070                0.03667861               -0.11407085                0.12001810                0.05696996                0.03904395                0.09810985
               3.98568657                3.99532576               35.04300633                0.01000000               -0.04151328               -0.07305821                0.12282437                0.19302455                0.04074671                0.07898227
               4.98499865                3.99588003               35.04417806                0.01000001               -0.09433606               -0.01038785                0.12580052                0.33839733                0.05291868                0.10952627
               5.98379985                3.99726593               35.04553034                0.01000001               -0.14021161                0.02512577                0.12988893                0.46740464                0.04872548                0.16965221
               6.98219442                3.99856308               35.04672870                0.01174163               -0.18251212                0.04246558                0.13340620                0.49438530               -0.00495500                0.21271670
               7.98014961                3.99915042               35.04715186                0.01000000               -0.20588978                0.02791957                0.13425317                0.50528598               -0.06238080                0.25603213
               8.97807662                4.00022632               35.04738899                0.01000000               -0.11156375               -0.04203364                0.13304887                0.40682295               -0.05163816                0.28836563
               9.97791833                3.99936807               35.04822953                0.06565294               -0.01582898               -0.27603827                0.13477499                0.30805865               -0.02182918                0.27568222
              -0.01432890                4.99986899               35.04192805                0.30723118               -0.03792689                0.00585054                0.12689115               -0.06111561               -0.00408038                0.04433439
               0.98529183                4.99601380               35.04249479                0.01000000                0.03179526               -0.08345096                0.12712813                0.05720115               -0.04023830                0.01916386
               1.98630701                4.99454384               35.04233797                0.01000001                0.10710643               -0.19316707                0.12378652                0.13709261               -0.04101691                0.07564185
               2.98743396                4.99420558               35.04286879                0.01000000                0.08315766               -0.20473740                0.12366903                0.21888024                0.02519498                0.05267895
               3.98797016                4.99431319               35.04401634                0.01000001                0.02797888               -0.13049849                0.12594418                0.34420105                0.08580040                0.07695609
               4.98799354                4.99546632               35.04573980                0.01000001               -0.02351405               -0.06542865                0.13050838                0.48418609                0.12429437                0.13705902
               5.98749988                4.99728421               35.04767335                0.01174054               -0.08370489               -0.03389521                0.13584475                0.52933695                0.09502388                0.16916434
               6.98631944                4.99857126               35.04886063                0.01000000               -0.13042194               -0.01122824                0.13915795                0.52531903                0.05525501                0.22246995
               7.98489144                4.99940025               35.05009252                0.01000001               -0.12514598                0.03077295                0.14246143                0.54086173                0.06491587                0.33722089
               8.98381652                4.99964014               35.05158401                0.01000000               -0.07564230               -0.04134582                0.14641820                0.41541712                0.04473818                0.42681607
               9.98337859                4.99668852               35.05249497                0.01822758               -0.04379271               -0.15820763                0.14899966                0.22770130                0.01544969                0.42227031
              -0.01040108                5.99959813               35.04209688                0.84586629               -0.03796255               -0.03207902                0.12659435               -0.00733891               -0.00443057                0.01838161
               0.98921929                5.99551856               35.04252530                0.01000001               -0.00479247               -0.04408177                0.12661003                0.05581525               -0.01583002               -0.00943672
               1.98950307                5.99270061               35.04272512                0.01142114                0.06089378               -0.17614659                0.12539568                0.13247428                0.00018808               -0.00757378
               2.99043717                5.99154696               35.04346365                0.01000001                0.09033928               -0.27597997                0.12598101                0.29880686                0.07125382               -0.00934909
               3.99130986                5.99271579               35.04503501                0.01000001                0.06370923               -0.17806696                0.12909767                0.48253295                0.15231399                0.05736799
               4.99171135                5.99457146               35.04735623                0.01174210               -0.00141028               -0.11708461                0.13495585                0.53627911                0.16883935                0.09446211
               5.99128165                5.99658802               35.04923745                0.01000000               -0.05632966               -0.07917737                0.14012110                0.55257064                0.16143613                0.15127498
               6.99058476                5.99833851               35.05143545                0.01000001               -0.06918447               -0.01651178                0.14639548                0.58581245                0.19991598                0.28979832
               7.98989796                5.99976588               35.05412155                0.01000000               -0.07440343                0.03028737                0.15412237                0.54623768                0.18943657                0.43010558
               8.98909669                5.99939940               35.05614471                0.01064507               -0.07611821                0.01168682                0.16032933                0.33738137                0.10640115                0.46232406
               9.98837560                5.99620392               35.05720800                0.08748326               -0.07210961                0.01029959                0.16374521                0.15659910                0.05690898                0.44970709
              -0.00631653                6.99922741               35.04223358                0.99999999               -0.03778082               -0.03711698                0.12581699               -0.00041542               -0.00382945                0.01904082
               0.99330566                6.99513217               35.04252664                0.62939959               -0.03776888               -0.03824547                0.12565888               -0.00097314               -0.01398038               -0.00851291
               1.99292809                6.99102091               35.04261656                0.01621565                0.00446238               -0.10273215                0.12511343                0.05424160                0.00271430               -0.02713807
               2.99339491                6.98868598               35.04324202                0.01000001                0.08341129               -0.24684816                0.12527306                0.30008089                0.12316898               -0.07673188
               3.99459632                6.99075185               35.04570578                0.01174490                0.07259920               -0.21284303                0.13049777                0.51563151                0.21385434               -0.01386767
               4.99484689                6.99312463               35.04807482                0.01000000                0.00939583               -0.15296185                0.13645315                0.54071670                0.23966448                0.04411036
               5.99478423                6.99570066               35.05102682                0.01000001                0.00054719               -0.08681430                0.14476815                0.59362367                0.31488243                0.18483306
               6.99485784                6.99824102               35.05488279                0.01000000               -0.00144638               -0.01487601                0.15589007                0.60191191                0.36622117                0.34391380
               7.99475531                7.00000600               35.05882762                0.01080413               -0.03658645                0.00660371                0.16757203                0.49805288                0.28455297                0.41222217
               8.99412611                6.99987388               35.06101877                0.01000002               -0.09268810                0.05303747                0.17427966                0.33563583                0.13630255                0.61616171
               9.99290154                6.99689451               35.06201022                0.09545272               -0.12245627                0.17516840                0.17741687                0.19983046                0.07260168                0.54832891
              -0.00221890                7.99885579               35.04241519                0.99119704               -0.03747701               -0.03714722                0.12497748               -0.00017921               -0.00301766                0.02320516
               0.99740633                7.99475365               35.04257518                0.95075979               -0.03735087               -0.03758282                0.12462580               -0.00018276               -0.00551101               -0.00235520
               1.99703409                7.99064596               35.04268564                0.05391323               -0.03492442               -0.03737360                0.12409710                0.00347039               -0.01676475               -0.01828794
               2.99670784                7.98660999               35.04261935                0.01266015                0.00748787               -0.12630532                0.12304090                0.25947464                0.11642842               -0.06609343
               3.99718384                7.98845893               35.04538873                0.01000000                0.04345175               -0.22740765                0.12819155                0.54167550                0.28989396               -0.08747108
               4.99757688                7.99151222               35.04874919                0.01000001                0.04269428               -0.13847994                0.13724871                0.56921200                0.38161718                0.05110909
               5.99803773                7.99485174               35.05329268                0.01000000                0.03703940               -0.08358814                0.15042728                0.56034359                0.47716581                0.17720565
               6.99831767                7.99804099               35.05850648                0.01082458                0.00942184               -0.04197303                0.16580890                0.49963970                0.44888401                0.26666809
               7.99822617                7.99989795               35.06243447                0.01000002                0.03016128                0.03051790                0.17771308                0.39642214                0.49652378                0.48456804
               8.99892089                8.00046015               35.06856025                0.12751695                0.00523842               -0.00015478                0.19605198                0.26799738                0.30632771                0.37777703
               9.99833093                7.99970728               35.06856108                0.61540101               -0.05899597                0.11133510                0.19699914                0.23398895               -0.00000374                0.32593617
               0.00188417                8.99848447               35.04263572                1.00000000               -0.03723380               -0.03710998                0.12424003               -0.00008902                0.00139961                0.02029004
               1.00151183                8.99438051               35.04269922                0.99999998               -0.03715091               -0.03716209                0.12377078                0.00002783                0.00082257                0.00119219
               2.00114115                8.99027344               35.04275198                0.89552573               -0.03702016               -0.03709325                0.12322014               -0.00021007               -0.00502184               -0.01164624
               3.00077143                8.98615988               35.04269789                0.01475610               -0.03067762               -0.04082611                0.12251790                0.20536079                0.09388465               -0.01787598
               4.00052760                8.98620370               35.04472653                0.01000000               -0.04665499               -0.11599525                0.12295064                0.44280757                0.34812354               -0.07371713
               4.99983833                8.99035503               35.04969598                0.01000000               -0.05326342               -0.07439968                0.13851388                0.44737567                0.50877277                0.03537557
               5.99946233                8.99402890               35.05495977                0.01071495               -0.00169565               -0.07275810                0.15457908                0.34795541                0.53122371                0.10151618
               6.99980442                8.99740156               35.06039537                0.01000002                0.04011306               -0.08858755                0.17076445                0.33549632                0.67866226                0.12097733
               8.00026459                9.00061635               35.06856785                0.14791101               -0.00638482                0.00660078                0.19530902                0.26277051                0.40979867                0.30778659
               8.99967672                8.99987078               35.06856373                0.99999998               -0.05887687               -0.05888595                0.19609085                0.00060204                0.00013479                0.00068351
               9.99908706                8.99912121               35.06854511                0.99158340               -0.05896648               -0.05887633                0.19702978                0.00039345               -0.00062126               -0.00151216
               0.00598724                9.99811359               35.04276021                0.99511868               -0.03693198               -0.03708764                0.12343182               -0.00001190                0.01488132                0.01539790
               1.00561792                9.99401041               35.04281859                1.00000000               -0.03683604               -0.03701041                0.12295750                0.00013381                0.01857864                0.00094373
               2.00525052                9.98990410               35.04295218                0.89232005               -0.03665600               -0.03693408                0.12259813                0.00008968                0.02009985               -0.00489303
               3.00488480                9.98579347               35.04304073                0.04528470               -0.17028369               -0.03664054                0.12195192                0.22308335                0.10392542               -0.00452265
               4.00184484                9.98613903               35.04484917                0.06644549               -0.30928022               -0.00646717                0.12156588                0.34326202                0.36021112               -0.03476325
               4.99869919                9.99002423               35.05011495                0.01686247               -0.19472701               -0.03308010                0.13862552                0.24896359                0.53879449                0.00995539
               5.99795030                9.99339657               35.05573567                0.08355042               -0.01295263               -0.06323257                0.15632986                0.16104789                0.54205227                0.05673459
               6.99844014                9.99626924               35.06112081                0.09213879                0.15310270               -0.11323184                0.17238965                0.19524190                0.63486124                0.06110686
               8.00101236               10.00002996               35.06855891                0.63267810                0.09939664               -0.05863881                0.19546711                0.22543575                0.37468640                0.00055570
               9.00042807                9.99928243               35.06856540                0.99158430               -0.05872109               -0.05883489                0.19623894                0.00012487                0.00181795                0.00055044
               9.99983794                9.99852976               35.06854679                1.00000000               -0.05901386               -0.05914566                0.19717783               -0.00017949                0.00059273               -0.00058894
              -0.01587028               -0.00008597               36.03538993                0.98473253               -0.03105195               -0.03087804                0.10287283               -0.00004934               -0.00401534                0.00410385
               0.98381920               -0.00090842               36.03630595                0.76024622               -0.03126214               -0.03085278                0.10355462                0.00000128               -0.00519666               -0.00215102
               1.98350447               -0.00173721               36.03720095                0.22449886               -0.03415493               -0.03121810                0.10416782               -0.00362425               -0.00551237               -0.00185194
               2.98313610               -0.00264670               36.03811472                0.04487156               -0.08978132               -0.02954604                0.10512261               -0.16210267                0.09765838               -0.00216470
               3.98170885               -0.00678890               36.04108722                0.11261592               -0.07678274               -0.01793206                0.11317604               -0.24112856                0.10513323               -0.00221106
               4.98160044               -0.00565719               36.04220313                0.29884650               -0.02164915               -0.03460344                0.11712730               -0.02705549                0.01022046               -0.00186802
               5.98127586               -0.00391597               36.04324702                0.80878899               -0.03434703               -0.03607181                0.12011738               -0.00195773                0.00697672               -0.00184508
               6.98091350               -0.00211926               36.04429176                0.99999998               -0.03674847               -0.03703248                0.12308728                0.00032897                0.00780847               -0.00147241
               7.98054089               -0.00031541               36.04535185                0.99059046               -0.03773970               -0.03790744                0.12609550                0.00039539                0.00951010               -0.00110449
               8.98015871                0.00149263               36.04642962                1.00000000               -0.03865303               -0.03874521                0.12895490                0.00044252                0.00848507                0.00076028
               9.97976783                0.00330317               36.04746689                0.99499884               -0.03908751               -0.03961018                0.13164237                0.00036356                0.00647998                0.00633729
              -0.01504833                0.99960525               36.03549580                0.76063140               -0.03068467               -0.03100647                0.10218669               -0.00038359                0.00227368                0.00524340
               0.98464483                0.99878305               36.03641190                0.03192335               -0.03071522               -0.03049758                0.10284566               -0.00064614                0.00442107               -0.00433700
               1.98433737                0.99795061               36.03737301                0.01000000               -0.03019537               -0.01896028                0.10385773                0.00839949                0.00749289                0.06001480
               2.98404092                0.99705784               36.03835351                0.01000001               -0.17672812               -0.03577537                0.10517847               -0.20224788                0.11497237                0.07727652
               3.98080281                0.99303178               36.04146645                0.01000000               -0.20737489                0.08942293                0.11385615               -0.10097560                0.11113147                0.00000195
               4.97989342                0.99399678               36.04256884                0.01000000               -0.06577414                0.01266702                0.11788077                0.08901962                0.00177929                0.01498868
               5.97948732                0.99572331               36.04355951                0.01000001               -0.03884529               -0.01336968                0.12084609                0.06028770               -0.00409126                0.01422629
               6.97911652                0.99751041               36.04455051                0.56362968               -0.03742112               -0.03715582                0.12379525               -0.00044132               -0.00325922               -0.00579705
               7.97873890                0.99930551               36.04555726                0.97356440               -0.03813361               -0.03798206                0.12672585               -0.00010764               -0.00077791               -0.00221083
               8.97835384                1.00110518               36.04659647                0.99999999               -0.03889853               -0.03883609                0.12952962                0.00000965                0.00074635                0.00080620
               9.97796093                1.00290706               36.04763194                1.00000000               -0.03929124               -0.03969210                0.13225683               -0.00007214                0.00057210                0.00800967
              -0.01423356                1.99929390               36.03562623                0.22389952               -0.03055316               -0.03675939                0.10166019               -0.01114386                0.00204059                0.01211941
               0.98546091                1.99848163               36.03647693                0.01000000               -0.01843841               -0.02406160                0.10186873               -0.00051045                0.07489292               -0.00025570
               1.98539767                1.99788359               36.03878647                0.01000001               -0.07254665               -0.02163163                0.07038223               -0.07161177                0.12634197                0.12637216
               2.98400998                1.99663779               36.04018282                0.01000000               -0.13236363               -0.03553866                0.11283430               -0.12877777                0.08098437                0.14214987
               3.98275040                1.99499956               36.04186839                0.01000000               -0.16603383                0.12472855                0.11557846                0.03606521                0.06721571                0.05447719
               4.98068930                1.99459615               36.04326829                0.01000001               -0.18912083                0.07023444                0.11983403                0.16215432                0.02027623                0.05350437
               5.97896798                1.99581664               36.04419168                0.01141845               -0.16834103                0.04050538                0.12267668                0.14690439               -0.03017990                0.04853854
               6.97732248                1.99713762               36.04472179                0.01621085               -0.10120038               -0.00107778                0.12450876                0.06286489               -0.03147895                0.02301141
               7.97694398                1.99892494               36.04573853                0.04048644               -0.03825655               -0.03360676                0.12727178                0.00841091               -0.00664746               -0.00225698
               8.97655735                2.00071591               36.04676319                0.88857105               -0.03906811               -0.03900040                0.13008168               -0.00001192               -0.00400570               -0.00124632
               9.97616261                2.00250932               36.04783175                1.00000000               -0.03947344               -0.03988003                0.13292900               -0.00006206               -0.00179180                0.00879147
              -0.01364666                2.99887006               36.03587135                0.06043724               -0.03084138                0.00950304                0.10205298               -0.22498582                0.00203688                0.33644436
               0.98604493                2.99830182               36.03666657                0.01000001               -0.08021881               -0.06928453                0.10179357               -0.23883793                0.13616255                0.32202529
               1.98474897                2.99751798               36.04014819                0.01000000               -0.08477664               -0.07388020                0.11205098               -0.15459962                0.17084762                0.15211253
               2.98434940                2.99634707               36.04165651                0.01000000               -0.05916061               -0.05950851                0.11233583               -0.04350196                0.07497631                0.13022501
               3.98356575                2.99552635               36.04315966                0.01196971               -0.10149847                0.00475565                0.11969168                0.06439997                0.05249739                0.09343233
               4.98231943                2.99540146               36.04430624                0.01000000               -0.18409052                0.05238172                0.12283452                0.22886929                0.01325020                0.08078950
               5.97988394                2.99653342               36.04514214                0.01000001               -0.25269595                0.06261940                0.12528173                0.30610551               -0.03397931                0.10677180
               6.97726551                2.99748885               36.04555493                0.01000001               -0.22775557                0.06317451                0.12631873                0.30498081               -0.06716838                0.14339566
               7.97532883                2.99863338               36.04594161                0.01267996               -0.12481415                0.00292785                0.13072332                0.25368052               -0.04743311                0.11654992
               8.97476922                3.00032517               36.04688871                0.01473043               -0.04779893               -0.03048531                0.13065509                0.19615230               -0.01072718                0.08184388
               9.97437285                3.00210946               36.04801289                0.06610163               -0.03963709               -0.16470884                0.13353723                0.21238223               -0.00182874                0.07687188
              -0.01759679                3.99948396               36.04249567                0.13087937               -0.03669783                0.05146135                0.12337769               -0.30336204               -0.00372183                0.36698602
               0.98203623                3.99709594               36.04316770                0.01000000                0.09286110               -0.11953559                0.12370000               -0.22198944               -0.09469858                0.34602769
               1.98426043                3.99640598               36.04203288                0.01000000                0.15476694               -0.15777418                0.11815831               -0.03454635               -0.07059156                0.15499700
               2.98513157                3.99544762               36.04316465                0.01197069                0.03617859               -0.11811111                0.12052925                0.05917805                0.04011475                0.10241886
               3.98498400                3.99509467               36.04423415                0.01000000               -0.04359782               -0.07287341                0.12269612                0.20094485                0.04223947                0.08210470
               4.98425961                3.99564379               36.04543666                0.01000001               -0.09906495               -0.00771183                0.12600454                0.35287442                0.05485491                0.11306158
               5.98300270                3.99706903               36.04682886                0.01000001               -0.14687359                0.02939103                0.12984347                0.48779492                0.05046486                0.17462237
               6.98132214                3.99840111               36.04806204                0.01174375               -0.19107151                0.04761225                0.13339041                0.51513232               -0.00520871                0.21848095
               7.97918127                3.99898350               36.04849325                0.01000000               -0.21589179                0.03263302                0.13363851                0.52724426               -0.06545823                0.26214206
               8.97700431                4.00010620               36.04871691                0.01000000               -0.11698037               -0.03980860                0.13248316                0.42566675               -0.05491486                0.29581226
               9.97684167                3.99921515               36.04957419                0.06602622               -0.01626397               -0.28455922                0.13420147                0.32275471               -0.02374432                0.28324211
              -0.01493785                4.99989929               36.04319655                0.30624764               -0.03790350                0.00750650                0.12679032               -0.06268829               -0.00412264                0.04684485
               0.98468312                4.99591111               36.04376458                0.01000000                0.03221004               -0.08418394                0.12680534                0.05867598               -0.04203970                0.02119254
               1.98570635                4.99436250               36.04357373                0.01000001                0.10805781               -0.19588453                0.12372711                0.14241253               -0.04303036                0.07909227
               2.98684427                4.99398485               36.04410555                0.01000000                0.08410692               -0.20899354                0.12362837                0.22838330                0.02566812                0.05561937
               3.98738849                4.99406888               36.04527589                0.01000001                0.02791433               -0.13249783                0.12602671                0.35811775                0.08833666                0.07989363
               4.98740256                4.99524723               36.04704457                0.01000001               -0.02529859               -0.06480524                0.13050575                0.50437770                0.12804923                0.14132755
               5.98688252                4.99712124               36.04903166                0.01173962               -0.08744397               -0.03231315                0.13589072                0.55214063                0.09787188                0.17407250
               6.98565368                4.99844110               36.05025153                0.01000000               -0.13569458               -0.00884865                0.13905501                0.54893576                0.05673068                0.22877529
               7.98416863                4.99928604               36.05151581                0.01000001               -0.13013831                0.03573917                0.14235855                0.56687092                0.06647330                0.34698996
               8.98305091                4.99952900               36.05304747                0.01000000               -0.07792868               -0.04011362                0.14632879                0.43690204                0.04570644                0.44048559
               9.98261005                4.99641828               36.05398433                0.01869177               -0.04408600               -0.16377651                0.14892169                0.24053415                0.01561999                0.43629548
              -0.01087420                5.99963409               36.04336289                0.84166354               -0.03792645               -0.03178406                0.12659303               -0.00765904               -0.00448993                0.01883065
               0.98874654                5.99541226               36.04379030                0.01000001               -0.00454312               -0.04424765                0.12636693                0.05730059               -0.01643111               -0.00937834
               1.98903494                5.99248829               36.04397805                0.01142207                0.06231559               -0.17950103                0.12512927                0.13736516               -0.00024241               -0.00642688
               2.98999285                5.99126775               36.04472214                0.01000001                0.09245163               -0.28212841                0.12574870                0.30971106                0.07283671               -0.00850683
               3.99088398                5.99244471               36.04632505                0.01000001                0.06509767               -0.18166416                0.12895704                0.50045930                0.15633813                0.05944414
               4.99129481                5.99434768               36.04870535                0.01174137               -0.00161655               -0.11896448                0.13493390                0.55783862                0.17367799                0.09715850
               5.99085164                5.99642276               36.05063818                0.01000000               -0.05793716               -0.08007173                0.14009732                0.57601833                0.16624755                0.15549939
               6.99013606                5.99822414               36.05289940                0.01000001               -0.07104244               -0.01488407                0.14646837                0.61189681                0.20584387                0.29804081
               7.98943080                5.99969828               36.05566355                0.01000000               -0.07629799                0.03425971                0.15429991                0.57200054                0.19512939                0.44276448
               8.98861010                5.99930393               36.05774955                0.01065628               -0.07785073                0.01486114                0.16069888                0.35417108                0.10980447                0.47617923
               9.98787378                5.99593962               36.05884702                0.08806311               -0.07363217                0.01398716                0.16414007                0.16458201                0.05884447                0.46321837
              -0.00664736                6.99926361               36.04349222                0.99999999               -0.03777126               -0.03711851                0.12590338               -0.00041830               -0.00387902                0.01922092
               0.99297492                6.99502615               36.04378250                0.62398444               -0.03772388               -0.03821810                0.12549873               -0.00101272               -0.01421953               -0.00869994
               1.99259816                6.99077248               36.04386572                0.01621689                0.00535753               -0.10448311                0.12469615                0.05634902                0.00273099               -0.02722153
               2.99308207                6.98834228               36.04449329                0.01000001                0.08597950               -0.25220982                0.12491208                0.30961936                0.12603408               -0.07794141
               3.99431775                6.99043560               36.04700953                0.01174673                0.07496032               -0.21860909                0.13027905                0.53302876                0.21941424               -0.01453009
               4.99458128                6.99286794               36.04943812                0.01000000                0.01043400               -0.15683520                0.13626132                0.56154595                0.24660366                0.04488202
               5.99452643                6.99551981               36.05247418                0.01000001                0.00174066               -0.08835570                0.14477746                0.61767320                0.32429890                0.18971242
               6.99461609                6.99814342               36.05644284                0.01000000                0.00012083               -0.01368082                0.15618002                0.62744401                0.37718077                0.35358813
               7.99452885                6.99997123               36.06050649                0.01080921               -0.03615463                0.00871549                0.16827024                0.52065072                0.29305334                0.42406882
               8.99389300                6.99982622               36.06276284                0.01000002               -0.09492660                0.05803766                0.17458238                0.35164442                0.14015389                0.63384080
               9.99263031                6.99669802               36.06378357                0.09623825               -0.12626879                0.18794280                0.17728840                0.20976228                0.07444774                0.56431427
              -0.00240766                7.99889172               36.04366584                0.99117316               -0.03749286               -0.03719055                0.12515373               -0.00016790               -0.00308518                0.02340718
               0.99721742                7.99464790               36.04382108                0.95086211               -0.03732724               -0.03756615                0.12454753               -0.00019154               -0.00566599               -0.00248590
               1.99684580                7.99039863               36.04392500                0.05391913               -0.03476483               -0.03727391                0.12376028                0.00356837               -0.01719437               -0.01859115
               2.99652212                7.98622356               36.04384834                0.01268612                0.00865450               -0.12846725                0.12262889                0.26585606                0.11890297               -0.06708088
               3.99701889                7.98807253               36.04666888                0.01000000                0.04596978               -0.23508488                0.12782953                0.55913451                0.29732695               -0.09167677
               4.99744151                7.99121098               36.05012014                0.01000001                0.04553696               -0.14219936                0.13695536                0.59065689                0.39305288                0.05170450
               5.99792963                7.99465565               36.05479706                0.01000000                0.03960025               -0.08491197                0.15050506                0.58188423                0.49161299                0.18186570
               6.99823352                7.99795052               36.06016769                0.01082897                0.01156906               -0.04200348                0.16649714                0.51925296                0.46233387                0.27400854
               7.99816101                7.99987259               36.06421345                0.01000002                0.03413394                0.03300198                0.17812479                0.41295052                0.51101869                0.49831484
               8.99891620                8.00046468               36.07052275                0.12774797                0.00822041                0.00240448                0.19643637                0.28088181                0.31510222                0.38860979
               9.99832542                7.99969847               36.07053181                0.61553661               -0.05907804                0.12072453                0.19714077                0.24660320                0.00001239                0.33571864
               0.00183693                8.99851980               36.04387941                1.00000000               -0.03727471               -0.03718675                0.12450608               -0.00007487                0.00138679                0.02050461
               1.00146418                8.99427483               36.04393697                0.99999998               -0.03715318               -0.03716617                0.12377863                0.00002871                0.00076615                0.00117477
               2.00109386                8.99002700               36.04398296                0.90330221               -0.03694425               -0.03701796                0.12296838               -0.00021007               -0.00519265               -0.01174338
               3.00072530                8.98577293               36.04392059                0.01496636               -0.02904227               -0.04078079                0.12200986                0.20816981                0.09417718               -0.01799898
               4.00051302                8.98573390               36.04595161                0.01000000               -0.04569978               -0.12033491                0.12205031                0.45738944                0.35690700               -0.07769260
               4.99981130                8.99002395               36.05107955                0.01000000               -0.05442247               -0.07536387                0.13822235                0.46459967                0.52535353                0.03562721
               5.99942457                8.99382157               36.05650678                0.01072482               -0.00135463               -0.07338739                0.15487156                0.36084339                0.54754027                0.10435169
               6.99978421                8.99730335               36.06210426                0.01000002                0.04245623               -0.08978955                0.17104682                0.34750593                0.69863673                0.12397455
               8.00027369                9.00063127               36.07052327                0.14758905               -0.00497249                0.00855829                0.19576475                0.27210958                0.42163448                0.31658400
               8.99968476                8.99987431               36.07052573                0.99999998               -0.05894514               -0.05895669                0.19630293                0.00063428                0.00005584                0.00062876
               9.99909479                8.99911251               36.07051525                0.99176076               -0.05899662               -0.05885092                0.19699886                0.00043906               -0.00062008               -0.00156923
               0.00608078                9.99814799               36.04399622                0.99500081               -0.03699896               -0.03718101                0.12378467                0.00004342                0.01503275                0.01556941
               1.00571079                9.99390457               36.04404859                1.00000000               -0.03686401               -0.03702587                0.12305197                0.00017489                0.01878088                0.00094475
               2.00534350                9.98965827               36.04417734                0.89340878               -0.03660863               -0.03687257                0.12243653                0.00013153                0.02021497               -0.00485969
               3.00497861                9.98540794               36.04425821                0.05001964               -0.17139184               -0.03649917                0.12153843                0.22570978                0.10394255               -0.00458622
               4.00191566                9.98566583               36.04605982                0.06680168               -0.31663873               -0.00680665                0.12056436                0.35505186                0.36983805               -0.03681187
               4.99864584                9.98970370               36.05149941                0.01711179               -0.20242803               -0.03202526                0.13831179                0.25955729                0.55698987                0.00981156
               5.99786710                9.99318790               36.05730054                0.08366641               -0.01359516               -0.06336665                0.15669530                0.16680434                0.55887314                0.05851589
               6.99837394                9.99615473               36.06284384                0.09239429                0.15825716               -0.11486202                0.17222001                0.20176575                0.65383766                0.06254004
               8.00103224               10.00004376               36.07051501                0.63233029                0.10368517               -0.05875095                0.19574698                0.23239561                0.38584781                0.00057274
               9.00044764                9.99928555               36.07052797                0.99176192               -0.05872268               -0.05887612                0.19627463                0.00017290                0.00173517                0.00055184
               9.99985779                9.99852146               36.07051751                1.00000000               -0.05898515               -0.05910584                0.19697054               -0.00010957                0.00059230               -0.00058920
              -0.01683065               -0.00014612               37.03642026                0.98355443               -0.03117565               -0.03095200                0.10313769               -0.00001900               -0.00420398                0.00434837
               0.98285759               -0.00103298               37.03734405                0.75891484               -0.03143158               -0.03099824                0.10407421                0.00003160               -0.00540451               -0.00228832
               1.98254071               -0.00192662               37.03824615                0.22402313               -0.03463891               -0.03144684                0.10494533               -0.00390973               -0.00560550               -0.00193840
               2.98216481               -0.00290783               37.03917047                0.04562255               -0.09193806               -0.02965863                0.10616531               -0.16573752                0.10082056               -0.00225264
               3.98070195               -0.00719382               37.04221718                0.11331725               -0.07783407               -0.01678920                0.11282683               -0.24776278                0.10797908               -0.00226962
               4.98060813               -0.00604526               37.04337279                0.29851600               -0.02076916               -0.03442914                0.11680264               -0.02863384                0.01078734               -0.00186752
               5.98028657               -0.00425037               37.04444742                0.80696314               -0.03415742               -0.03600315                0.11991212               -0.00212945                0.00706436               -0.00184969
               6.97992498               -0.00239625               37.04552199                0.99999998               -0.03666802               -0.03696397                0.12290642                0.00033796                0.00790109               -0.00148258
               7.97955321               -0.00053492               37.04661150                0.99060226               -0.03765749               -0.03785393                0.12587644                0.00041750                0.00959413               -0.00109845
               8.97917183                0.00133051               37.04771831                1.00000000               -0.03860198               -0.03873035                0.12883791                0.00046004                0.00848244                0.00076975
               9.97878117                0.00319848               37.04878430                0.99487506               -0.03906620               -0.03964383                0.13178037                0.00038656                0.00645340                0.00633808
              -0.01594399                0.99954436               37.03651897                0.75925216               -0.03078582               -0.03108105                0.10240725               -0.00040114                0.00244310                0.00559968
               0.98374815                0.99865704               37.03744259                0.03248535               -0.03084839               -0.03062719                0.10331833               -0.00067719                0.00477324               -0.00462173
               1.98343904                0.99775891               37.03841479                0.01000000               -0.03035591               -0.03105279                0.10459140               -0.00668548                0.00814694                0.01316572
               2.98314104                0.99679558               37.03940956                0.01000001               -0.18230030               -0.03293150                0.10618242               -0.20503311                0.11898931                0.08584527
               3.97979304                0.99263829               37.04260267                0.01000000               -0.21454856                0.09423864                0.11342684               -0.10123737                0.11443463                0.00047020
               4.97885007                0.99361045               37.04374552                0.01000000               -0.06761337                0.01527480                0.11747928                0.09295040                0.00237590                0.01585556
               5.97844077                0.99538960               37.04476672                0.01000001               -0.03897145               -0.01214424                0.12057043                0.06310568               -0.00403922                0.01479824
               6.97807064                0.99723411               37.04578740                0.56147207               -0.03733843               -0.03707431                0.12354595               -0.00041649               -0.00323746               -0.00578401
               7.97769400                0.99908654               37.04682310                0.97437619               -0.03804525               -0.03791273                0.12646606               -0.00008699               -0.00078297               -0.00226712
               8.97730973                1.00094320               37.04789101                0.99999999               -0.03884717               -0.03881177                0.12939722                0.00000553                0.00070736                0.00077735
               9.97691706                1.00280204               37.04895514                1.00000000               -0.03926717               -0.03971970                0.13233636               -0.00007552                0.00053996                0.00807100
              -0.01506404                1.99923226               37.03664387                0.22326330               -0.03064693               -0.03697174                0.10183948               -0.01153666                0.00217843                0.01303404
               0.98462949                1.99835448               37.03749749                0.01000000               -0.03337486               -0.02389111                0.10228696               -0.01288417                0.02905688               -0.00025539
               1.98426846                1.99745233               37.03889058                0.01000001               -0.07223595               -0.01975310                0.04717361               -0.06707486                0.09838758                0.11652127
               2.98318477                1.99643354               37.04141350                0.01000000               -0.12030631               -0.03429515                0.11309245               -0.11789862                0.11630446                0.14390079
               3.98186234                1.99469095               37.04301862                0.01000000               -0.17344743                0.13194758                0.11598955                0.03909354                0.06173068                0.05725816
               4.97971582                1.99426023               37.04446926                0.01000001               -0.19686570                0.07555250                0.11980116                0.17070026                0.02100021                0.05552820
               5.97792502                1.99550675               37.04541731                0.01141922               -0.17480575                0.04451733                0.12250685                0.15339038               -0.03096109                0.05017466
               6.97621971                1.99686226               37.04596533                0.01621167               -0.10413268                0.00077523                0.12416355                0.06514117               -0.03213012                0.02338818
               7.97584237                1.99870683               37.04701026                0.04159633               -0.03816349               -0.03342053                0.12702327                0.00822624               -0.00675329               -0.00019264
               8.97545644                2.00055427               37.04806352                0.89283710               -0.03901965               -0.03896214                0.12994722               -0.00002874               -0.00404549               -0.00127855
               9.97506198                2.00240409               37.04916115                1.00000000               -0.03944623               -0.03988822                0.13292773               -0.00007150               -0.00179495                0.00885712
              -0.01441916                2.99880493               37.03689252                0.06091270               -0.03104344                0.01316933                0.10216480               -0.22475126                0.00221958                0.34826522
               0.98527040                2.99817922               37.03768589                0.01000001               -0.07811742               -0.06721806                0.10211814               -0.23758141                0.14573596                0.33328035
               1.98401849                2.99736385               37.04135374                0.01000000               -0.08629841               -0.06069892                0.11208853               -0.13968932                0.17599597                0.19499540
               2.98354444                2.99610968               37.04275469                0.01000000               -0.06351394               -0.05962466                0.11124031               -0.04207242                0.06910327                0.12445514
               3.98274821                2.99527724               37.04436329                0.01197020               -0.10480803                0.00803343                0.11979220                0.07044129                0.05525020                0.09632809
               4.98144828                2.99512150               37.04553507                0.01000000               -0.19208287                0.05713499                0.12295788                0.23939613                0.01313170                0.08316313
               5.97890655                2.99627995               37.04639573                0.01000001               -0.26374478                0.06810539                0.12521101                0.31934319               -0.03521539                0.10989471
               6.97617338                2.99724961               37.04681226                0.01000001               -0.23700198                0.06869198                0.12643222                0.31721628               -0.06729648                0.14737421
               7.97416651                2.99841813               37.04726173                0.01270835               -0.12807427                0.00561188                0.12791270                0.26287727               -0.04836259                0.11892108
               8.97361189                3.00016396               37.04819436                0.01494619               -0.04752595               -0.02852315                0.13044776                0.20135470               -0.01293770                0.08236452
               9.97321600                3.00200428               37.04934792                0.06829992               -0.03958989               -0.16713085                0.13345436                0.21737732               -0.00183995                0.07685057
              -0.01830765                3.99949565               37.04372856                0.13115247               -0.03734117                0.05668702                0.12318458               -0.30496565               -0.00373195                0.38016264
               0.98131894                3.99701012               37.04440305                0.01000000                0.09259347               -0.11820823                0.12335859               -0.22269241               -0.09797190                0.35889535
               1.98354422                3.99623835               37.04320564                0.01000000                0.15554989               -0.15916673                0.11808582               -0.03410680               -0.07281070                0.15548741
               2.98442994                3.99524104               37.04437499                0.01197080                0.03575625               -0.11745997                0.12044330                0.06569982                0.04149372                0.10765277
               3.98425934                3.99485162               37.04546025                0.01000000               -0.04644481               -0.07285382                0.12269667                0.21057765                0.04282574                0.08402919
               4.98350104                3.99540293               37.04669815                0.01000001               -0.10377847               -0.00486591                0.12611704                0.36838581                0.05640388                0.11627932
               5.98218378                3.99686886               37.04812721                0.01000001               -0.15375944                0.03381979                0.12991825                0.50884805                0.05195182                0.17959199
               6.98042585                3.99823610               37.04939651                0.01174677               -0.19991049                0.05298931                0.13320311                0.53733667               -0.00597211                0.22482815
               7.97818557                3.99881906               37.04982463                0.01000000               -0.22642327                0.03758093                0.13368893                0.55030832               -0.06894031                0.26738507
               8.97589739                3.99998381               37.05003865                0.01000000               -0.12283396               -0.03733759                0.13187120                0.44463204               -0.05794422                0.30344276
               9.97572889                3.99906147               37.05091356                0.06641907               -0.01684996               -0.29313405                0.13369957                0.33783000               -0.02563433                0.29089008
              -0.01554742                4.99993867               37.04446385                0.30527362               -0.03787263                0.00917137                0.12665110               -0.06426331               -0.00416801                0.04935966
               0.98407386                4.99581505               37.04503090                0.01000000                0.03264240               -0.08485251                0.12643162                0.05992127               -0.04340379                0.02315034
               1.98510543                4.99418052               37.04481251                0.01000001                0.10856516               -0.19791340                0.12351719                0.14837923               -0.04473219                0.08278858
               2.98624516                4.99376048               37.04534136                0.01000000                0.08462223               -0.21259811                0.12357569                0.23783049                0.02603208                0.05748938
               3.98679787                4.99382016               37.04653688                0.01000001                0.02768002               -0.13402906                0.12603175                0.37288802                0.09082475                0.08246257
               4.98679876                4.99502418               37.04834991                0.01000001               -0.02737615               -0.06409322                0.13060718                0.52534655                0.13174454                0.14534800
               5.98625035                4.99695634               37.05039116                0.01174154               -0.09144272               -0.03066850                0.13604263                0.57569976                0.10062119                0.17901313
               6.98496990                4.99830940               37.05164173                0.01000000               -0.14126899               -0.00640365                0.13910883                0.57319115                0.05810549                0.23517723
               7.98342497                4.99916975               37.05293969                0.01000001               -0.13538877                0.04057109                0.14229863                0.59363223                0.06788232                0.35762050
               8.98226213                4.99941721               37.05451059                0.01000000               -0.08038506               -0.03881000                0.14632104                0.45918858                0.04652091                0.45477744
               9.98181727                4.99614160               37.05547340                0.01918833               -0.04448586               -0.16962160                0.14895135                0.25387207                0.01574151                0.45088777
              -0.01134569                5.99967907               37.04462874                0.83754000               -0.03787944               -0.03148933                0.12656189               -0.00796370               -0.00455139                0.01929157
               0.98827551                5.99531307               37.04505264                0.01000001               -0.00439637               -0.04438345                0.12607868                0.05874599               -0.01694047               -0.00932895
               1.98856638                5.99228008               37.04522771                0.01142233                0.06356929               -0.18254933                0.12482784                0.14212545               -0.00042304               -0.00577923
               2.98954690                5.99098908               37.04597862                0.01000001                0.09435118               -0.28797644                0.12548573                0.32087906                0.07472281               -0.00796161
               3.99045340                5.99217104               37.04761415                0.01000001                0.06624461               -0.18513663                0.12887828                0.51869402                0.16063369                0.06119221
               4.99087179                5.99412107               37.05005491                0.01174207               -0.00204253               -0.12083476                0.13504201                0.58000001                0.17870705                0.09969616
               5.99041255                5.99625549               37.05203940                0.01000000               -0.05977620               -0.08101560                0.14023231                0.60010527                0.17120492                0.15972804
               6.98967627                5.99810803               37.05436481                0.01000001               -0.07310781               -0.01324493                0.14667884                0.63871232                0.21190144                0.30659874
               7.98895040                5.99963049               37.05720755                0.01000000               -0.07834791                0.03838593                0.15460105                0.59854902                0.20101793                0.45596984
               8.98810931                5.99920761               37.05935868                0.01067375               -0.07964243                0.01801430                0.16118999                0.37142621                0.11338787                0.49035455
               9.98735755                5.99566904               37.06049080                0.08868306               -0.07517607                0.01772043                0.16467115                0.17273173                0.06085870                0.47673359
              -0.00697468                6.99930888               37.04475164                0.99999999               -0.03775492               -0.03711663                0.12597526               -0.00041865               -0.00392810                0.01940945
               0.99264777                6.99492738               37.04503661                0.61860434               -0.03766964               -0.03818025                0.12530861               -0.00105038               -0.01446337               -0.00889122
               1.99227193                6.99052953               37.04511048                0.01621690                0.00620046               -0.10615898                0.12423335                0.05850583                0.00287548               -0.02741704
               2.99277178                6.98800095               37.04574027                0.01000001                0.08839203               -0.25740060                0.12444851                0.31915150                0.12927986               -0.07937764
               3.99403977                6.99011743               37.04831136                0.01174976                0.07712680               -0.22438597                0.13009584                0.55058604                0.22531739               -0.01537650
               4.99431431                6.99260748               37.05080004                0.01000000                0.01128674               -0.16080916                0.13619543                0.58282823                0.25388292                0.04540962
               5.99426550                6.99533603               37.05392237                0.01000001                0.00274175               -0.08995148                0.14494284                0.64234485                0.33417309                0.19465155
               6.99436915                6.99804450               37.05800639                0.01000000                0.00154338               -0.01241400                0.15661961                0.65365607                0.38866583                0.36368594
               7.99429637                6.99993747               37.06219303                0.01082102               -0.03585247                0.01084876                0.16909996                0.54370396                0.30173347                0.43622367
               8.99365210                6.99977750               37.06451042                0.01000002               -0.09736628                0.06309265                0.17496422                0.36769037                0.14373370                0.65163322
               9.99234904                6.99649601               37.06555599                0.09707913               -0.13030571                0.20104686                0.17722233                0.21962667                0.07597975                0.58018024
              -0.00259108                7.99893674               37.04491826                0.99115193               -0.03750682               -0.03723472                0.12533094               -0.00015415               -0.00315479                0.02361812
               0.99703385                7.99454946               37.04506613                0.95095981               -0.03729952               -0.03754465                0.12445503               -0.00020009               -0.00582529               -0.00261901
               1.99666293                7.99015690               37.04516084                0.05389627               -0.03459136               -0.03716518                0.12339395                0.00366773               -0.01759157               -0.01890343
               2.99634203                7.98584107               37.04507193                0.01271388                0.00978285               -0.13054588                0.12203554                0.27204841                0.12162982               -0.06821196
               3.99685859                7.98768332               37.04794532                0.01000551                0.04838637               -0.24292658                0.12747842                0.57654197                0.30524649               -0.09624767
               4.99730976                7.99090489               37.05148830                0.01000001                0.04819233               -0.14595951                0.13667731                0.61245263                0.40512973                0.05202120
               5.99782244                7.99445646               37.05630278                0.01000000                0.04190978               -0.08617889                0.15072311                0.60388944                0.50686677                0.18669907
               6.99814795                7.99785975               37.06183642                0.01083985                0.01345210               -0.04197982                0.16732244                0.53912583                0.47618224                0.28146513
               7.99809148                7.99984746               37.06599697                0.01000002                0.03783134                0.03545029                0.17860772                0.42945809                0.52553974                0.51206399
               8.99890458                8.00046946               37.07248898                0.12800403                0.01107893                0.00503206                0.19679189                0.29381365                0.32395344                0.39954296
               9.99831306                7.99968998               37.07250389                0.61568439               -0.05915208                0.13040629                0.19726406                0.25937972                0.00003085                0.34570469
               0.00179679                8.99856418               37.04512584                1.00000000               -0.03731823               -0.03726866                0.12478833               -0.00005844                0.00137321                0.02072555
               1.00142361                8.99417649               37.04517480                0.99999998               -0.03715583               -0.03717053                0.12378775                0.00002973                0.00070824                0.00115716
               2.00105367                8.98978623               37.04521135                0.91096243               -0.03686418               -0.03693833                0.12270302               -0.00020972               -0.00536366               -0.01184393
               3.00068632                8.98539003               37.04513808                0.01519100               -0.02734431               -0.04072763                0.12147343                0.21059069                0.09440653               -0.01816547
               4.00050679                8.98525890               37.04716753                0.01000000               -0.04480461               -0.12484819                0.12115991                0.47200363                0.36599713               -0.08195691
               4.99979023                8.98968829               37.05246043                0.01000000               -0.05591786               -0.07620809                0.13791669                0.48210387                0.54273280                0.03576031
               5.99938843                8.99361245               37.05805720                0.01074008               -0.00147863               -0.07385429                0.15528588                0.37387563                0.56436298                0.10735890
               6.99976066                8.99720490               37.06381631                0.01000002                0.04436915               -0.09094350                0.17141254                0.35942462                0.71887788                0.12663767
               8.00027581                9.00064647               37.07248315                0.14731035               -0.00374010                0.01052381                0.19618950                0.28134710                0.43365307                0.32546214
               8.99968586                8.99987814               37.07248979                0.99999998               -0.05901034               -0.05902396                0.19650466                0.00066806               -0.00002382                0.00057720
               9.99909561                8.99910413               37.07248508                0.99193757               -0.05902509               -0.05882597                0.19696815                0.00048199               -0.00061880               -0.00162305
               0.00618314                9.99819137               37.04523590                0.99487693               -0.03707321               -0.03728174                0.12416883                0.00010348                0.01518863                0.01574511
               1.00581241                9.99380605               37.04527963                1.00000000               -0.03689706               -0.03704394                0.12316302                0.00021826                0.01898855                0.00094574
               2.00544520                9.98941813               37.04540091                0.89444065               -0.03656197               -0.03680932                0.12227684                0.00017571                0.02033852               -0.00482712
               3.00508117                9.98502652               37.04547149                0.05478610               -0.17223994               -0.03635149                0.12111146                0.22789562                0.10380849               -0.00465148
               4.00200040                9.98518636               37.04726045                0.06717456               -0.32414450               -0.00725418                0.11956490                0.36707166                0.37978128               -0.03896311
               4.99859828                9.98938072               37.05288119                0.01737949               -0.21085294               -0.03075689                0.13808958                0.27045523                0.57609117                0.00962022
               5.99778334                9.99297937               37.05886958                0.08379000               -0.01479281               -0.06330837                0.15716956                0.17249861                0.57588202                0.06038799
               6.99830242                9.99604088               37.06456521                0.09267084                0.16309220               -0.11640258                0.17210165                0.20810467                0.67290484                0.06358504
               8.00104519               10.00005794               37.07247385                0.63200161                0.10789290               -0.05885367                0.19600470                0.23934254                0.39734754                0.00059189
               9.00046028                9.99928898               37.07249089                0.99193754               -0.05872411               -0.05891538                0.19630881                0.00021825                0.00165130                0.00055318
               9.99987070                9.99851346               37.07248620                1.00000000               -0.05895773               -0.05906758                0.19677227               -0.00004287                0.00059179               -0.00058937
              -0.01780194               -0.00019643               38.03745269                0.98236408               -0.03128442               -0.03099370                0.10328697                0.00003852               -0.00439150                0.00459460
               0.98188522               -0.00115128               38.03838743                0.75755469               -0.03160591               -0.03115506                0.10461158                0.00008401               -0.00560851               -0.00242771
               1.98156594               -0.00211326               38.03929986                0.22353853               -0.03518662               -0.03172454                0.10587373               -0.00419297               -0.00569068               -0.00202241
               2.98118148               -0.00316993               38.04023802                0.04633505               -0.09499145               -0.02983456                0.10749154               -0.16946624                0.10306685               -0.00234023
               3.97966611               -0.00760528               38.04334376                0.11396375               -0.07977656               -0.01549843                0.11249720               -0.25456138                0.10998001               -0.00233366
               4.97958595               -0.00644001               38.04453918                0.29821295               -0.01990800               -0.03425760                0.11644460               -0.03021992                0.01133580               -0.00187884
               5.97926795               -0.00459156               38.04564527                0.80526503               -0.03392565               -0.03590554                0.11961614               -0.00231576                0.00716539               -0.00187416
               6.97890744               -0.00267975               38.04674989                0.99999998               -0.03657516               -0.03688704                0.12266558                0.00034319                0.00794655               -0.00149377
               7.97853645               -0.00076058               38.04786938                0.99061211               -0.03759399               -0.03780111                0.12571254                0.00043722                0.00964016               -0.00112036
               8.97815556                0.00116263               38.04900638                1.00000000               -0.03857617               -0.03871115                0.12878782                0.00048127                0.00851286                0.00076263
               9.97776493                0.00308826               38.05010250                0.99474470               -0.03906331               -0.03966180                0.13185663                0.00041738                0.00646786                0.00635816
              -0.01684671                0.99949364               38.03754394                0.75785287               -0.03088235               -0.03112699                0.10254334               -0.00041127                0.00261652                0.00596117
               0.98284447                0.99853717               38.03847827                0.03304153               -0.03099771               -0.03077510                0.10384129               -0.00070111                0.00513515               -0.00491175
               1.98253334                0.99756950               38.03946484                0.01000000               -0.03058202               -0.03058375                0.10551027               -0.00609860                0.00881493                0.00267953
               2.98223283                0.99653172               38.04047716                0.01000001               -0.18889008               -0.03296932                0.10749833               -0.21516069                0.12207943                0.08387002
               3.97875554                0.99223974               38.04373499                0.01000000               -0.22279682                0.09946864                0.11305261               -0.10255873                0.11687753                0.00212211
               4.97777689                0.99321741               38.04491842                0.01000000               -0.06954380                0.01785878                0.11707539                0.09671545                0.00295125                0.01663754
               5.97736466                0.99504939               38.04597092                0.01000001               -0.03907564               -0.01086605                0.12022670                0.06593547               -0.00398783                0.01549673
               6.97699538                0.99695138               38.04702143                0.55944030               -0.03725146               -0.03698655                0.12324543               -0.00042454               -0.00326866               -0.00580854
               7.97661963                0.99886141               38.04808659                0.97515998               -0.03797136               -0.03784817                0.12623736               -0.00007941               -0.00081951               -0.00230738
               8.97623595                1.00077552               38.04918442                0.99999999               -0.03880793               -0.03878257                0.12928611                0.00001109                0.00068952                0.00076635
               9.97584348                1.00269164               38.05027866                0.99999998               -0.03924793               -0.03972887                0.13235472               -0.00006180                0.00052881                0.00811643
              -0.01589724                1.99918103               38.03766302                0.22263344               -0.03074280               -0.03714839                0.10196336               -0.01189615                0.00231953                0.01394260
               0.98379533                1.99823322               38.03852267                0.01000000               -0.03266696               -0.02376505                0.10279047               -0.01260037                0.01960295               -0.00029158
               1.98344942                1.99727507               38.03972995                0.01000001               -0.07936522               -0.02333320                0.09198889               -0.06978973                0.11261585                0.12755387
               2.98220803                1.99617068               38.04244467                0.01000000               -0.12600865               -0.03285217                0.10578603               -0.12009465                0.12869924                0.14477722
               3.98092925                1.99438410               38.04418818                0.01000000               -0.17487063                0.13857691                0.11575518                0.04406599                0.06610208                0.06008514
               4.97871062                1.99391716               38.04566432                0.01000001               -0.20382783                0.08092109                0.11949359                0.17898782                0.02079384                0.05780060
               5.97685269                1.99519112               38.04664181                0.01141934               -0.18118452                0.04860139                0.12228139                0.16005731               -0.03163117                0.05198689
               6.97508692                1.99658052               38.04720506                0.01621161               -0.10709828                0.00268876                0.12376211                0.06747625               -0.03297563                0.02464200
               7.97471073                1.99848246               38.04827900                0.04175668               -0.03806862               -0.03319897                0.12672370                0.00831492               -0.00686904               -0.00204596
               8.97432555                2.00038698               38.04936213                0.89713652               -0.03896365               -0.03890982                0.12977053               -0.00002261               -0.00408263               -0.00131648
               9.97393145                2.00229368               38.05049031                1.00000000               -0.03940995               -0.03987883                0.13288514               -0.00005713               -0.00179269                0.00889603
              -0.01518901                2.99875067               38.03791465                0.06127301               -0.03125653                0.01674236                0.10224150               -0.22503722                0.00240683                0.35995112
               0.98449843                2.99806187               38.03870893                0.01000001               -0.08054539               -0.06521926                0.10254050               -0.24217237                0.14652794                0.34413392
               1.98320009                2.99710283               38.04238996                0.01000000               -0.08882599               -0.06090539                0.10624690               -0.14021697                0.17748274                0.21110544
               2.98272191                2.99587468               38.04388132                0.01000000               -0.06548554               -0.05783373                0.11277846               -0.02963776                0.07520312                0.13267531
               3.98189038                2.99501128               38.04555550                0.01197044               -0.10861409                0.01087850                0.11926616                0.07746291                0.05764792                0.09841581
               4.98054963                2.99483583               38.04676540                0.01000000               -0.19939628                0.06186846                0.12289602                0.25101264                0.01352125                0.08590168
               5.97790245                2.99602141               38.04764636                0.01000001               -0.27480288                0.07371558                0.12509895                0.33300077               -0.03574109                0.11324428
               6.97505357                2.99700516               38.04808358                0.01000001               -0.24614873                0.07438413                0.12645002                0.32971866               -0.07016210                0.15143229
               7.97297948                2.99819743               38.04849987                0.01273833               -0.13146448                0.00853924                0.12511834                0.27208827               -0.04934529                0.12205028
               8.97242428                2.99999732               38.04949767                0.01517636               -0.04752706               -0.02640737                0.13020280                0.20637839               -0.01123866                0.08269911
               9.97202893                3.00189406               38.05068198                0.07053554               -0.03953459               -0.16931023                0.13334077                0.22205922               -0.00185459                0.07664862
              -0.01902039                3.99951588               38.04495936                0.13128438               -0.03798884                0.06178199                0.12296555               -0.30701887               -0.00375816                0.39318650
               0.98059972                3.99692884               38.04563487                0.01000000                0.09263336               -0.11686752                0.12299778               -0.22454839               -0.10018487                0.37123935
               1.98283227                3.99605696               38.04439459                0.01000000                0.15535545               -0.15533168                0.11781676               -0.03068371               -0.07463654                0.16426574
               2.98370683                3.99501401               38.04557351                0.01197083                0.03425378               -0.11718397                0.11991774                0.07316724                0.04206055                0.11220871
               3.98351735                3.99460167               38.04668809                0.01000000               -0.04930481               -0.07235238                0.12278259                0.22232940                0.04438126                0.08685555
               4.98272073                3.99515453               38.04795900                0.01000001               -0.10869841               -0.00191993                0.12610366                0.38486531                0.05813405                0.11958127
               5.98134338                3.99666543               38.04942723                0.01000001               -0.16077253                0.03839526                0.13002385                0.53071748                0.05335232                0.18484026
               6.97950528                3.99806821               38.05072610                0.01175036               -0.20915276                0.05855915                0.13309793                0.56007470               -0.00629715                0.23067186
               7.97716033                3.99865324               38.05116703                0.01001727               -0.23743967                0.04290488                0.13378709                0.57342808               -0.07258224                0.27609825
               8.97475649                3.99985883               38.05135434                0.01000000               -0.12905837               -0.03464055                0.13132959                0.46387892               -0.06180852                0.31105396
               9.97457916                3.99890747               38.05224818                0.06683176               -0.01773284               -0.30176331                0.13325002                0.35338040               -0.02749567                0.29869948
              -0.01615530                4.99998631               38.04572957                0.30430509               -0.03783227                0.01081256                0.12647320               -0.06581012               -0.00421582                0.05186835
               0.98346638                4.99572452               38.04629321                0.01000000                0.03282692               -0.08544376                0.12600539                0.06094673               -0.04480927                0.02500919
               1.98450124                4.99399620               38.04604407                0.01000001                0.10870831               -0.19911113                0.12308997                0.15373501               -0.04616139                0.08563678
               2.98564055                4.99353100               38.04657706                0.01000000                0.08475973               -0.21521949                0.12341201                0.24810312                0.02694475                0.05986832
               3.98619644                4.99356423               38.04779653                0.01000001                0.02713106               -0.13537950                0.12595533                0.38847250                0.09355341                0.08501676
               4.98618317                4.99479744               38.04965671                0.01000001               -0.02966548               -0.06315323                0.13079871                0.54740299                0.13576411                0.14957736
               5.98560313                4.99678932               38.05175251                0.01174238               -0.09579574               -0.02896596                0.13635631                0.60006792                0.10346571                0.18409163
               6.98426725                4.99817634               38.05303371                0.01000000               -0.14728583               -0.00383780                0.13933938                0.59834341                0.05930929                0.24203567
               7.98265741                4.99905553               38.05436178                0.01000001               -0.14098138                0.04555529                0.14229058                0.62125635                0.06899207                0.36811036
               8.98144763                4.99930451               38.05597389                0.01000000               -0.08290760               -0.03738215                0.14627456                0.48206928                0.04724533                0.46950217
               9.98099926                4.99585880               38.05696336                0.01971654               -0.04483675               -0.17578857                0.14908660                0.26780641                0.01579010                0.46605932
              -0.01181302                5.99973213               38.04589413                0.83349037               -0.03782156               -0.03120189                0.12650192               -0.00824543               -0.00461469                0.01976220
               0.98780876                5.99521996               38.04631187                0.01000001               -0.00432399               -0.04448419                0.12574541                0.06015204               -0.01730184               -0.00929241
               1.98810050                5.99207474               38.04647461                0.01142286                0.06460494               -0.18526007                0.12446823                0.14702144               -0.00034304               -0.00509211
               2.98910086                5.99070962               38.04723185                0.01000001                0.09599332               -0.29347922                0.12517439                0.33227944                0.07695632               -0.00769003
               3.99002036                5.99189408               38.04890262                0.01000001                0.06714215               -0.18836653                0.12884625                0.53748665                0.16541841                0.06293878
               4.99044370                5.99389147               38.05140619                0.01174388               -0.00272646               -0.12273508                0.13532423                0.60283974                0.18407835                0.10223064
               5.98996583                5.99608611               38.05344282                0.01000000               -0.06188813               -0.08199305                0.14058427                0.62502013                0.17638748                0.16408125
               6.98920594                5.99799145               38.05583298                0.01000001               -0.07542754               -0.01154051                0.14708951                0.66648670                0.21815415                0.31550039
               7.98845728                5.99956435               38.05875557                0.01000000               -0.08056676                0.04253779                0.15508251                0.62609065                0.20712410                0.46986203
               8.98759461                5.99911119               38.06097335                0.01069615               -0.08152815                0.02120393                0.16182474                0.38922231                0.11708619                0.50480598
               9.98682672                5.99539170               38.06214045                0.08934352               -0.07678847                0.02148689                0.16531964                0.18102690                0.06287621                0.49018174
              -0.00729586                6.99936227               38.04601172                0.99999999               -0.03773192               -0.03711241                0.12603382               -0.00041622               -0.00397699                0.01960590
               0.99232682                6.99483484               38.04628867                0.61325549               -0.03760597               -0.03813154                0.12508872               -0.00108523               -0.01471276               -0.00908671
               1.99195202                6.99029100               38.04635038                0.01621618                0.00699905               -0.10775196                0.12372316                0.06071223                0.00314380               -0.02777932
               2.99246680                6.98766142               38.04698226                0.01000001                0.09061511               -0.26240584                0.12392557                0.32876387                0.13296280               -0.08105429
               3.99376432                6.98979690               38.04961145                0.01175361                0.07905654               -0.23013367                0.12997866                0.56842013                0.23173412               -0.01637728
               4.99404793                6.99234273               38.05216203                0.01000000                0.01196157               -0.16502252                0.13631882                0.60477537                0.26161680                0.04572839
               5.99400355                6.99514946               38.05537304                0.01000001                0.00354126               -0.09156566                0.14531075                0.66779048                0.34452693                0.19971813
               6.99411875                6.99794553               38.05957523                0.01000000                0.00279675               -0.01107755                0.15727222                0.68069296                0.40065247                0.37425000
               7.99405948                6.99990628               38.06388848                0.01083840               -0.03570177                0.01297030                0.17008124                0.56725108                0.31050555                0.44859033
               8.99340472                6.99972859               38.06626213                0.01000002               -0.10003573                0.06824888                0.17543294                0.38379912                0.14697117                0.66944282
               9.99205877                6.99628853               38.06732802                0.09797368               -0.13459477                0.21458831                0.17722367                0.22946807                0.07715969                0.59585311
              -0.00276648                7.99898988               38.04617246                0.99113144               -0.03751883               -0.03728023                0.12550958               -0.00013788               -0.00322596                0.02383705
               0.99685833                7.99445733               38.04631018                0.95105747               -0.03726759               -0.03751812                0.12434809               -0.00020806               -0.00598820               -0.00275429
               1.99648817                7.98991970               38.04639288                0.05384162               -0.03440457               -0.03704713                0.12299742                0.00377299               -0.01798640               -0.01922275
               2.99617024                7.98546150               38.04628906                0.01274430                0.01096410               -0.13256778                0.12136178                0.27810754                0.12465583               -0.06948222
               3.99670745                7.98729140               38.04921844                0.01002560                0.05082080               -0.25086357                0.12712889                0.59379096                0.31366253               -0.10119298
               4.99718665                7.99059102               38.05285368                0.01000001                0.05056999               -0.14982308                0.13646005                0.63458784                0.41783898                0.05205104
               5.99771885                7.99425480               38.05781152                0.01000000                0.04381608               -0.08737580                0.15115276                0.62656386                0.52294729                0.19174362
               6.99806297                7.99776990               38.06351414                0.01085600                0.01502000               -0.04191099                0.16833499                0.55930099                0.49035814                0.28901386
               7.99801925                7.99982375               38.06778561                0.01000002                0.04126819                0.03786705                0.17918980                0.44600297                0.53997952                0.52571632
               8.99888834                8.00047617               38.07445859                0.12828221                0.01384751                0.00776742                0.19711257                0.30686717                0.33283210                0.41053062
               9.99829620                7.99968347               38.07447709                0.61584211               -0.05921412                0.14046077                0.19736303                0.27238308                0.00004883                0.35585766
               0.00176648                8.99861667               38.04637518                1.00000000               -0.03736430               -0.03735588                0.12508707               -0.00003965                0.00135958                0.02095279
               1.00139284                8.99408448               38.04641272                0.99999998               -0.03715884               -0.03717507                0.12379805                0.00003079                0.00064949                0.00113953
               2.00102331                8.98955006               38.04643702                0.91851708               -0.03677986               -0.03685420                0.12242368               -0.00020917               -0.00553466               -0.01194759
               3.00065724                8.98501006               38.04635006                0.01543005               -0.02563436               -0.04067057                0.12090774                0.21272857                0.09461976               -0.01834441
               4.00051062                8.98477963               38.04837481                0.01000000               -0.04404772               -0.12953374                0.12028750                0.48651789                0.37536481               -0.08653808
               4.99977629                8.98934627               38.05383788                0.01000000               -0.05773363               -0.07682184                0.13759676                0.49970982                0.56088839                0.03584336
               5.99935595                8.99340194               38.05961249                0.01076091               -0.00202349               -0.07419488                0.15586040                0.38714545                0.58174808                0.11052555
               6.99973582                8.99710731               38.06553251                0.01000002                0.04586647               -0.09206341                0.17190899                0.37132338                0.73928809                0.12894409
               8.00027328                9.00066362               38.07444706                0.14706796               -0.00267365                0.01252162                0.19657861                0.29054460                0.44578996                0.33436797
               8.99968235                8.99988394               38.07445582                0.99999997               -0.05907245               -0.05908773                0.19669600                0.00070534               -0.00009313                0.00053614
               9.99909183                8.99909775               38.07445461                0.99211230               -0.05905188               -0.05880147                0.19693762                0.00052134               -0.00061737               -0.00166632
               0.00629710                9.99824277               38.04647959                0.99474686               -0.03715495               -0.03738995                0.12458527                0.00016839                0.01534843                0.01592560
               1.00592555                9.99371383               38.04651185                1.00000000               -0.03693526               -0.03706464                0.12329086                0.00026382                0.01920127                0.00094678
               2.00555840                9.98918261               38.04662288                0.89542251               -0.03651586               -0.03674418                0.12211848                0.00022219                0.02047009               -0.00479532
               3.00519524                9.98464809               38.04668044                0.05958672               -0.17284032               -0.03619705                0.12066985                0.22970511                0.10354073               -0.00471800
               4.00210159                9.98470073               38.04845112                0.06756650               -0.33183503               -0.00788996                0.11861253                0.37942193                0.39010331               -0.04125732
               4.99855854                9.98905458               38.05426121                0.01766525               -0.22004374               -0.02916910                0.13795707                0.28173343                0.59617923                0.00952508
               5.99770072                9.99277090               38.06044393                0.08392207               -0.01653882               -0.06310397                0.15776693                0.17817950                0.59309021                0.06230485
               6.99822776                9.99592863               38.06628587                0.09296904                0.16763976               -0.11786814                0.17207744                0.21435831                0.69200141                0.06423980
               8.00105351               10.00007419               38.07443510                0.63169051                0.11202808               -0.05894383                0.19623568                0.24631271                0.40912623                0.00061036
               9.00046832                9.99929441               38.07445414                0.99211362               -0.05872536               -0.05895269                0.19634159                0.00026022                0.00157739                0.00055447
               9.99987900                9.99850744               38.07445295                1.00000000               -0.05893163               -0.05903091                0.19658318                0.00002054                0.00059125               -0.00058942
              -0.01878798               -0.00023675               39.03848600                0.98116637               -0.03137699               -0.03100080                0.10331217                0.00012408               -0.00457616                0.00484077
               0.98089825               -0.00126319               39.03943628                0.75617212               -0.03178530               -0.03132343                0.10516671                0.00015821               -0.00580697               -0.00256839
               1.98057631               -0.00229702               39.04036363                0.22305650               -0.03580010               -0.03205625                0.10696310               -0.00447228               -0.00576697               -0.00210464
               2.98018224               -0.00343291               39.04132030                0.04701332               -0.09879569               -0.03007561                0.10911557               -0.17327326                0.10419311               -0.00242587
               3.97860040               -0.00802295               39.04446712                0.11456180               -0.08244524               -0.01407420                0.11217948               -0.26152708                0.11094909               -0.00239739
               4.97853334               -0.00684132               39.04570168                0.29795099               -0.01906138               -0.03406198                0.11602758               -0.03182818                0.01180221               -0.00190342
               5.97821917               -0.00493915               39.04683974                0.80366357               -0.03367700               -0.03578609                0.11926385               -0.00251056                0.00723999               -0.00189689
               6.97785980               -0.00296921               39.04797530                0.99999998               -0.03648235               -0.03680254                0.12241394                0.00035013                0.00797439               -0.00150844
               7.97748952               -0.00099174               39.04912575                0.99062184               -0.03754150               -0.03774847                0.12556734                0.00045516                0.00968178               -0.00114482
               8.97710897                0.00098969               39.05029407                1.00000000               -0.03856161               -0.03869074                0.12875469                0.00050012                0.00855840                0.00075738
               9.97671829                0.00297332               39.05142143                0.99460870               -0.03906801               -0.03967509                0.13193361                0.00044798                0.00650434                0.00639405
              -0.01776030                0.99945324               39.03856984                0.75643788               -0.03097356               -0.03114220                0.10258878               -0.00041460                0.00279282                0.00632489
               0.98192997                0.99842357               39.03951942                0.03359115               -0.03116275               -0.03094124                0.10441515               -0.00072242                0.00550476               -0.00520545
               1.98161645                0.99738241               39.04052500                0.01000000               -0.03087466               -0.03123486                0.10661924               -0.00673881                0.00949418               -0.00026487
               2.98131247                0.99626633               39.04155953                0.01000001               -0.19635588               -0.03210812                0.10913587               -0.22139105                0.12402925                0.08381982
               3.97768933                0.99183631               39.04486372                0.01000000               -0.23196563                0.10475442                0.11269187               -0.10419663                0.11826045                0.00275436
               4.97667316                0.99281806               39.04608703                0.01000000               -0.07156608                0.02052948                0.11661123                0.10057013                0.00342160                0.01763986
               5.97625801                0.99470299               39.04717125                0.01000001               -0.03917831               -0.00949029                0.11981674                0.06885986               -0.00398865                0.01623514
               6.97588959                0.99666277               39.04825231                0.55748046               -0.03716912               -0.03689208                0.12292312               -0.00044977               -0.00333608               -0.00585961
               7.97551463                0.99863078               39.04934785                0.97592307               -0.03790752               -0.03778189                0.12601542               -0.00007951               -0.00086893               -0.00235180
               8.97513144                1.00060278               39.05047673                0.99999999               -0.03877422               -0.03874993                0.12917611                0.00001480                0.00067781                0.00075494
               9.97473914                1.00257656               39.05160223                0.99999998               -0.03923030               -0.03973105                0.13235575               -0.00004738                0.00052607                0.00817203
              -0.01673693                1.99914041               39.03868314                0.22201211               -0.03084382               -0.03728150                0.10202914               -0.01220721                0.00246194                0.01483512
               0.98295463                1.99811798               39.03955330                0.01000000               -0.03321457               -0.02369395                0.10338013               -0.01332221                0.01770366               -0.00036944
               1.98259878                1.99707828               39.04073036                0.01000001               -0.08270514               -0.02305505                0.10244688               -0.07068726                0.11348662                0.12843696
               2.98130053                1.99592493               39.04352922                0.01000000               -0.13170200               -0.03159941                0.10988560               -0.12178268                0.13882776                0.14805042
               3.97996474                1.99407214               39.04533372                0.01000000               -0.18112296                0.14546689                0.11507259                0.04860520                0.06968880                0.06304701
               4.97767807                1.99356927               39.04685913                0.01000001               -0.21065371                0.08633920                0.11930163                0.18767912                0.02192718                0.06031535
               5.97575166                1.99487104               39.04786294                0.01141926               -0.18775258                0.05282168                0.12198724                0.16696119               -0.03248561                0.05409278
               6.97392302                1.99629295               39.04844057                0.01621087               -0.11018718                0.00472250                0.12333539                0.07043073               -0.03391705                0.02543044
               7.97354792                1.99825262               39.04954474                0.04195714               -0.03797683               -0.03298378                0.12642086                0.00863157               -0.00697932               -0.00240702
               8.97316348                2.00021469               39.05065893                0.90146071               -0.03890727               -0.03885220                0.12958341               -0.00001801               -0.00411672               -0.00135732
               9.97276977                2.00217869               39.05181885                1.00000000               -0.03937060               -0.03985958                0.13281415               -0.00004210               -0.00178917                0.00893771
              -0.01595959                2.99870761               39.03893735                0.06152150               -0.03147582                0.02020233                0.10228022               -0.22563725                0.00259753                0.37149182
               0.98372565                2.99794969               39.03973670                0.01000001               -0.08223253               -0.06336796                0.10306796               -0.24304627                0.14950871                0.35450280
               1.98239576                2.99692131               39.04347868                0.01000000               -0.09213473               -0.06043655                0.11018324               -0.14006401                0.18294439                0.22378110
               2.98188296                2.99563434               39.04501026                0.01000000               -0.06893350               -0.05677273                0.11390848               -0.02492670                0.07958894                0.13871832
               3.98101709                2.99474565               39.04674862                0.01197052               -0.11275572                0.01377814                0.11955962                0.08536219                0.06122607                0.10255756
               4.97962784                2.99454484               39.04799299                0.01000000               -0.20717685                0.06669878                0.12285250                0.26301428                0.01440492                0.08891038
               5.97687355                2.99575942               39.04889770                0.01000001               -0.28556072                0.07942331                0.12502074                0.34722187               -0.03665563                0.11694579
               6.97391663                2.99675722               39.04934126                0.01000001               -0.25540171                0.08032274                0.12566256                0.34243834               -0.07206982                0.15592383
               7.97176552                2.99797110               39.04976410                0.01277074               -0.13558074                0.01132472                0.12660508                0.28131414               -0.05026670                0.12495590
               8.97120501                2.99982574               39.05079842                0.01542001               -0.04776154               -0.02430097                0.12993772                0.21124280               -0.01103630                0.08294661
               9.97081029                3.00177937               39.05201474                0.07280838               -0.03947262               -0.17123057                0.13319632                0.22643900               -0.00187021                0.07633125
              -0.01973384                3.99954446               39.04618788                0.13128031               -0.03861576                0.06668241                0.12271291               -0.30935482               -0.00380758                0.40605056
               0.97988000                3.99685062               39.04686300                0.01000000                0.09233416               -0.11557286                0.12260930               -0.22686968               -0.10322460                0.38295280
               1.98211285                3.99586955               39.04556197                0.01000000                0.15488252               -0.15540366                0.11712480               -0.02792806               -0.07643111                0.17176136
               2.98297766                3.99478947               39.04677334                0.01197090                0.03243164               -0.11674202                0.12020216                0.08133983                0.04454906                0.11775238
               3.98276148                3.99434771               39.04791590                0.01000000               -0.05265372               -0.07198427                0.12298442                0.23429895                0.04638677                0.09005199
               4.98192458                3.99490325               39.04922023                0.01000001               -0.11388754                0.00118456                0.12626453                0.40210101                0.06035856                0.12351768
               5.98048373                3.99645951               39.05072769                0.01000001               -0.16822395                0.04315781                0.13020846                0.55326368                0.05504568                0.19048825
               6.97856010                3.99789940               39.05205847                0.01175516               -0.21890234                0.06430061                0.13336422                0.58249005               -0.00704805                0.23748689
               7.97610568                3.99847912               39.05250037                0.01003995               -0.24900194                0.04861587                0.13337351                0.59641904               -0.07663718                0.28378191
               8.97358006                3.99972867               39.05266524                0.01000000               -0.13572015               -0.03187500                0.13091607                0.48377058               -0.06559873                0.31878885
               9.97339128                3.99875408               39.05357856                0.06726200               -0.01887852               -0.31044246                0.13283199                0.36973388               -0.02943498                0.30671774
              -0.01675902                5.00004126               39.04699332                0.30333771               -0.03778122                0.01238542                0.12625871               -0.06728429               -0.00426583                0.05435105
               0.98286316                4.99563824               39.04755100                0.01000000                0.03286867               -0.08594330                0.12552744                0.06204851               -0.04592776                0.02673820
               1.98389835                4.99381324               39.04727431                0.01000001                0.10842161               -0.19988119                0.12280438                0.15939785               -0.04719289                0.08956985
               2.98503160                4.99329950               39.04780960                0.01000000                0.08454716               -0.21796932                0.12330184                0.25865401                0.02823441                0.06245051
               3.98558929                4.99330596               39.04905599                0.01000001                0.02632310               -0.13664038                0.12606858                0.40474924                0.09699668                0.08797565
               4.98555806                4.99456854               39.05096588                0.01000001               -0.03233133               -0.06214428                0.13119541                0.57025932                0.14029081                0.15423004
               5.98494267                4.99662258               39.05311829                0.01174604               -0.10056195               -0.02714638                0.13694664                0.62522411                0.10652458                0.18963508
               6.98354682                4.99804323               39.05442851                0.01000000               -0.15390166               -0.00114456                0.13976721                0.62436714                0.06047482                0.24922790
               7.98186463                4.99894342               39.05578551                0.01000001               -0.14706799                0.05109522                0.14245090                0.64959153                0.06996814                0.37934679
               8.98060546                4.99918824               39.05743608                0.01000000               -0.08552487               -0.03565902                0.14626773                0.50565994                0.04794350                0.48488036
               9.98015414                4.99557052               39.05845513                0.02027721               -0.04513235               -0.18230357                0.14928992                0.28270931                0.01602184                0.48183601
              -0.01227347                5.99979216               39.04715878                0.82950890               -0.03775301               -0.03092991                0.12641417               -0.00849583               -0.00467968                0.02023903
               0.98734900                5.99513176               39.04756755                0.01000001               -0.00434959               -0.04454479                0.12536717                0.06157230               -0.01756796               -0.00927300
               1.98763954                5.99187192               39.04771707                0.01142215                0.06545066               -0.18787845                0.12408379                0.15205967                0.00003918               -0.00462094
               2.98865801                5.99043008               39.04848211                0.01000001                0.09739474               -0.29884213                0.12491615                0.34406737                0.07974267               -0.00746370
               3.98958743                5.99161490               39.05019108                0.01000001                0.06775714               -0.19159516                0.12897437                0.55678271                0.17087012                0.06483780
               4.99001315                5.99366036               39.05276139                0.01174660               -0.00369567               -0.12469867                0.13590013                0.62643415                0.18997592                0.10497375
               5.98951352                5.99591658               39.05485108                0.01000000               -0.06432753               -0.08304398                0.14124489                0.65081647                0.18184907                0.16869271
               6.98872660                5.99787651               39.05730660                0.01000001               -0.07805070               -0.00974448                0.14777353                0.69521873                0.22460252                0.32484686
               7.98795250                5.99950102               39.06030920                0.01000000               -0.08302231                0.04679103                0.15578752                0.65469615                0.21340361                0.48436234
               8.98706616                5.99901549               39.06259518                0.01072456               -0.08358080                0.02464411                0.16260587                0.40767594                0.12088685                0.51968534
               9.98628089                5.99510801               39.06379719                0.09004374               -0.07852693                0.02529494                0.16608737                0.18956821                0.06490252                0.50360916
              -0.00760813                6.99942266               39.04727232                0.99999999               -0.03770230               -0.03710687                0.12607977               -0.00041053               -0.00402573                0.01980987
               0.99201485                6.99474734               39.04753839                0.60792626               -0.03753281               -0.03807149                0.12483945               -0.00111597               -0.01496823               -0.00928637
               1.99164122                6.99005567               39.04758495                0.01621588                0.00775608               -0.10930569                0.12316751                0.06300561                0.00354272               -0.02825517
               2.99216997                6.98732266               39.04821878                0.01000001                0.09267280               -0.26732328                0.12338163                0.33849788                0.13718704               -0.08300974
               3.99349467                6.98947406               39.05091093                0.01175908                0.08075433               -0.23593973                0.13003175                0.58658414                0.23887828               -0.01751493
               4.99378506                6.99207456               39.05352642                0.01000000                0.01240854               -0.16951507                0.13671616                0.62739708                0.26992118                0.04594327
               5.99374284                6.99496170               39.05682859                0.01000001                0.00408475               -0.09323545                0.14599082                0.69405928                0.35538320                0.20503496
               6.99386675                6.99784834               39.06115183                0.01000000                0.00383690               -0.00968842                0.15822554                0.70859826                0.41312351                0.38531208
               7.99381958                6.99987924               39.06559465                0.01086043               -0.03573817                0.01510950                0.17129630                0.59134473                0.31932273                0.46121035
               8.99315199                6.99968112               39.06801908                0.01000002               -0.10295634                0.07354465                0.17604428                0.40003793                0.14982925                0.68720650
               9.99176045                6.99607642               39.06910046                0.09892252               -0.13915351                0.22862614                0.17728755                0.23933718                0.07795527                0.61126081
              -0.00293104                7.99905003               39.04742845                0.99111004               -0.03752918               -0.03732785                0.12569083               -0.00011910               -0.00329894                0.02406345
               0.99669367                7.99437033               39.04755309                0.95114881               -0.03723176               -0.03748661                0.12422754               -0.00021550               -0.00615525               -0.00289158
               1.99632433                7.98968581               39.04762079                0.05375329               -0.03420470               -0.03691997                0.12257112                0.00388573               -0.01838327               -0.01954772
               2.99600958                7.98508362               39.04749917                0.01277685                0.01214419               -0.13454511                0.12063109                0.28406263                0.12799800               -0.07089726
               3.99656721                7.98689610               39.05048790                0.01004920                0.05319401               -0.25893013                0.12681288                0.61090159                0.32255439               -0.10661287
               4.99707346                7.99027006               39.05421750                0.01000001                0.05268573               -0.15384626                0.13647565                0.65705115                0.43116679                0.05200962
               5.99762093                7.99405187               39.05932583                0.01000000                0.04537842               -0.08855714                0.15188178                0.64993050                0.53987976                0.19703011
               6.99798103                7.99768274               39.06520312                0.01087813                0.01628458               -0.04181452                0.16961854                0.57982218                0.50479508                0.29665678
               7.99794662                7.99980321               39.06958076                0.01000002                0.04443529                0.04025484                0.17994223                0.46261779                0.55421832                0.53920904
               8.99886973                8.00048638               39.07643123                0.12857169                0.01652016                0.01060924                0.19741399                0.32008867                0.34164988                0.42150343
               9.99827702                7.99968053               39.07645116                0.61599637               -0.05927106                0.15092624                0.19745312                0.28567611                0.00006175                0.36612866
               0.00174889                8.99867611               39.04762758                1.00000000               -0.03741327               -0.03744896                0.12540350               -0.00001868                0.00134572                0.02118573
               1.00137476                8.99399761               39.04765076                0.99999998               -0.03716241               -0.03717995                0.12381007                0.00003182                0.00058976                0.00112220
               2.00100564                8.98931727               39.04765982                0.92597351               -0.03669116               -0.03676542                0.12213004               -0.00020826               -0.00570544               -0.01205310
               3.00064093                8.98463176               39.04755624                0.01568177               -0.02396874               -0.04061073                0.12031173                0.21461747                0.09483270               -0.01853019
               4.00052627                8.98429546               39.04957328                0.01000000               -0.04353104               -0.13437629                0.11940479                0.50101824                0.38519910               -0.09154922
               4.99977031                8.98899764               39.05521236                0.01000000               -0.05987489               -0.07727405                0.13746443                0.51753474                0.58011100                0.03603115
               5.99932877                8.99319056               39.06117441                0.01078602               -0.00292275               -0.07446375                0.15668417                0.40069814                0.59980439                0.11386066
               6.99971186                8.99701205               39.06725449                0.01000002                0.04697664               -0.09319028                0.17260969                0.38320146                0.75976759                0.13084950
               8.00026830                9.00068434               39.07641472                0.14685466               -0.00177075                0.01454213                0.19694568                0.29970370                0.45794737                0.34321632
               8.99967644                8.99989330               39.07642371                0.99999997               -0.05913145               -0.05914802                0.19687717                0.00074289               -0.00014837                0.00051383
               9.99908567                8.99909495               39.07642384                0.99228930               -0.05907702               -0.05877727                0.19690728                0.00055891               -0.00061583               -0.00169080
               0.00642559                9.99830105               39.04772761                0.99461087               -0.03724428               -0.03750604                0.12503454                0.00023809                0.01551194                0.01611032
               1.00605314                9.99362673               39.04774544                1.00000000               -0.03697869               -0.03708803                0.12343558                0.00031168                0.01941871                0.00094825
               2.00568601                9.98895050               39.04784328                0.89636348               -0.03647021               -0.03667692                0.12196084                0.00027117                0.02060873               -0.00476357
               3.00532374                9.98427140               39.04788489                0.06442534               -0.17321574               -0.03603542                0.12021235                0.23118458                0.10319755               -0.00478595
               4.00222170                9.98420858               39.04963270                0.06797591               -0.33973420               -0.00868815                0.11772754                0.39220204                0.40087634               -0.04369318
               4.99852906                9.98872458               39.05564033                0.01796871               -0.23006100               -0.02730597                0.13792283                0.29357555                0.61726802                0.00962472
               5.99762048                9.99256260               39.06202492                0.08406190               -0.01888908               -0.06279577                0.15857729                0.18388926                0.61056270                0.06431083
               6.99815128                9.99581894               39.06800676                0.09328653                0.17194795               -0.11931088                0.17218526                0.22051477                0.71107813                0.06445456
               8.00105944               10.00009406               39.07639857                0.63138118                0.11613521               -0.05902808                0.19645349                0.25333791                0.42112648                0.00062525
               9.00047398                9.99930342               39.07641772                0.99228956               -0.05872637               -0.05898812                0.19637318                0.00030050                0.00151721                0.00055572
               9.99988491                9.99850499               39.07641786                1.00000000               -0.05890687               -0.05899581                0.19640326                0.00008074                0.00059068               -0.00058931
              -0.01979402               -0.00026729               40.03951893                0.97995880               -0.03145250               -0.03097106                0.10320554                0.00023857               -0.00475593                0.00508546
               0.97989145               -0.00136892               40.04049077                0.75477257               -0.03196969               -0.03150363                0.10573973                0.00025536               -0.00599580               -0.00270925
               1.97956658               -0.00247809               40.04143912                0.22257410               -0.03648002               -0.03244384                0.10822203               -0.00474579               -0.00583440               -0.00218431
               2.97916185               -0.00369690               40.04242034                0.04766289               -0.10314319               -0.03038935                0.11105708               -0.17713203                0.10398337               -0.00250487
               3.97750372               -0.00844642               40.04558735                0.11511473               -0.08562354               -0.01253527                0.11187413               -0.26864128                0.11068494               -0.00244883
               4.97744938               -0.00724878               40.04685973                0.29771197               -0.01822916               -0.03384619                0.11557616               -0.03346278                0.01214328               -0.00192742
               5.97713914               -0.00529252               40.04803054                0.80211726               -0.03342331               -0.03565930                0.11889707               -0.00271011                0.00730012               -0.00191582
               6.97678091               -0.00326394               40.04919817                0.99999998               -0.03639108               -0.03671474                0.12216148                0.00035740                0.00800141               -0.00152357
               7.97641131               -0.00122766               40.05038073                0.99063496               -0.03749332               -0.03769444                0.12542906                0.00047155                0.00972453               -0.00117227
               8.97603105                0.00081246               40.05158147                1.00000000               -0.03855142               -0.03866939                0.12872808                0.00051829                0.00860923                0.00075242
               9.97564028                0.00285454               40.05274117                0.99446552               -0.03907622               -0.03968797                0.13201665                0.00047989                0.00654766                0.00643721
              -0.01869001                0.99942300               40.03959572                0.75501735               -0.03105848               -0.03112428                0.10253709               -0.00041112                0.00297080                0.00668977
               0.98099941                0.99831604               40.04056657                0.03412971               -0.03134383               -0.03112642                0.10504070               -0.00074018                0.00587928               -0.00550065
               1.98068312                0.99719747               40.04159722                0.01000000               -0.03123567               -0.03158883                0.10792618               -0.00700911                0.01017241               -0.00142280
               2.98037469                0.99599921               40.04265988                0.01000001               -0.20449347               -0.03110697                0.11110571               -0.22749363                0.12458995                0.08428748
               3.97659325                0.99142823               40.04598882                0.01000000               -0.24184474                0.11032824                0.11232661               -0.10485302                0.11837076                0.00409537
               4.97553780                0.99241276               40.04725065                0.01000000               -0.07368171                0.02331454                0.11609574                0.10466158                0.00374695                0.01873130
               5.97511961                0.99435089               40.04836725                0.01000001               -0.03928686               -0.00804819                0.11937679                0.07192812               -0.00402320                0.01709112
               6.97475206                0.99636892               40.04947989                0.55555119               -0.03708896               -0.03679405                0.12259014               -0.00048139               -0.00341729               -0.00592795
               7.97437783                0.99839539               40.05060689                0.97667549               -0.03784674               -0.03771363                0.12579166               -0.00008403               -0.00092320               -0.00240050
               8.97399513                1.00042576               40.05176794                0.99999999               -0.03874180               -0.03871552                0.12906295                0.00001636                0.00066652                0.00074359
               9.97360300                1.00245766               40.05292578                0.99999998               -0.03921302               -0.03973089                0.13235213               -0.00003295                0.00052409                0.00823446
              -0.01758833                1.99911023               40.03970361                0.22140571               -0.03094850               -0.03736180                0.10203177               -0.01245466                0.00260427                0.01570476
               0.98210218                1.99800855               40.04059027                0.01000000               -0.03342131               -0.02369075                0.10405712               -0.01361137                0.01759583               -0.00049373
               1.98174324                1.99689013               40.04177888                0.01000001               -0.08604803               -0.02253120                0.10595473               -0.07126463                0.11609448                0.13104140
               2.98038122                1.99568096               40.04464239                0.01000000               -0.13750660               -0.02971428                0.11223934               -0.12304648                0.14283791                0.15060558
               3.97899311                1.99376014               40.04648963                0.01000000               -0.18806369                0.15260116                0.11606483                0.05377332                0.07224095                0.06664593
               4.97661995                1.99321751               40.04805035                0.01000001               -0.21857843                0.09200962                0.11919767                0.19686075                0.02259041                0.06326930
               5.97462154                1.99454652               40.04908156                0.01141867               -0.19465801                0.05723436                0.12177393                0.17420662               -0.03345340                0.05636510
               6.97272679                1.99600018               40.04967177                0.01620955               -0.11343760                0.00684123                0.12290300                0.07326290               -0.03500486                0.02634837
               7.97235279                1.99801806               40.05080741                0.04220646               -0.03788412               -0.03272390                0.12610922                0.00885555               -0.00708496               -0.00239729
               8.97196910                2.00003814               40.05195380                0.90581050               -0.03884818               -0.03879109                0.12938385               -0.00001752               -0.00415036               -0.00139967
               9.97157582                2.00205992               40.05314659                1.00000000               -0.03932801               -0.03983434                0.13272660               -0.00002731               -0.00178551                0.00898451
              -0.01673576                2.99867576               40.03996025                0.06165945               -0.03169688                0.02353499                0.10227785               -0.22627648                0.00279189                0.38285921
               0.98294728                2.99784223               40.04077029                0.01000001               -0.08394145               -0.06174816                0.10370610               -0.24349854                0.15323532                0.36428864
               1.98158542                2.99674684               40.04459362                0.01000000               -0.09517628               -0.05967876                0.11225244               -0.13936186                0.18795667                0.23071181
               2.98104375                2.99540492               40.04615949                0.01000000               -0.07266264               -0.05556240                0.11567598               -0.02019679                0.08326239                0.14396342
               3.98013216                2.99448025               40.04794669                0.01196991               -0.11775568                0.01675970                0.12026805                0.09265613                0.06408158                0.10649388
               4.97868864                2.99425295               40.04922245                0.01000000               -0.21555457                0.07172436                0.12317729                0.27557518                0.01525138                0.09251949
               5.97582107                2.99549558               40.05014677                0.01000001               -0.29714298                0.08540478                0.12497282                0.36186529               -0.03778634                0.12111207
               6.97274578                2.99650574               40.05059683                0.01000001               -0.26520455                0.08652545                0.12550587                0.35550939               -0.07440428                0.16083232
               7.97051698                2.99774091               40.05103197                0.01280539               -0.13964309                0.01447059                0.12665569                0.29061117               -0.05160365                0.12813713
               8.96995292                2.99964994               40.05209642                0.01567807               -0.04790449               -0.02205966                0.12965058                0.21586407               -0.01121107                0.08319633
               9.96955889                3.00166098               40.05334590                0.07511113               -0.03940245               -0.17292435                0.13302360                0.23050368               -0.00188576                0.07593031
              -0.02044679                3.99958093               40.04741362                0.13113158               -0.03920751                0.07133324                0.12242244               -0.31174521               -0.00387362                0.41875147
               0.97916113                3.99677359               40.04808706                0.01000000                0.09200531               -0.11437437                0.12218840               -0.22824078               -0.10560743                0.39392804
               1.98139331                3.99569655               40.04673709                0.01000000                0.15413740               -0.15571720                0.11779485               -0.02452535               -0.07745112                0.17819735
               2.98224388                3.99456971               40.04797756                0.01197134                0.03024446               -0.11668382                0.12081319                0.08892974                0.04705528                0.12246210
               3.98199820                3.99409534               40.04914777                0.01000000               -0.05638792               -0.07158399                0.12351183                0.24651050                0.04872812                0.09348795
               4.98111612                3.99465200               40.05048429                0.01000001               -0.11960739                0.00439626                0.12674584                0.41986633                0.06282823                0.12792247
               5.97960605                3.99625462               40.05203140                0.01000001               -0.17622407                0.04815241                0.13068804                0.57643069                0.05685666                0.19692368
               6.97759164                3.99773069               40.05339338                0.01176094               -0.22926212                0.07035133                0.13376125                0.60583057               -0.00789692                0.24493105
               7.97502081                3.99830748               40.05383450                0.01006610               -0.26126582                0.05463618                0.13351950                0.61992441               -0.08108650                0.29184575
               8.97236632                3.99959695               40.05397266                0.01000000               -0.14284934               -0.02888776                0.13054760                0.50389590               -0.06978580                0.32691548
               9.97216382                3.99860144               40.05490482                0.06771029               -0.02024984               -0.31920458                0.13242683                0.38658353               -0.03155673                0.31497792
              -0.01735599                5.00010243               40.04825474                0.30237070               -0.03771810                0.01384924                0.12600812               -0.06863675               -0.00431798                0.05680512
               0.98226683                4.99555474               40.04880376                0.01000000                0.03273870               -0.08632351                0.12499698                0.06340237               -0.04687802                0.02831742
               1.98329879                4.99363250               40.04850016                0.01000001                0.10783651               -0.20124353                0.12257221                0.16549536               -0.04767570                0.09307822
               2.98442356                4.99307124               40.04904310                0.01000000                0.08406508               -0.22092715                0.12352412                0.26969487                0.03025720                0.06500056
               3.98498009                4.99304857               40.05031790                0.01000001                0.02515612               -0.13797254                0.12650121                0.42149571                0.10102384                0.09114807
               4.98492668                4.99434087               40.05228062                0.01000001               -0.03545487               -0.06107941                0.13195830                0.59385783                0.14537578                0.15946065
               5.98427099                4.99645863               40.05449144                0.01174917               -0.10585774               -0.02524743                0.13791050                0.65117210                0.10980464                0.19575678
               6.98280953                4.99791277               40.05582905                0.01000000               -0.16108915                0.00171895                0.14052312                0.65116242                0.06147717                0.25702259
               7.98104921                4.99883364               40.05721080                0.01000001               -0.15363294                0.05674865                0.14281253                0.67876943                0.07087397                0.39114596
               8.97973687                4.99907218               40.05889924                0.01000000               -0.08838093               -0.03375262                0.14650411                0.53006355                0.04875890                0.50114223
               9.97928159                4.99527688               40.05994915                0.02086913               -0.04552816               -0.18914396                0.14957053                0.29831591                0.01637623                0.49829151
              -0.01272416                5.99985791               40.04842241                0.82559064               -0.03767372               -0.03068197                0.12629936               -0.00870550               -0.00474628                0.02071816
               0.98689911                5.99504712               40.04881921                0.01000001               -0.00445635               -0.04455877                0.12494380                0.06308828               -0.01764841               -0.00927501
               1.98718672                5.99167168               40.04895628                0.01142274                0.06612992               -0.19051623                0.12375941                0.15738714                0.00083624               -0.00425582
               2.98822171                5.99015117               40.04973018                0.01000001                0.09858835               -0.30435400                0.12479214                0.35625969                0.08318588               -0.00747876
               3.98915848                5.99133589               40.05148211                0.01000001                0.06807566               -0.19493939                0.12942182                0.57666956                0.17719533                0.06694252
               4.98958322                5.99343041               40.05412420                0.01175017               -0.00504411               -0.12676932                0.13692329                0.65078972                0.19648570                0.10804662
               5.98905760                5.99574967               40.05626772                0.01000000               -0.06716712               -0.08416098                0.14233882                0.67747372                0.18759574                0.17371098
               6.98823988                5.99776507               40.05878845                0.01000001               -0.08104104               -0.00787535                0.14882598                0.72492032                0.23126015                0.33475810
               7.98743678                5.99944245               40.06187132                0.01000000               -0.08577653                0.05126439                0.15680692                0.68431576                0.21981837                0.49968310
               8.98652435                5.99892190               40.06422547                0.01075792               -0.08580198                0.02822440                0.16359314                0.42673676                0.12475882                0.53503418
               9.98572074                5.99481856               40.06546219                0.09078310               -0.08036042                0.02914518                0.16699599                0.19834182                0.06698232                0.51706338
              -0.00790852                6.99948879               40.04853332                0.99999999               -0.03766611               -0.03710106                0.12611391               -0.00040123               -0.00407393                0.02002054
               0.99171482                6.99466357               40.04878546                0.60261741               -0.03745024               -0.03799951                0.12456092               -0.00114182               -0.01522822               -0.00948966
               1.99134248                6.98982217               40.04881373                0.01621424                0.00848645               -0.11089072                0.12256652                0.06541512                0.00410773               -0.02893271
               2.99188455                6.98698416               40.04944989                0.01000001                0.09458799               -0.27225367                0.12287132                0.34844950                0.14212521               -0.08529053
               3.99323424                6.98914978               40.05221208                0.01176506                0.08220725               -0.24195456                0.13039952                0.60515186                0.24694437               -0.01877836
               4.99352870                6.99180549               40.05489636                0.01000000                0.01257820               -0.17425686                0.13753103                0.65072311                0.27890365                0.04616624
               5.99348580                6.99477541               40.05829286                0.01000001                0.00432288               -0.09500446                0.14713036                0.72114979                0.36676744                0.21072274
               6.99361516                6.99775526               40.06273974                0.01000000                0.00464449               -0.00823467                0.15959484                0.73737934                0.42602605                0.39697817
               7.99357869                6.99985892               40.06731441                0.01088885               -0.03598299                0.01727095                0.17283367                0.61600677                0.32809990                0.47408089
               8.99289550                6.99963667               40.06978301                0.01000002               -0.10617933                0.07898512                0.17684821                0.41637299                0.15219584                0.70483514
               9.99145511                6.99585979               40.07087377                0.09992747               -0.14403886                0.24320533                0.17745207                0.24915329                0.07825538                0.62637990
              -0.00308173                7.99911589               40.04868628                0.99108986               -0.03753804               -0.03737820                0.12587563               -0.00009783               -0.00337306                0.02429655
               0.99654289                7.99428713               40.04879473                0.95124382               -0.03719214               -0.03744998                0.12409348               -0.00022237               -0.00632526               -0.00303053
               1.99617442                7.98945387               40.04884430                0.05362523               -0.03398981               -0.03678326                0.12211430                0.00401018               -0.01878783               -0.01987793
               2.99586309                7.98470610               40.04870168                0.01281090                0.01328872               -0.13652161                0.11985271                0.28994047                0.13174159               -0.07248662
               3.99644020                7.98649680               40.05175470                0.01007498                0.05544830               -0.26729714                0.12668584                0.62817064                0.33224366               -0.11258255
               4.99697206                7.98994527               40.05558320                0.01000001                0.05453144               -0.15807082                0.13691483                0.68007336                0.44534507                0.05199732
               5.99753083                7.99384958               40.06084916                0.01000000                0.04659450               -0.08976695                0.15307024                0.67396038                0.55766121                0.20265997
               6.99790395                7.99760038               40.06690651                0.01090557                0.01723389               -0.04172980                0.17130883                0.60069962                0.51939705                0.30443646
               7.99787550                7.99978787               40.07138445                0.01000002                0.04734987                0.04256104                0.18092983                0.47927669                0.56805311                0.55239968
               8.99885094                8.00050160               40.07840687                0.12886700                0.01910361                0.01355253                0.19771887                0.33347821                0.35029476                0.43236013
               9.99825758                7.99968267               40.07842616                0.61614421               -0.05933665                0.16187191                0.19755668                0.29931382                0.00007422                0.37648615
               0.00174705                8.99874123               40.04888325                1.00000000               -0.03746520               -0.03754829                0.12573835                0.00000448                0.00133185                0.02142372
               1.00137240                8.99391457               40.04888892                0.99999998               -0.03716653               -0.03718517                0.12382392                0.00003290                0.00052931                0.00110490
               2.00100372                8.98908651               40.04887962                0.93333720               -0.03659801               -0.03667169                0.12182185               -0.00020674               -0.00587609               -0.01216060
               3.00064044                8.98425373               40.04875630                0.01594886               -0.02226203               -0.04055154                0.11968542                0.21619993                0.09506541               -0.01871566
               4.00055848                8.98380384               40.05076290                0.01000000               -0.04315270               -0.13943863                0.11854830                0.51569115                0.39572989               -0.09701900
               4.99977738                8.98864407               40.05658717                0.01000000               -0.06242854               -0.07770640                0.13772036                0.53579276                0.60065851                0.03631124
               5.99930991                8.99298007               40.06274618                0.01081765               -0.00432616               -0.07467398                0.15793097                0.41456535                0.61849486                0.11746068
               6.99969086                8.99692066               40.06898470                0.01000002                0.04765481               -0.09435954                0.17363492                0.39509027                0.78010469                0.13236293
               8.00026300                9.00071015               40.07838597                0.14666265               -0.00102985                0.01655651                0.19730528                0.30883167                0.46998800                0.35189041
               8.99967026                8.99990772               40.07839336                0.99999997               -0.05918731               -0.05920483                0.19704836                0.00077539               -0.00019179                0.00050209
               9.99907926                8.99909723               40.07839276                0.99246638               -0.05910058               -0.05875311                0.19687708                0.00059828               -0.00061409               -0.00170471
               0.00657167                9.99836492               40.04898028                0.99446826               -0.03734133               -0.03763026                0.12551723                0.00031273                0.01567864                0.01629867
               1.00619826                9.99354343               40.04898056                1.00000000               -0.03702743               -0.03711416                0.12359749                0.00036198                0.01964025                0.00094961
               2.00583112                9.98872044               40.04906210                0.89726650               -0.03642503               -0.03660743                0.12180391                0.00032265                0.02075373               -0.00473216
               3.00546976                9.98389506               40.04908469                0.06930503               -0.17337218               -0.03586668                0.11973869                0.23231171                0.10281817               -0.00485505
               4.00236368                9.98370802               40.05080567                0.06840425               -0.34790390               -0.00958158                0.11687645                0.40532433                0.41216106               -0.04624260
               4.99851168                9.98839114               40.05701966                0.01829219               -0.24090698               -0.02529281                0.13806977                0.30583372                0.63944668                0.00980626
               5.99754554                9.99235610               40.06361548                0.08420857               -0.02180039               -0.06239694                0.15970300                0.18966565                0.62830978                0.06648878
               6.99807567                9.99571319               40.06972958                0.09362406                0.17597685               -0.12074779                0.17249224                0.22662640                0.72995425                0.06420362
               8.00106508               10.00011900               40.07836417                0.63107031                0.12018486               -0.05911484                0.19667262                0.26042358                0.43325214                0.00064022
               9.00047937                9.99931750               40.07838161                0.99246721               -0.05872714               -0.05902178                0.19640379                0.00034117                0.00146859                0.00055696
               9.99989054                9.99850760               40.07838102                1.00000000               -0.05888351               -0.05896230                0.19623249                0.00013777                0.00059014               -0.00058903
              -0.02082678               -0.00028862               41.04055011                0.97875001               -0.03150778               -0.03090160                0.10295859                0.00038519               -0.00492743                0.00532726
               0.97885814               -0.00146898               41.04155108                0.75336336               -0.03215811               -0.03169640                0.10633009                0.00037682               -0.00617347               -0.00285037
               1.97853006               -0.00265691               41.04252807                0.22209839               -0.03722292               -0.03288952                0.10965614               -0.00500295               -0.00588369               -0.00225973
               2.97811368               -0.00396209               41.04354144                0.04829093               -0.10776779               -0.03078724                0.11332766               -0.18099927                0.10221858               -0.00256841
               3.97637470               -0.00887487               41.04670461                0.11562333               -0.08903343               -0.01091902                0.11159006               -0.27585215                0.10898664               -0.00247085
               4.97633301               -0.00766169               41.04801320                0.29748285               -0.01739817               -0.03362361                0.11512169               -0.03513460                0.01234117               -0.00194749
               5.97602674               -0.00565088               41.04921768                0.80060814               -0.03316833               -0.03553214                0.11853487               -0.00291518                0.00735296               -0.00193347
               6.97566965               -0.00356313               41.05041853                0.99999998               -0.03630142               -0.03662651                0.12191352                0.00036433                0.00803162               -0.00153861
               7.97530071               -0.00146752               41.05163433                0.99064596               -0.03744678               -0.03764018                0.12529525                0.00048729                0.00976961               -0.00120115
               8.97492071                0.00063181               41.05286863                1.00000000               -0.03854293               -0.03864797                0.12870596                0.00053617                0.00866238                0.00074784
               9.97452985                0.00273284               41.05406177                0.99999999               -0.03908613               -0.03970090                0.13210491                0.00051314                0.00659383                0.00648350
              -0.01964258                0.99940236               41.04062058                0.75359525               -0.03113708               -0.03107025                0.10238119               -0.00039969                0.00314859                0.00705357
               0.98004605                0.99821406               41.04162023                0.03465256               -0.03154190               -0.03133184                0.10571925               -0.00075201                0.00625653               -0.00579661
               1.97972659                0.99701419               41.04268352                0.01000000               -0.03166920               -0.03201921                0.10944206               -0.00727664                0.01083769               -0.00221261
               2.97941267                0.99573003               41.04378164                0.01000001               -0.21303036               -0.03002373                0.11343064               -0.23326992                0.12349695                0.08459701
               3.97546598                0.99101594               41.04711025                0.01000000               -0.25214976                0.11610317                0.11197292               -0.10505369                0.11699852                0.00610766
               4.97436967                0.99200207               41.04840895                0.01000000               -0.07588392                0.02622748                0.11556215                0.10913951                0.00391775                0.02019479
               5.97394830                0.99399379               41.04955878                0.01000001               -0.03940330               -0.00651466                0.11892900                0.07514914               -0.00407568                0.01811914
               6.97358161                0.99607061               41.05070411                0.55364602               -0.03700923               -0.03669478                0.12225249               -0.00051493               -0.00350377               -0.00600394
               7.97320811                0.99815608               41.05186368                0.97741575               -0.03778582               -0.03764398                0.12556395               -0.00009024               -0.00098051               -0.00245243
               8.97282589                1.00024533               41.05305799                0.99999999               -0.03870860               -0.03867982                0.12894557                0.00001710                0.00065405                0.00073196
               9.97243394                1.00233584               41.05424927                0.99989932               -0.03919477               -0.03972925                0.13234488               -0.00001755                0.00052175                0.00830081
              -0.01845817                1.99908997               41.04072377                0.22081067               -0.03105596               -0.03737856                0.10196613               -0.01262107                0.00274624                0.01654272
               0.98123127                1.99790439               41.04163444                0.01000000               -0.03366389               -0.02376893                0.10482389               -0.01381673                0.01785415               -0.00067050
               1.98086855                1.99670270               41.04284945                0.01000001               -0.08923650               -0.02184245                0.10788538               -0.07139228                0.11817405                0.13329278
               2.97944654                1.99543743               41.04577400                0.01000000               -0.14334801               -0.02757954                0.11382832               -0.12365224                0.14561035                0.15265535
               3.97800159                1.99344719               41.04765502                0.01000000               -0.19542953                0.16007230                0.11696821                0.05976029                0.07313511                0.07080485
               4.97553795                1.99286285               41.04924309                0.01000001               -0.22702055                0.09796107                0.11938335                0.20673734                0.02262116                0.06680083
               5.97346118                1.99421882               41.05029842                0.01141955               -0.20204419                0.06190161                0.12164934                0.18176345               -0.03479491                0.05904331
               6.97149706                1.99570298               41.05089863                0.01620849               -0.11684962                0.00908182                0.12246606                0.07612587               -0.03627983                0.02746523
               7.97112419                1.99777960               41.05206692                0.04250434               -0.03778834               -0.03246617                0.12578591                0.00904834               -0.00719235               -0.00231860
               8.97074130                1.99985821               41.05324660                0.91018459               -0.03878525               -0.03872623                0.12917046               -0.00001869               -0.00418612               -0.00144319
               9.97034848                2.00193826               41.05447338                1.00000000               -0.03928154               -0.03980459                0.13262533               -0.00001167               -0.00178288                0.00903470
              -0.01752383                2.99865479               41.04098291                0.06169858               -0.03191867                0.02675110                0.10222894               -0.22661178                0.00298736                0.39403736
               0.98215699                2.99773868               41.04181082                0.01000001               -0.08552383               -0.06043369                0.10446619               -0.24321660                0.15701867                0.37340039
               1.98076570                2.99657734               41.04572373                0.01000000               -0.09809253               -0.05878725                0.11346174               -0.13777330                0.19295152                0.23643729
               2.98019514                2.99517844               41.04732378                0.01000000               -0.07649683               -0.05411654                0.11695704               -0.01492104                0.08602415                0.14817504
               3.97923576                2.99421738               41.04915398                0.01197034               -0.12311729                0.01995324                0.12116384                0.10052806                0.06630427                0.11035654
               4.97773279                2.99396129               41.05045654                0.01000000               -0.22461576                0.07703342                0.12374600                0.28870096                0.01572601                0.09649256
               5.97474344                2.99523183               41.05139716                0.01000001               -0.30947218                0.09172454                0.12519789                0.37707751               -0.03925262                0.12586570
               6.97154335                2.99625225               41.05185138                0.01000001               -0.27547968                0.09314110                0.12540126                0.36884608               -0.07681909                0.16637542
               7.96923385                2.99750676               41.05229721                0.01284248               -0.14382436                0.01788023                0.12630956                0.29995221               -0.05309250                0.13162601
               8.96866686                2.99947080               41.05339143                0.01594910               -0.04801199               -0.01970250                0.12933918                0.22028580               -0.01146131                0.08344680
               9.96827361                3.00153974               41.05467521                0.07744782               -0.03932480               -0.17439336                0.13282684                0.23426064               -0.00190202                0.07546970
              -0.02115819                3.99962499               41.04863632                0.13085174               -0.03974279                0.07568900                0.12208311               -0.31390775               -0.00396858                0.43128792
               0.97844438                3.99669571               41.04930677                0.01000000                0.09157566               -0.11331268                0.12172787               -0.22874176               -0.10743678                0.40404853
               1.98067332                3.99552696               41.04791787                0.01000000                0.15318473               -0.15608658                0.11825192               -0.02004062               -0.07787322                0.18321036
               2.98150808                3.99435510               41.04918961                0.01197084                0.02779896               -0.11657737                0.12156268                0.09715818                0.04973728                0.12652526
               3.98122930                3.99384626               41.05038614                0.01000000               -0.06052762               -0.07113961                0.12424733                0.25924572                0.05116231                0.09689910
               4.98029752                3.99440352               41.05175514                0.01000001               -0.12587645                0.00782782                0.12755587                0.43831491                0.06546171                0.13279432
               5.97871177                3.99605331               41.05334145                0.01000001               -0.18492341                0.05347799                0.13150017                0.60045799                0.05875599                0.20416878
               6.97659906                3.99756580               41.05473370                0.01176841               -0.24035496                0.07681833                0.13446440                0.62987771               -0.00893105                0.25319694
               7.97390467                3.99813721               41.05517076                0.01009517               -0.27425155                0.06113820                0.13378355                0.64382162               -0.08606493                0.30032870
               8.97111402                3.99946416               41.05527620                0.01000000               -0.15044315               -0.02562672                0.13015413                0.52443049               -0.07440409                0.33544993
               9.97089581                3.99845039               41.05622710                0.06817498               -0.02182138               -0.32803792                0.13201445                0.40403456               -0.03378580                0.32357675
              -0.01794342                5.00016857               41.04951348                0.30140247               -0.03763944                0.01514789                0.12571998               -0.06980494               -0.00437205                0.05921458
               0.98168019                4.99547243               41.05005094                0.01000000                0.03244584               -0.08655791                0.12441115                0.06524096               -0.04741771                0.02972074
               1.98270550                4.99345561               41.04972576                0.01000001                0.10694074               -0.20268630                0.12253542                0.17232210               -0.04743514                0.09609822
               2.98381900                4.99284689               41.05028008                0.01000000                0.08333766               -0.22406907                0.12395498                0.28134029                0.03286380                0.06720781
               3.98437225                4.99279459               41.05158601                0.01000001                0.02365153               -0.13933458                0.12726613                0.43894836                0.10566630                0.09453900
               4.98429203                4.99411785               41.05360505                0.01000001               -0.03909622               -0.05989840                0.13313411                0.61832617                0.15104600                0.16535812
               5.98359033                4.99630139               41.05587650                0.01175407               -0.11175117               -0.02319624                0.13933929                0.67800859                0.11332617                0.20263826
               6.98205701                4.99778861               41.05723898                0.01000000               -0.16892009                0.00475938                0.14168537                0.67886419                0.06239716                0.26552035
               7.98021192                4.99872952               41.05864176                0.01000001               -0.16073627                0.06269335                0.14357100                0.70884149                0.07167187                0.40367846
               8.97884228                4.99895827               41.06036616                0.01000000               -0.09150431               -0.03158788                0.14701184                0.55529506                0.04955750                0.51834023
               9.97838184                4.99497898               41.06144654                0.02149367               -0.04604445               -0.19628636                0.14992398                0.31463568                0.01674693                0.51553158
              -0.01316200                5.99992795               41.04968476                0.82172798               -0.03758375               -0.03046802                0.12615845               -0.00886368               -0.00481418                0.02119605
               0.98646216                5.99496456               41.05006642                0.01000001               -0.00463490               -0.04451982                0.12447546                0.06474806               -0.01750995               -0.00930178
               1.98674530                5.99147323               41.05019226                0.01142250                0.06668719               -0.19333075                0.12347431                0.16313044                0.00217792               -0.00425971
               2.98779590                5.98987372               41.05097795                0.01000001                0.09960094               -0.31007726                0.12486013                0.36907301                0.08750629               -0.00783180
               3.98873732                5.99105957               41.05277952                0.01000001                0.06806754               -0.19843463                0.13028030                0.59733401                0.18457263                0.06934371
               4.98915725                5.99320556               41.05549986                0.01175500               -0.00680689               -0.12894795                0.13850764                0.67600747                0.20369623                0.11168508
               5.98860118                5.99558939               41.05769786                0.01000000               -0.07045233               -0.08533337                0.14397537                0.70499582                0.19365441                0.17930690
               6.98774821                5.99766099               41.06028312                0.01000001               -0.08446652               -0.00593848                0.15035917                0.75551975                0.23811052                0.34538786
               7.98691185                5.99939107               41.06344534                0.01000000               -0.08888730                0.05591040                0.15825270                0.71488980                0.22638704                0.51584190
               8.98597046                5.99883240               41.06586704                0.01079536               -0.08823797                0.03190786                0.16493526                0.44639286                0.12872027                0.55087763
               9.98514709                5.99452466               41.06713711                0.01000001               -0.08233711                0.03305368                0.16811466                0.20733681                0.06907864                0.53064728
              -0.00819390                6.99955921               41.04979460                0.99999999               -0.03762351               -0.03709624                0.12613740               -0.00038792               -0.00412135                0.02023730
               0.99142987                6.99458203               41.05002961                0.59732459               -0.03735793               -0.03791499                0.12425312               -0.00116141               -0.01549229               -0.00969618
               1.99105894                6.98958900               41.05003628                0.01621274                0.00921310               -0.11254325                0.12191649                0.06798223                0.00490238               -0.02984294
               2.99161413                6.98664535               41.05067620                0.01000001                0.09640754               -0.27731194                0.12243623                0.35875043                0.14803896               -0.08800173
               3.99298709                6.98882590               41.05351892                0.01177303                0.08341147               -0.24829667                0.13129993                0.62433938                0.25617130               -0.02004158
               4.99328236                6.99153889               41.05627704                0.01000000                0.01238576               -0.17931820                0.13899367                0.67487359                0.28860095                0.04664394
               5.99323481                6.99459472               41.05977119                0.01000001                0.00416806               -0.09688197                0.14886651                0.74903071                0.37862885                0.21702111
               6.99336572                6.99766984               41.06434373                0.01000000                0.00517488               -0.00672376                0.16151370                0.76692369                0.43927030                0.40940004
               7.99333831                6.99984773               41.06905133                0.01092221               -0.03645854                0.01942854                0.17479340                0.64110275                0.33671694                0.48719801
               8.99263655                6.99959642               41.07155604                0.01000002               -0.10971284                0.08454161                0.17794912                0.43278967                0.15399083                0.72223297
               9.99114405                6.99564006               41.07264950                0.10098562               -0.14924984                0.25833016                0.17778898                0.25900541                0.07805524                0.64120539
              -0.00321541                7.99918603               41.04994597                0.99107541               -0.03754521               -0.03743174                0.12606409               -0.00007389               -0.00344884                0.02453522
               0.99640914                7.99420626               41.05003496                0.95133252               -0.03714849               -0.03740793                0.12394569               -0.00022788               -0.00649910               -0.00317104
               1.99604163                7.98922237               41.05006308                0.05345165               -0.03375668               -0.03663676                0.12162663                0.00415126               -0.01919432               -0.02021182
               2.99573401                7.98432748               41.04989622                0.01284920                0.01444708               -0.13854564                0.11904171                0.29580468                0.13605892               -0.07430720
               3.99633057                7.98609363               41.05302162                0.01010379                0.05759483               -0.27608967                0.12694703                0.64573039                0.34303447               -0.11911729
               4.99688591                7.98961919               41.05695580                0.01000001                0.05601360               -0.16257463                0.13803631                0.70379822                0.46052038                0.05214620
               5.99745084                7.99365175               41.06238724                0.01000000                0.04738832               -0.09106348                0.15499596                0.69868237                0.57621984                0.20891309
               6.99783367                7.99752651               41.06862930                0.01093952                0.01782417               -0.04168026                0.17354419                0.62181649                0.53390286                0.31247386
               7.99780732                7.99977964               41.07319936                0.01000002                0.05001255                0.04473470                0.18225667                0.49589063                0.58116573                0.56513774
               8.99883392                8.00052323               41.08038561                0.12917556                0.02163039                0.01660899                0.19801443                0.34704480                0.35863099                0.44298026
               9.99823993                7.99969127               41.08040229                0.61629559               -0.05939931                0.17329663                0.19766017                0.31333069                0.00008774                0.38684247
               0.00176417                8.99881058               41.05014235                1.00000000               -0.03751999               -0.03765401                0.12609147                0.00002991                0.00131745                0.02166530
               1.00138897                8.99383387               41.05012724                0.99999998               -0.03717120               -0.03719069                0.12383965                0.00003400                0.00046788                0.00108795
               2.00102074                8.98885626               41.05009626                0.94061300               -0.03650053               -0.03657325                0.12149947               -0.00020476               -0.00604586               -0.01226800
               3.00065896                8.98387444               41.04994995                0.01622808               -0.02053770               -0.04049760                0.11902920                0.21751811                0.09537117               -0.01890440
               4.00060999                8.98330411               41.05194425                0.01000000               -0.04293763               -0.14477256                0.11784557                0.53061676                0.40711291               -0.10295303
               4.99980021                8.98828740               41.05796677                0.01000000               -0.06544278               -0.07817366                0.13857193                0.55458131                0.62262586                0.03670656
               5.99930113                8.99277345               41.06433303                0.01085371               -0.00630252               -0.07489851                0.15989784                0.42873817                0.63767858                0.12146221
               6.99967415                8.99683624               41.07072719                0.01000002                0.04791318               -0.09566283                0.17518904                0.40684803                0.79994476                0.13351162
               8.00025940                9.00074242               41.08036083                0.14649753               -0.00041674                0.01854073                0.19764882                0.31787479                0.48169301                0.36025177
               8.99966582                8.99992860               41.08036468                0.99999997               -0.05924006               -0.05925823                0.19720971                0.00080768               -0.00023357                0.00048688
               9.99907460                8.99910599               41.08036138                0.99264651               -0.05912230               -0.05872891                0.19684716                0.00063684               -0.00061256               -0.00172187
               0.00673860                9.99843295               41.05023795                0.99431895               -0.03744624               -0.03776277                0.12603402                0.00039233                0.01584814                0.01648946
               1.00636414                9.99346244               41.05021739                1.00000000               -0.03708157               -0.03714313                0.12377692                0.00041445                0.01986540                0.00095145
               2.00599697                9.98849090               41.05027935                0.89814214               -0.03638038               -0.03653595                0.12164781                0.00037647                0.02090399               -0.00469975
               3.00563653                9.98351753               41.05027966                0.07423206               -0.17335114               -0.03569092                0.11924904                0.23312088                0.10242793               -0.00492547
               4.00252994                9.98319818               41.05197023                0.06885152               -0.35641694               -0.01059251                0.11608313                0.41890483                0.42408899               -0.04891142
               4.99850819                9.98805572               41.05840172                0.01863593               -0.25265918               -0.02316770                0.13849213                0.31857826                0.66283021                0.01002689
               5.99747676                9.99215378               41.06521898                0.08436259               -0.02532641               -0.06196703                0.16126022                0.19543943                0.64625638                0.06885369
               6.99800166                9.99561326               41.07145660                0.09397899                0.17978457               -0.12229809                0.17318236                0.23258454                0.74847682                0.06342031
               8.00107245               10.00015046               41.08033202                0.63077042                0.12424231               -0.05919634                0.19688460                0.26754593                0.44537813                0.00065534
               9.00048651                9.99933807               41.08034580                0.99264611               -0.05872789               -0.05905346                0.19643382                0.00038026                0.00142153                0.00055782
               9.99989789                9.99851669               41.08034251                1.00000000               -0.05886139               -0.05893017                0.19607125                0.00019157                0.00058920               -0.00058899
              -0.02189450               -0.00030168               42.04157810                0.97753889               -0.03154726               -0.03079030                0.10255987                0.00056042               -0.00510319                0.00556437
               0.97779003               -0.00156424               42.04261737                0.75194978               -0.03234789               -0.03190146                0.10693380                0.00053128               -0.00633321               -0.00299182
               1.97745854               -0.00283420               42.04363224                0.22163759               -0.03801706               -0.03339724                0.11126684               -0.00522935               -0.00592665               -0.00232590
               2.97702968               -0.00422867               42.04468689                0.04889739               -0.11234240               -0.03127467                0.11587377               -0.18482511                0.09867967               -0.00260565
               3.97521169               -0.00930714               42.04781915                0.11608214               -0.09232786               -0.00929004                0.11134054               -0.28310544                0.10567858               -0.00245208
               4.97518313               -0.00807922               42.04916217                0.29725756               -0.01654114               -0.03340149                0.11467709               -0.03686329                0.01238543               -0.00196495
               5.97488087               -0.00601339               42.05040124                0.79912641               -0.03291176               -0.03540677                0.11818308               -0.00312689                0.00739978               -0.00195124
               6.97452489               -0.00386588               42.05163644                0.99999998               -0.03621342               -0.03653919                0.12167297                0.00037048                0.00806563               -0.00155400
               7.97415660               -0.00171038               42.05288663                0.99065928               -0.03740150               -0.03758630                0.12516688                0.00050282                0.00981762               -0.00123123
               8.97377686                0.00044869               42.05415559                1.00000000               -0.03853556               -0.03862656                0.12868830                0.00055408                0.00871710                0.00074333
               9.97338589                0.00260920               42.05538327                0.99999999               -0.03909721               -0.03971346                0.13219678                0.00054789                0.00664130                0.00653206
              -0.02062634                0.99939041               42.04164334                0.75217430               -0.03120635               -0.03097811                0.10211497               -0.00037973                0.00333097                0.00741466
               0.97906160                0.99811674               42.04268095                0.03515584               -0.03176001               -0.03156028                0.10645632               -0.00075162                0.00663370               -0.00609734
               1.97873846                0.99683183               42.04378606                0.01000000               -0.03218474               -0.03250096                0.11118308               -0.00747685                0.01148808               -0.00302652
               2.97841790                0.99545859               42.04492849                0.01000001               -0.22162732               -0.02897016                0.11617167               -0.23868443                0.12049707                0.08429278
               3.97430591                0.99059996               42.04822828                0.01000000               -0.26251394                0.12198268                0.11166929               -0.10483931                0.11393342                0.00872950
               4.97316762                0.99158677               42.04956189                0.01000000               -0.07814909                0.02925745                0.11503046                0.11392111                0.00391797                0.02207447
               5.97274293                0.99363254               42.05074583                0.01000001               -0.03952664               -0.00487984                0.11848175                0.07855924               -0.00414274                0.01937901
               6.97237709                0.99576873               42.05192494                0.55176184               -0.03692941               -0.03659502                0.12191273               -0.00054946               -0.00359348               -0.00608520
               7.97200434                0.99791376               42.05311817                0.97815336               -0.03772380               -0.03757317                0.12533215               -0.00009666               -0.00104014               -0.00250669
               8.97162261                1.00006243               42.05434685                0.99999999               -0.03867395               -0.03864270                0.12882329                0.00001807                0.00063983                0.00071990
               9.97123086                1.00221206               42.05557268                0.99976213               -0.03917498               -0.03972588                0.13233245               -0.00000052                0.00051803                0.00837049
              -0.01935476                1.99907875               42.04174293                0.22024294               -0.03116633               -0.03732280                0.10182772               -0.01269499                0.00288606                0.01733826
               0.98033358                1.99780455               42.04268675                0.01000000               -0.03390403               -0.02394160                0.10567974               -0.01388697                0.01808072               -0.00089933
               1.97996716                1.99651578               42.04393659                0.01000001               -0.09228590               -0.02123270                0.10924553               -0.07097967                0.11962117                0.13505761
               2.97848786                1.99519193               42.04691895                0.01000000               -0.14902180               -0.02528845                0.11492892               -0.12335913                0.14745366                0.15378329
               3.97698673                1.99313252               42.04882900                0.01000000               -0.20294434                0.16781479                0.11779522                0.06667877                0.07305450                0.07545527
               4.97442897                1.99250593               42.05043802                0.01000001               -0.23583162                0.10419874                0.11961768                0.21744208                0.02198077                0.07098405
               5.97227009                1.99388901               42.05151455                0.01141992               -0.20981445                0.06686599                0.12160911                0.18972692               -0.03657636                0.06221154
               6.97023268                1.99540222               42.05212109                0.01620668               -0.12045616                0.01147289                0.12201798                0.07906989               -0.03779814                0.02879105
               7.96986097                1.99753816               42.05332313                0.04284530               -0.03768834               -0.03220822                0.12544872                0.00921751               -0.00730336               -0.00224339
               8.96947892                1.99967584               42.05453721                0.91458407               -0.03871807               -0.03865719                0.12894279               -0.00001997               -0.00422535               -0.00148868
               9.96908661                2.00181468               42.05579910                1.00000000               -0.03923095               -0.03977047                0.13251010                0.00000539               -0.00178192                0.00908842
              -0.01833184                2.99864396               42.04200483                0.06164684               -0.03213317                0.02986786                0.10211557               -0.22621939                0.00317268                0.40497280
               0.98134683                2.99763791               42.04285961                0.01000001               -0.08683360               -0.05950576                0.10534109               -0.24197565                0.16039469                0.38173140
               1.97993149                2.99640717               42.04686286                0.01000000               -0.10064235               -0.05785247                0.11404321               -0.13496229                0.19759788                0.24130125
               2.97933398                2.99495282               42.04849863                0.01000000               -0.08030011               -0.05240099                0.11778147               -0.00842116                0.08846209                0.15185309
               3.97832549                2.99395626               42.05036997                0.01197092               -0.12870056                0.02343844                0.12198341                0.10935542                0.06817569                0.11411807
               4.97675997                2.99367074               42.05169737                0.01000000               -0.23421532                0.08267196                0.12445927                0.30273360                0.01584688                0.10085033
               5.97364118                2.99496986               42.05265073                0.01000001               -0.32253153                0.09848233                0.12556843                0.39299865               -0.04105483                0.13132076
               6.97030934                2.99599819               42.05310485                0.01000001               -0.28630530                0.10024051                0.12531493                0.38253776               -0.07960700                0.17273155
               7.96791508                2.99726959               42.05355816                0.01288244               -0.14818248                0.02156749                0.12586661                0.30935693               -0.05479295                0.13553871
               8.96734569                2.99928928               42.05468321                0.01623386               -0.04808925               -0.01723090                0.12900439                0.22450225               -0.01171675                0.08370818
               9.96695329                3.00141665               42.05600244                0.07982308               -0.03924015               -0.17565190                0.13260717                0.23772167               -0.00191913                0.07495300
              -0.02186706                3.99967611               42.04985528                0.13043948               -0.04020952                0.07971623                0.12168796               -0.31549328               -0.00409022                0.44366500
               0.97773085                3.99661444               42.05052161                0.01000000                0.09100331               -0.11242039                0.12121005               -0.22790043               -0.10880626                0.41317742
               1.97995301                3.99535873               42.04910213                0.01000000                0.15197516               -0.15635499                0.11846747               -0.01405374               -0.07769728                0.18748672
               2.98077035                3.99414391               42.05040881                0.01197156                0.02514492               -0.11628820                0.12217692                0.10645776                0.05269720                0.13021024
               3.98045591                3.99360129               42.05163272                0.01000000               -0.06501532               -0.07051423                0.12506963                0.27292104                0.05378637                0.10032178
               4.97947005                3.99415937               42.05303541                0.01000001               -0.13266437                0.01162907                0.12855485                0.45772582                0.06832616                0.13815186
               5.97780262                3.99585866               42.05466140                0.01000001               -0.19431699                0.05925616                0.13261218                0.62550342                0.06087592                0.21236093
               6.97558371                3.99740703               42.05608267                0.01177565               -0.25228049                0.08377789                0.13556825                0.65468600               -0.01001757                0.26246762
               7.97275701                3.99796951               42.05651017                0.01012487               -0.28809021                0.06815190                0.13426681                0.66822872               -0.09158603                0.30967366
               8.96982190                3.99933122               42.05657574                0.01000000               -0.15853549               -0.02205707                0.12978111                0.54548394               -0.07947596                0.34455139
               9.96958630                3.99830164               42.05754511                0.06865494               -0.02356002               -0.33695767                0.13152947                0.42216582               -0.03613042                0.33251792
              -0.01851836                5.00023828               42.05076914                0.30042900               -0.03754416                0.01623007                0.12539601               -0.07071273               -0.00442624                0.06158734
               0.98110620                4.99538950               42.05129198                0.01000000                0.03196501               -0.08660083                0.12376804                0.06761777               -0.04752000                0.03093579
               1.98212094                4.99328007               42.05095087                0.01000001                0.10571915               -0.20413822                0.12244295                0.18016419               -0.04638401                0.09868888
               2.98322058                4.99262705               42.05152220                0.01000000                0.08237526               -0.22727486                0.12447658                0.29400616                0.03617567                0.06915604
               3.98376845                4.99254597               42.05286322                0.01000001                0.02182668               -0.14057194                0.12820574                0.45741968                0.11100431                0.09824995
               4.98365712                4.99390332               42.05494330                0.01000001               -0.04324292               -0.05836262                0.13461283                0.64388810                0.15743807                0.17212147
               5.98290359                4.99615498               42.05727823                0.01175875               -0.11824531               -0.02087741                0.14119334                0.70576111                0.11729027                0.21043295
               6.98129221                4.99767374               42.05866276                0.01000000               -0.17740651                0.00805218                0.14333757                0.70742762                0.06344277                0.27479794
               7.97935546                4.99863263               42.06008222                0.01000000               -0.16844882                0.06901048                0.14482576                0.73989952                0.07255249                0.41706490
               8.97792324                4.99884814               42.06183948                0.01000000               -0.09498475               -0.02908244                0.14787694                0.58149702                0.05037674                0.53668124
               9.97745576                4.99467750               42.06294763                0.02214777               -0.04674706               -0.20365486                0.15024654                0.33172926                0.01708450                0.53361678
              -0.01358376                6.00000071               42.05094558                0.81791698               -0.03748324               -0.03029749                0.12599239               -0.00895917               -0.00488276                0.02167076
               0.98604141                5.99488242               42.05130872                0.01000001               -0.00487497               -0.04441999                0.12396190                0.06661759               -0.01708186               -0.00935455
               1.98631875                5.99127597               42.05142577                0.01142295                0.06715815               -0.19627885                0.12323579                0.16944890                0.00420559               -0.00469197
               2.98738458                5.98959841               42.05222738                0.01000001                0.10046436               -0.31605969                0.12507674                0.38279914                0.09291580               -0.00853670
               3.98832803                5.99078985               42.05408771                0.01000001                0.06771126               -0.20195627                0.13154199                0.61910425                0.19320826                0.07243879
               4.98873880                5.99299212               42.05689435                0.01176159               -0.00903047               -0.13104506                0.14059021                0.70212948                0.21163809                0.11632098
               5.98814742                5.99544111               42.05914723                0.01000000               -0.07420951               -0.08642661                0.14612519                0.73320305                0.20000539                0.18578692
               6.98725461                5.99756807               42.06179563                0.01000001               -0.08834092               -0.00383282                0.15236460                0.78684117                0.24530997                0.35682970
               7.98638060                5.99934972               42.06503638                0.01000000               -0.09238185                0.06081149                0.16028780                0.74633789                0.23334416                0.53285367
               8.98540697                5.99874957               42.06752418                0.01083944               -0.09092167                0.03573127                0.16681094                0.46663653                0.13290596                0.56718633
               9.98456217                5.99422855               42.06882449                0.01000001               -0.08448020                0.03706095                0.16942399                0.21657351                0.07127616                0.54437558
              -0.00846096                6.99963233               42.05105606                0.99999999               -0.03757438               -0.03709362                0.12615058               -0.00036979               -0.00416846                0.02045816
               0.99116330                6.99450111               42.05127052                0.59202684               -0.03725563               -0.03781721                0.12391650               -0.00117273               -0.01576220               -0.00990552
               1.99079393                6.98935450               42.05125206                0.01620996                0.00996944               -0.11431583                0.12122119                0.07076428                0.00600414               -0.03105335
               2.99136269                6.98630586               42.05189862                0.01000001                0.09814492               -0.28261022                0.12209837                0.36967531                0.15533493               -0.09119697
               3.99275683                6.98850685               42.05483808                0.01177956                0.08428797               -0.25503624                0.13302814                0.64449188                0.26693819               -0.02076958
               4.99304845                6.99128242               42.05767623                0.01000000                0.01174335               -0.18468253                0.14133821                0.69988209                0.29895996                0.04803411
               5.99299169                6.99442645               42.06127019                0.01000001                0.00359904               -0.09875524                0.15121862                0.77744851                0.39083885                0.22447224
               6.99312043                6.99759709               42.06597001                0.01000000                0.00545123               -0.00508407                0.16401712                0.79688405                0.45281467                0.42278274
               7.99310072                6.99984886               42.07081028                0.01096130               -0.03716450                0.02157027                0.17726774                0.66637918                0.34519615                0.50050060
               8.99237714                6.99956277               42.07334199                0.01000002               -0.11357150                0.09014984                0.17950037                0.44917591                0.15521896                0.73911948
               9.99082929                6.99541872               42.07442955                0.10209455               -0.15478478                0.27395459                0.17834210                0.26878477                0.07727912                0.65555910
              -0.00332870                7.99925884               42.05120756                0.99105506               -0.03755111               -0.03748937                0.12625735               -0.00004715               -0.00352536                0.02477725
               0.99629579                7.99412608               42.05127364                0.95141954               -0.03710139               -0.03736062                0.12378551               -0.00023215               -0.00667543               -0.00331264
               1.99592928                7.98898965               42.05127683                0.05322776               -0.03350313               -0.03648125                0.12110975                0.00431463               -0.01959281               -0.02054534
               2.99562573                7.98394621               42.05108251                0.01288733                0.01560158               -0.14068307                0.11820794                0.30183271                0.14123932               -0.07642373
               3.99624131                7.98568912               42.05429364                0.01013412                0.05955558               -0.28553446                0.12813998                0.66396718                0.35535769               -0.12595208
               4.99681684                7.98929847               42.05834392                0.01000000                0.05702101               -0.16750723                0.14033219                0.72847770                0.47674713                0.05316960
               5.99738173                7.99346600               42.06394907                0.01000000                0.04765196               -0.09244402                0.15797805                0.72396443                0.59514389                0.21652435
               6.99776988                7.99746639               42.07037739                0.01097721                0.01803907               -0.04167500                0.17641086                0.64283234                0.54787379                0.32105631
               7.99774251                7.99978112               42.07502958                0.01000002                0.05253760                0.04668296                0.18402929                0.51224147                0.59318850                0.57721618
               8.99882063                8.00055257               42.08236716                0.12948582                0.02417271                0.01972503                0.19832135                0.36072079                0.36644471                0.45316193
               9.99822596                7.99970764               42.08237936                0.61644401               -0.05946696                0.18519229                0.19778441                0.32772238                0.00009264                0.39709932
               0.00180363                8.99888255               42.05140508                1.00000000               -0.03757804               -0.03776666                0.12646398                0.00005741                0.00130357                0.02190996
               1.00142784                8.99375389               42.05136572                0.99999998               -0.03717673               -0.03719675                0.12385814                0.00003507                0.00040646                0.00107150
               2.00106009                8.98862487               42.05130961                0.94780847               -0.03639877               -0.03647006                0.12116331               -0.00020188               -0.00621415               -0.01237489
               3.00069987                8.98349220               42.05113688                0.01652278               -0.01880891               -0.04045454                0.11834301                0.21864982                0.09589780               -0.01910355
               4.00068391                8.98279616               42.05311981                0.01000000               -0.04293751               -0.15056486                0.11770315                0.54610867                0.41983348               -0.10953989
               4.99984112                8.98793228               42.05935861                0.01000000               -0.06904270               -0.07883487                0.14066976                0.57420536                0.64604312                0.03760015
               5.99930306                8.99257757               42.06594413                0.01089551               -0.00895816               -0.07523665                0.16305107                0.44326862                0.65697973                0.12636504
               6.99966196                8.99676359               42.07248848                0.01000002                0.04781571               -0.09718156                0.17756158                0.41836192                0.81855969                0.13457976
               8.00025937                9.00078252               42.08233895                0.14634376                0.00015409                0.02042971                0.19799853                0.32673088                0.49272527                0.36808379
               8.99966504                8.99995727               42.08233756                0.99999997               -0.05928854               -0.05930736                0.19735946                0.00083610               -0.00026949                0.00047038
               9.99907360                8.99912257               42.08232970                0.99283053               -0.05914362               -0.05870404                0.19681590                0.00067597               -0.00060874               -0.00173936
               0.00692976                9.99850351               42.05150096                0.99999999               -0.03755905               -0.03790376                0.12658486                0.00047664                0.01601925                0.01668315
               1.00655417                9.99338214               42.05145610                0.99999998               -0.03714123               -0.03717503                0.12397389                0.00046925                0.02009305                0.00095371
               2.00618693                9.98826025               42.05149505                0.89899750               -0.03633637               -0.03646229                0.12149245                0.00043294                0.02105865               -0.00466674
               3.00582744                9.98313712               42.05146967                0.07921271               -0.17317654               -0.03550806                0.11874327                0.23363573                0.10208987               -0.00499660
               4.00272340                9.98267783               42.05312734                0.06932151               -0.36539499               -0.01183345                0.11526353                0.43318151                0.43676958               -0.05181409
               4.99851954                9.98772177               42.05978951                0.01899930               -0.26538057               -0.02105076                0.13925314                0.33201423                0.68729300                0.01041704
               5.99741579                9.99196127               42.06684068                0.08452054               -0.02936851               -0.06162990                0.16347284                0.20132271                0.66438788                0.07156471
               6.99793217                9.99552276               42.07319323                0.09434474                0.18338283               -0.12408266                0.17458905                0.23844353                0.76620586                0.06225421
               8.00108345               10.00018972               42.08230187                0.63046873                0.12825702               -0.05928038                0.19711235                0.27459039                0.45722931                0.00066124
               9.00049731                9.99936642               42.08231028                0.99283025               -0.05872789               -0.05908464                0.19646195                0.00041913                0.00138050                0.00056073
               9.99990889                9.99853356               42.08230244                1.00000000               -0.05884207               -0.05890093                0.19591837                0.00024209                0.00059026               -0.00058678
              -0.02300739               -0.00030782               43.04260131                0.97633519               -0.03152794               -0.03063512                0.10201389                0.00080578               -0.00524119                0.00582834
               0.97667733               -0.00165598               43.04368975                0.75053014               -0.03253046               -0.03212859                0.10754744                0.00070532               -0.00652649               -0.00314420
               1.97634200               -0.00301107               43.04475340                0.22119627               -0.03884841               -0.03396184                0.11300793               -0.00539129               -0.00598255               -0.00237531
               2.97590037               -0.00449741               43.04585892                0.04949635               -0.11645047               -0.03187612                0.11858365               -0.18855307                0.09303258               -0.00264379
               3.97401299               -0.00974218               43.04893142                0.11649979               -0.09508665               -0.00771393                0.11111056               -0.29032586                0.10065668               -0.00240299
               4.97399863               -0.00850044               43.05030674                0.29702815               -0.01562674               -0.03318535                0.11424729               -0.03866053                0.01226483               -0.00198027
               5.97370046               -0.00637909               43.05158134                0.79766998               -0.03265316               -0.03528397                0.11784360               -0.00334511                0.00744143               -0.00196955
               6.97334557               -0.00417121               43.05285199                0.99999998               -0.03612766               -0.03645332                0.12144157                0.00037589                0.00810290               -0.00157003
               7.97297791               -0.00195523               43.05413767                0.99067779               -0.03735769               -0.03753286                0.12504443                0.00051812                0.00986846               -0.00126350
               8.97259842                0.00026416               43.05544240                1.00000000               -0.03852914               -0.03860494                0.12867447                0.00057183                0.00877340                0.00073821
               9.97220732                0.00248467               43.05670570                0.99999999               -0.03910917               -0.03972531                0.13229117                0.00058392                0.00669001                0.00658318
              -0.02165117                0.99938583               43.04266288                0.75076229               -0.03128159               -0.03084625                0.10175108               -0.00034389                0.00350872                0.00777233
               0.97803601                0.99802274               43.04374936                0.03563734               -0.03200084               -0.03181408                0.10723879               -0.00073131                0.00704589               -0.00640223
               1.97770881                0.99664931               43.04490718                0.01000000               -0.03278105               -0.03309361                0.11323073               -0.00760727                0.01216921               -0.00434311
               2.97738039                0.99518383               43.04610508                0.01000001               -0.22987795               -0.02798130                0.11943101               -0.24328930                0.11538948                0.08282178
               3.97311125                0.99018069               43.04934364                0.01000000               -0.27249520                0.12783934                0.11143782               -0.10427500                0.10890352                0.01185829
               4.97193048                0.99116771               43.05070955                0.01000000               -0.08044279                0.03237483                0.11451097                0.11903824                0.00371080                0.02438436
               5.97150239                0.99326807               43.05192842                0.01000001               -0.03965439               -0.00313782                0.11803783                0.08213364               -0.00422646                0.02090675
               6.97113740                0.99546426               43.05314237                0.54988512               -0.03684950               -0.03649521                0.12157276               -0.00058406               -0.00368752               -0.00617269
               7.97076540                0.99766944               43.05437032                0.97887688               -0.03766060               -0.03750141                0.12509696               -0.00010280               -0.00110260               -0.00256458
               8.97038418                0.99987811               43.05563446                0.99999999               -0.03863761               -0.03860402                0.12869573                0.00001923                0.00062446                0.00070705
               9.96999265                1.00208742               43.05689592                0.99961545               -0.03915333               -0.03972041                0.13231335                0.00001794                0.00051382                0.00844387
              -0.02028809                1.99907525               43.04276032                0.21970248               -0.03126936               -0.03719635                0.10158926               -0.01268928                0.00301768                0.01803851
               0.97939922                1.99770774               43.04374804                0.01000000               -0.03415722               -0.02421464                0.10662752               -0.01386748                0.01784713               -0.00121136
               1.97902877                1.99632706               43.04503437                0.01000001               -0.09480060               -0.02057400                0.10882754               -0.06974737                0.12034958                0.13617319
               2.97750321                1.99494296               43.04807258                0.01000000               -0.15425776               -0.02290901                0.11541259               -0.12177852                0.14866895                0.15341160
               3.97594361                1.99281461               43.05001092                0.01000000               -0.21055977                0.17576681                0.11864573                0.07466896                0.07257540                0.08044189
               4.97329201                1.99214706               43.05163544                0.01000001               -0.24485157                0.11065979                0.12006275                0.22910117                0.02047527                0.07578141
               5.97104658                1.99355815               43.05273060                0.01141992               -0.21797490                0.07216596                0.12151811                0.19821484               -0.03884328                0.06591084
               6.96893251                1.99509889               43.05333899                0.01620493               -0.12422920                0.01405180                0.12155949                0.08214851               -0.03959772                0.03035669
               7.96856200                1.99729474               43.05457589                0.04322721               -0.03758440               -0.03194777                0.12509873                0.00937139               -0.00741795               -0.00217355
               8.96818083                1.99949208               43.05582546                0.91901315               -0.03864658               -0.03858391                0.12870091               -0.00002105               -0.00426671               -0.00153575
               9.96778907                2.00169026               43.05712358                1.00000000               -0.03917596               -0.03973163                0.13237944                0.00002388               -0.00178135                0.00914608
              -0.01916994                2.99864190               43.04302522                0.06151236               -0.03232097                0.03293660                0.10195409               -0.22457440                0.00333052                0.41565093
               0.98050685                2.99753844               43.04391764                0.01000001               -0.08757106               -0.05904247                0.10623371               -0.23909393                0.16288001                0.38919672
               1.97907864                2.99623783               43.04800459                0.01000000               -0.10247929               -0.05691878                0.11368778               -0.13046928                0.20161543                0.24542074
               2.97845727                2.99472565               43.04967941                0.01000000               -0.08390539               -0.05036147                0.11817577               -0.00067958                0.09111960                0.15538074
               3.97740053                2.99369602               43.05159364                0.01197067               -0.13441503                0.02724146                0.12285626                0.11950352                0.06981035                0.11758679
               4.97576897                2.99338090               43.05294572                0.01000000               -0.24428357                0.08867845                0.12513909                0.31793625                0.01564614                0.10552331
               5.97251486                2.99471139               43.05390853                0.01000001               -0.33625947                0.10574408                0.12597096                0.40999209               -0.04319520                0.13752445
               6.96904378                2.99574529               43.05435768                0.01000001               -0.29776111                0.10791804                0.12526126                0.39682573               -0.08278047                0.18017002
               7.96655964                2.99703049               43.05481455                0.01292529               -0.15277654                0.02559391                0.12541488                0.31895112               -0.05672584                0.14006599
               8.96598825                2.99910643               43.05597152                0.01653279               -0.04814390               -0.01465815                0.12864655                0.22855179               -0.01197622                0.08402266
               9.96559676                3.00129278               43.05732736                0.08224074               -0.03914843               -0.17673525                0.13236328                0.24090492               -0.00193747                0.07433780
              -0.02257267                3.99973398               43.05107008                0.12991192               -0.04059284                0.08340584                0.12124415               -0.31609371               -0.00424869                0.45590184
               0.97702141                3.99652689               43.05173097                0.01000000                0.09024231               -0.11172049                0.12060152               -0.22520462               -0.10981541                0.42121404
               1.97923218                3.99518868               43.05028722                0.01000000                0.15050109               -0.15660412                0.11837210               -0.00610991               -0.07701803                0.19182675
               2.98003143                3.99393573               43.05163314                0.01197195                0.02231231               -0.11571000                0.12271820                0.11718252                0.05588958                0.13361198
               3.97967843                3.99335944               43.05288753                0.01000000               -0.06980294               -0.06957113                0.12573628                0.28777980                0.05666398                0.10367993
               4.97863537                3.99392063               43.05432624                0.01000001               -0.13981969                0.01602179                0.12951923                0.47852080                0.07155767                0.14389383
               5.97688203                3.99567304               43.05599369                0.01000001               -0.20427199                0.06564129                0.13385363                0.65192162                0.06368356                0.22151989
               6.97454993                3.99725725               43.05744506                0.01178495               -0.26510755                0.09131575                0.13725451                0.68058427               -0.01053437                0.27294300
               7.97157988                3.99780662               43.05785610                0.01015717               -0.30301819                0.07570637                0.13544427                0.69341426               -0.09730020                0.32015228
               8.96848957                3.99919892               43.05787182                0.01000000               -0.16727122               -0.01814875                0.12970359                0.56725461               -0.08516332                0.35453225
               9.96823446                3.99815556               43.05885769                0.06915065               -0.02551076               -0.34604190                0.13066585                0.44118711               -0.03866004                0.34169847
              -0.01907763                5.00031002               43.05202140                0.29944932               -0.03743129                0.01702306                0.12504060               -0.07126213               -0.00448101                0.06391308
               0.98054806                4.99530403               43.05252630                0.01000000                0.03126147               -0.08639844                0.12306430                0.07073313               -0.04718713                0.03195644
               1.98154760                4.99310575               43.05217461                0.01000001                0.10410505               -0.20552433                0.12246208                0.18929926               -0.04449003                0.10078473
               2.98263016                4.99241145               43.05276962                0.01000000                0.08118164               -0.23045820                0.12489729                0.30798462                0.04026639                0.07088594
               3.98317123                4.99230460               43.05415012                0.01000001                0.01978133               -0.14129785                0.12901203                0.47729885                0.11710821                0.10235435
               4.98302579                4.99370134               43.05629731                0.01000001               -0.04772809               -0.05607901                0.13598497                0.67073730                0.16482667                0.17984240
               5.98221667                4.99602421               43.05870036                0.01176654               -0.12519563               -0.01799322                0.14316775                0.73441200                0.12223325                0.21910184
               6.98052187                4.99757161               43.06010573                0.01000000               -0.18652085                0.01165412                0.14552271                0.73678657                0.06535358                0.28466475
               7.97848626                4.99854462               43.06153827                0.01000000               -0.17687358                0.07567319                0.14690543                0.77210770                0.07422494                0.43130027
               8.97698440                4.99874346               43.06332370                0.01000000               -0.09895181               -0.02626513                0.14956259                0.60891167                0.05159828                0.55614892
               9.97650722                4.99437195               43.06445147                0.02283215               -0.04771830               -0.21126480                0.15033622                0.34972574                0.01753378                0.55240524
              -0.01398595                6.00007445               43.05220461                0.81414928               -0.03737217               -0.03018104                0.12580237               -0.00898031               -0.00495185                0.02213649
               0.98564033                5.99479892               43.05254566                0.01000001               -0.00516504               -0.04425171                0.12340297                0.06871575               -0.01632220               -0.00943369
               1.98591075                5.99107820               43.05265697                0.01142278                0.06759698               -0.19944428                0.12290327                0.17654897                0.00701270               -0.00555787
               2.98699227                5.98932657               43.05347949                0.01000001                0.10118788               -0.32225844                0.12527430                0.39799685                0.09961228               -0.00951041
               3.98793451                5.99053348               43.05541035                0.01000001                0.06691132               -0.20500096                0.13288025                0.64247433                0.20330080                0.07703436
               4.98833050                5.99279905               43.05831166                0.01176657               -0.01172539               -0.13256709                0.14275012                0.72916764                0.22039624                0.12266705
               5.98770000                5.99531317               43.06062036                0.01000000               -0.07826195               -0.08709482                0.14840887                0.76162065                0.20689006                0.19333240
               6.98676526                5.99749033               43.06333042                0.01000001               -0.09249078               -0.00139352                0.15460699                0.81834806                0.25343793                0.36891728
               7.98585019                5.99932009               43.06665109                0.01000000               -0.09623960                0.06599572                0.16305249                0.77836382                0.24151532                0.55035876
               8.98484047                5.99867361               43.06920326                0.01088799               -0.09390981                0.03961891                0.16953959                0.48737150                0.13784794                0.58366340
               9.98397199                5.99393026               43.07052559                0.01000000               -0.08684760                0.04122107                0.17093467                0.22603013                0.07373007                0.55833131
              -0.00870619                6.99970639               43.05231761                0.99999999               -0.03751890               -0.03709419                0.12615423               -0.00034646               -0.00421407                0.02068187
               0.99091862                6.99441900               43.05250794                0.58672860               -0.03714377               -0.03770561                0.12355141               -0.00117518               -0.01603351               -0.01011572
               1.99055094                6.98911687               43.05246070                0.01620779                0.01080945               -0.11621399                0.12048160                0.07387124                0.00749880               -0.03260135
               2.99113481                6.98596628               43.05311817                0.01000001                0.09986538               -0.28829150                0.12181741                0.38187138                0.16457157               -0.09480993
               3.99254824                6.98820458               43.05617949                0.01178786                0.08473207               -0.26203124                0.13575261                0.66627585                0.27944865               -0.01935706
               4.99282945                6.99105000               43.05910381                0.01000000                0.01047798               -0.18994211                0.14443959                0.72563277                0.30958674                0.05175994
               5.99275780                6.99428232               43.06279556                0.01000001                0.00262337               -0.10024417                0.15381689                0.80569917                0.40310245                0.23393676
               6.99288192                6.99754374               43.06762407                0.01000000                0.00562230               -0.00305788                0.16677785                0.82637949                0.46677257                0.43727727
               7.99287025                6.99986453               43.07259668                0.01100439               -0.03801312                0.02376048                0.18019930                0.69116184                0.35391100                0.51370214
               8.99212166                6.99953583               43.07514605                0.01000002               -0.11778615                0.09586491                0.18176720                0.46522060                0.15620471                0.75495214
               9.99051453                6.99519637               43.07621634                0.10325294               -0.16071320                0.29014196                0.17941717                0.27832256                0.07602762                0.66933108
              -0.00341808                7.99933256               43.05247111                0.99104556               -0.03755567               -0.03755129                0.12645548               -0.00001784               -0.00360288                0.02502175
               0.99620636                7.99404481               43.05251067                0.95150742               -0.03705072               -0.03730778                0.12361267               -0.00023506               -0.00685435               -0.00345476
               1.99584090                7.98875392               43.05248527                0.05294714               -0.03321863               -0.03631606                0.12056309                0.00451443               -0.01996807               -0.02087964
               2.99554199                7.98356074               43.05226038                0.01293011                0.01677040               -0.14305337                0.11736210                0.30854197                0.14803125               -0.07887825
               3.99617631                7.98529286               43.05558442                0.01016655                0.06117146               -0.29624827                0.13140956                0.68380778                0.37022342               -0.13138851
               4.99676542                7.98900020               43.05976244                0.01000000                0.05719685               -0.17280911                0.14449048                0.75413610                0.49315598                0.05726143
               5.99732025                7.99330829               43.06554680                0.01000000                0.04726112               -0.09365865                0.16197182                0.74910112                0.61326338                0.22692294
               6.99771064                7.99742917               43.07215751                0.01101897                0.01805410               -0.04158689                0.17971152                0.66278112                0.56070196                0.33070282
               7.99768133                7.99979530               43.07687995                0.01000002                0.05512021                0.04836427                0.18619443                0.52781594                0.60388814                0.58841668
               8.99881304                8.00059091               43.08435203                0.12979276                0.02680241                0.02295246                0.19873507                0.37429126                0.37355718                0.46259305
               9.99821738                7.99973310               43.08435798                0.61656163               -0.05956659                0.19758760                0.19802912                0.34239926                0.00004859                0.40708807
               0.00186896                8.99895537               43.05267163                1.00000000               -0.03763917               -0.03788631                0.12685559                0.00008695                0.00128904                0.02215522
               1.00149256                8.99367284               43.05260440                0.99999998               -0.03718299               -0.03720323                0.12387912                0.00003611                0.00034420                0.00105499
               2.00112530                8.98839054               43.05251953                0.95492468               -0.03629276               -0.03636193                0.12081335               -0.00019806               -0.00638091               -0.01248022
               3.00076671                8.98310521               43.05231681                0.01682880               -0.01701818               -0.04043562                0.11762747                0.21965628                0.09710482               -0.01932619
               4.00078493                8.98227961               43.05429831                0.01000000               -0.04349817               -0.15730029                0.12025202                0.56288958                0.43410778               -0.11632289
               4.99989675                8.98759381               43.06078016                0.01000000               -0.07370378               -0.07989691                0.14540678                0.59524107                0.67062775                0.04101786
               5.99931086                8.99240915               43.06759405                0.01094189               -0.01231061               -0.07581515                0.16815203                0.45793686                0.67452697                0.13328404
               6.99965053                8.99671200               43.07427842                0.01000002                0.04769855               -0.09901593                0.18071828                0.42883118                0.83455613                0.13604016
               8.00026483                9.00083182               43.08432080                0.14619006                0.00095722                0.02212771                0.19845770                0.33507667                0.50253967                0.37520587
               8.99966968                8.99999488               43.08431187                0.99999997               -0.05933481               -0.05935410                0.19750625                0.00084010               -0.00031894                0.00043060
               9.99907813                8.99914812               43.08429770                0.99301660               -0.05915461               -0.05868147                0.19679280                0.00072385               -0.00061807               -0.00177879
               0.00714870                9.99857484               43.05276965                0.99999999               -0.03767983               -0.03805338                0.12716992                0.00056584                0.01619172                0.01687662
               1.00677191                9.99330075               43.05269687                0.99999998               -0.03720649               -0.03720986                0.12418878                0.00052632                0.02032259                0.00095572
               2.00640457                9.98802668               43.05270920                0.89983766               -0.03629319               -0.03638655                0.12133838                0.00049180                0.02121648               -0.00463230
               3.00604604                9.98275203               43.05265453                0.08427450               -0.17295392               -0.03531842                0.11822208                0.23394198                0.10174537               -0.00506837
               4.00294550                9.98214685               43.05427550                0.06982154               -0.37526682               -0.01327614                0.11335613                0.44856831                0.44981441               -0.05557970
               4.99854071                9.98740227               43.06118679                0.01938228               -0.27923490               -0.01915489                0.14123973                0.34665254                0.71334466                0.01175517
               5.99736080                9.99179198               43.06848844                0.08466917               -0.03380572               -0.06171614                0.16735820                0.20732344                0.68168886                0.07524561
               6.99786459                9.99544885               43.07494838                0.09471133                0.18695900               -0.12631470                0.17681549                0.24369906                0.78213665                0.06087936
               8.00109998               10.00023785               43.08427427                0.63012836                0.13244742               -0.05939658                0.19746095                0.28126376                0.46831057                0.00061485
               9.00051354                9.99940383               43.08427504                0.99301843               -0.05872987               -0.05910548                0.19649781                0.00046723                0.00132608                0.00055032
               9.99992538                9.99855947               43.08426088                1.00000000               -0.05881593               -0.05886491                0.19578434                0.00028906                0.00057785               -0.00059798
              -0.02417621               -0.00030826               44.04361838                0.97513436               -0.03163875               -0.03048947                0.10135587                0.00090082               -0.00566094                0.00602034
               0.97550740               -0.00174634               44.04476832                0.74912185               -0.03270331               -0.03232463                0.10801304                0.00103071               -0.00663058               -0.00329095
               1.97516972               -0.00318927               44.04589240                0.22078011               -0.03975382               -0.03467292                0.11496620               -0.00573519               -0.00646881               -0.00242292
               2.97471233               -0.00477386               44.04705856                0.05009124               -0.11963605               -0.03247841                0.12117419               -0.19182772                0.08475347               -0.00292418
               3.97277700               -0.01017964               44.05004136                0.11687629               -0.09669137               -0.00627363                0.11087528               -0.29727897                0.09390363               -0.00232908
               4.97277850               -0.00892444               44.05144711                0.29679374               -0.01462726               -0.03297981                0.11383545               -0.04050860                0.01199494               -0.00199362
               5.97248446               -0.00674694               44.05275811                0.79623387               -0.03239384               -0.03516427                0.11751794               -0.00356637                0.00747739               -0.00198835
               6.97213062               -0.00447804               44.05406527                1.00000000               -0.03604483               -0.03636926                0.12122060                0.00038078                0.00814305               -0.00158674
               7.97176356               -0.00220095               44.05538752                0.99069619               -0.03731604               -0.03748033                0.12492925                0.00053307                0.00992183               -0.00129706
               8.97138430                0.00007934               44.05672908                1.00000000               -0.03852399               -0.03858328                0.12866493                0.00058910                0.00883196                0.00073337
               9.97099308                0.00236042               44.05802909                1.00000000               -0.03912199               -0.03973615                0.13238684                0.00062093                0.00674110                0.00663664
              -0.02272912                0.99938685               44.04367837                0.74936200               -0.03126658               -0.03072765                0.10126120               -0.00032426                0.00381853                0.00804843
               0.97695821                0.99793041               44.04482573                0.03609273               -0.03223743               -0.03208088                0.10815709               -0.00068804                0.00753055               -0.00674219
               1.97662613                0.99646401               44.04605068                0.01000000               -0.03344873               -0.03344476                0.11569769               -0.00745824                0.01299959               -0.00786246
               2.97628924                0.99490136               44.04731711                0.01000001               -0.23733113               -0.02701572                0.12308876               -0.24670146                0.10790990                0.07912379
               3.97187951                0.98975762               44.05045704                0.01000000               -0.28160887                0.13354967                0.11125687               -0.10286143                0.10156868                0.01545614
               4.97065706                0.99074576               44.05185211                0.01000000               -0.08269574                0.03549164                0.11400635                0.12420536                0.00325946                0.02731357
               5.97022559                0.99290142               44.05310659                0.01000001               -0.03978116               -0.00129724                0.11759865                0.08588636               -0.00433222                0.02262159
               6.96986144                0.99515827               44.05435640                0.54801030               -0.03676947               -0.03639579                0.12123405               -0.00061810               -0.00378621               -0.00626610
               7.96949020                0.99742424               44.05562011                0.97959232               -0.03759658               -0.03742922                0.12485983               -0.00010886               -0.00116791               -0.00262499
               8.96910950                0.99969351               44.05692076                0.99999999               -0.03859968               -0.03856391                0.12856321                0.00002043                0.00060792                0.00069401
               9.96871821                1.00196306               44.05821894                0.99946109               -0.03912965               -0.03971256                0.13228627                0.00003788                0.00050899                0.00852100
              -0.02126983                1.99907719               44.04377471                0.21920232               -0.03136864               -0.03698138                0.10122893               -0.01256224                0.00308108                0.01869815
               0.97841648                1.99761204               44.04481930                0.01000000               -0.03402782               -0.02457487                0.10754140               -0.01342501                0.01550001               -0.00160527
               1.97804961                1.99614184               44.04611314                0.01000001               -0.09659002               -0.02006348                0.10055577               -0.06751529                0.11875098                0.13384230
               2.97648468                1.99468583               44.04922720                0.01000000               -0.15871181               -0.02007454                0.11540545               -0.11862020                0.15413263                0.15171092
               3.97487537                1.99249135               44.05120191                0.01000000               -0.21829370                0.18368831                0.12138650                0.08377160                0.06993479                0.08531515
               4.97211881                1.99178539               44.05283927                0.01000001               -0.25428500                0.11723247                0.12009311                0.24183587                0.01786295                0.08107788
               5.96978967                1.99322712               44.05394491                0.01141935               -0.22616861                0.07779172                0.12129118                0.20741953               -0.04178692                0.07010623
               6.96759543                1.99479405               44.05455228                0.01620382               -0.12817648                0.01686263                0.12109341                0.08548123               -0.04159806                0.03218298
               7.96722614                1.99705046               44.05582511                0.04364733               -0.03747703               -0.03167665                0.12473760                0.00952641               -0.00753651               -0.00209429
               8.96684589                1.99930806               44.05711123                0.92347884               -0.03857063               -0.03850634                0.12844465               -0.00002196               -0.00431106               -0.00158450
               9.96645473                2.00156617               44.05844668                1.00000000               -0.03911614               -0.03968762                0.13223150                0.00004393               -0.00178177                0.00920813
              -0.02005008                2.99864722               44.04404391                0.06131350               -0.03248628                0.03603903                0.10185868               -0.22102862                0.00350234                0.42623693
               0.97962506                2.99743892               44.04498429                0.01000001               -0.08739435               -0.05909918                0.10700049               -0.23417785                0.16392295                0.39559087
               1.97820203                2.99606274               44.04913661                0.01000000               -0.10288687               -0.05582979                0.11154918               -0.12390907                0.20504023                0.25470072
               2.97756732                2.99449987               44.05086214                0.01000000               -0.08733282               -0.04799441                0.11949494                0.00859002                0.09298094                0.15765330
               3.97645538                2.99343139               44.05282710                0.01197178               -0.14046557                0.03135276                0.12360461                0.13056279                0.07092378                0.12042592
               4.97475801                2.99309041               44.05420015                0.01000000               -0.25450260                0.09501375                0.12551693                0.33510504                0.01473218                0.10992589
               5.97136533                2.99445725               44.05517015                0.01000001               -0.35051475                0.11350525                0.12612542                0.42864557               -0.04545702                0.14454388
               6.96774772                2.99549552               44.05561008                0.01000001               -0.30993060                0.11618974                0.12519733                0.41243191               -0.08609988                0.18905425
               7.96516671                2.99679071               44.05606646                0.01296917               -0.15771781                0.02991823                0.12499124                0.32929821               -0.05886172                0.14579799
               8.96459336                2.99892338               44.05725614                0.01684637               -0.04819224               -0.01191871                0.12826470                0.23248732               -0.01225473                0.08467563
               9.96420287                3.00116931               44.05864971                0.08470997               -0.03904892               -0.17773375                0.13209266                0.24392415               -0.00195671                0.07332225
              -0.02327380                3.99979797               44.05228016                0.12926786               -0.04087920                0.08673996                0.12076174               -0.31517632               -0.00442240                0.46795272
               0.97631741                3.99643006               44.05293364                0.01000000                0.08921390               -0.11124857                0.11986597               -0.21942697               -0.11052845                0.42816974
               1.97851048                3.99502524               44.05146957                0.01000000                0.14852120               -0.15683611                0.12000512                0.00408399               -0.07598072                0.19504445
               2.97928783                3.99372594               44.05286317                0.01197217                0.01928081               -0.11507196                0.12306193                0.12881217                0.05940595                0.13642965
               3.97889609                3.99311841               44.05414745                0.01000000               -0.07463947               -0.06805732                0.12597854                0.30436328                0.05941076                0.10628039
               4.97779504                3.99368566               44.05562580                0.01000001               -0.14693092                0.02121721                0.12993545                0.50121097                0.07531169                0.14963659
               5.97595747                3.99549722               44.05733847                0.01000001               -0.21422125                0.07265480                0.13481559                0.68033421                0.06814610                0.23141999
               6.97351062                3.99711784               44.05882776                0.01179335               -0.27866114                0.09930818                0.13970676                0.70826319               -0.00866555                0.28448157
               7.97038425                3.99764883               44.05921906                0.01019221               -0.31967854                0.08364654                0.13838358                0.72035586               -0.10146178                0.33251400
               8.96711704                3.99906969               44.05916981                0.01000000               -0.17714449               -0.01418507                0.13176652                0.59056539               -0.09102227                0.36532037
               9.96684136                3.99801149               44.06015843                0.06966941               -0.02756836               -0.35558033                0.12784788                0.46158197               -0.04202282                0.35047432
              -0.01961779                5.00038202               44.05326995                0.29847040               -0.03729691                0.01746329                0.12465259               -0.07136154               -0.00453678                0.06618686
               0.98000924                4.99521394               44.05375327                0.01000000                0.03028090               -0.08589709                0.12229102                0.07445975               -0.04621394                0.03281124
               1.98098783                4.99292601               44.05340011                0.01000001                0.10205794               -0.20732597                0.12202896                0.19995911               -0.04180795                0.10234933
               2.98205040                4.99219843               44.05402014                0.01000000                0.07975452               -0.23331459                0.12497135                0.32399190                0.04463553                0.07192153
               3.98258292                4.99207024               44.05544346                0.01000001                0.01765051               -0.14086157                0.12917413                0.49910522                0.12386755                0.10662761
               4.98240341                4.99351475               44.05766300                0.01000001               -0.05215430               -0.05233519                0.13650360                0.69908936                0.17345024                0.18815989
               5.98153984                4.99591035               44.06014158                0.01177264               -0.13210196               -0.01423339                0.14457064                0.76379636                0.12922484                0.22811655
               6.97976137                4.99748168               44.06157321                0.01000000               -0.19589252                0.01551185                0.14803639                0.76676581                0.06992594                0.29427631
               7.97762199                4.99846364               44.06302033                0.01000000               -0.18596870                0.08248276                0.15047544                0.80559046                0.07908124                0.44540673
               8.97604200                4.99863968               44.06483073                0.01000000               -0.10355459               -0.02345968                0.15316326                0.63832218                0.05526577                0.57642850
               9.97555089                4.99405770               44.06595436                0.02354739               -0.04911062               -0.21905965                0.15061737                0.36933949                0.01898627                0.57239624
              -0.01436489                6.00014723               44.05346163                0.81041981               -0.03725070               -0.03012749                0.12558966               -0.00891691               -0.00502055                0.02258672
               0.98526260                5.99471212               44.05377678                0.01000001               -0.00549695               -0.04400822                0.12279863                0.07108914               -0.01529886               -0.00953541
               1.98552517                5.99087872               44.05388383                0.01142297                0.06804183               -0.20259202                0.12238083                0.18466862                0.01056901               -0.00706604
               2.98662344                5.98905965               44.05473286                0.01000001                0.10183512               -0.32848308                0.12500786                0.41536910                0.10766103               -0.01062368
               3.98756187                5.99030117               44.05674532                0.01000001                0.06566387               -0.20622961                0.13325305                0.66782778                0.21477926                0.08363135
               4.98793672                5.99263896               44.05974935                0.01177291               -0.01477027               -0.13239571                0.14385952                0.75660343                0.23015294                0.13112568
               5.98726647                5.99521255               44.06211541                0.01000000               -0.08220392               -0.08658001                0.14988745                0.78913800                0.21488640                0.20158497
               6.98629264                5.99742808               44.06488777                0.01000000               -0.09642013                0.00169263                0.15646244                0.84896584                0.26380647                0.38084675
               7.98533807                5.99929848               44.06829743                0.01000000               -0.10016048                0.07152040                0.16637856                0.81036962                0.25275318                0.56699999
               8.98428943                5.99860049               44.07091497                0.01094030               -0.09729796                0.04366805                0.17378820                0.50856943                0.14497636                0.59874827
               9.98339211                5.99363030               44.07224318                0.01000000               -0.08973229                0.04576286                0.17346929                0.23589868                0.07718851                0.57213640
              -0.00892589                6.99977947               44.05357915                0.99999999               -0.03745715               -0.03709892                0.12614918               -0.00031753               -0.00425855                0.02090496
               0.99069954                6.99433378               44.05374155                0.58141580               -0.03702188               -0.03757990                0.12315787               -0.00116761               -0.01630666               -0.01032558
               1.99033367                6.98887417               44.05366170                0.01620637                0.01178992               -0.11827448                0.11969613                0.07750106                0.00942491               -0.03441248
               2.99093533                6.98562877               44.05433496                0.01000001                0.10132481               -0.29448208                0.12143130                0.39676232                0.17630987               -0.09861759
               3.99236017                6.98794565               44.05755313                0.01179829                0.08443833               -0.26793242                0.13855875                0.69099530                0.29420449               -0.01250665
               4.99262410                6.99086684               44.06056502                0.01000000                0.00866567               -0.19358113                0.14709202                0.75069807                0.31964983                0.06025701
               5.99253348                6.99417875               44.06434652                0.01000000                0.00153306               -0.10032883                0.15550854                0.83170780                0.41505650                0.24591575
               6.99265476                6.99751554               44.06930557                0.01000000                0.00617410               -0.00009885                0.16891954                0.85367165                0.48159705                0.45257617
               7.99265696                6.99989405               44.07441426                0.01105405               -0.03865964                0.02634287                0.18309714                0.71425938                0.36387419                0.52591178
               8.99188157                6.99951304               44.07697734                0.01000002               -0.12238557                0.10190593                0.18471398                0.48016105                0.15772603                0.76868265
               9.99020925                6.99497296               44.07801789                0.10445005               -0.16723191                0.30688719                0.18129846                0.28713866                0.07464693                0.68221764
              -0.00347987                7.99940526               44.05373667                0.99103216               -0.03755879               -0.03761773                0.12665845                0.00001441               -0.00368086                0.02526526
               0.99614455                7.99396052               44.05374590                0.95159214               -0.03699646               -0.03724945                0.12342743               -0.00023617               -0.00703508               -0.00359711
               1.99578020                7.98851323               44.05368809                0.05259996               -0.03286670               -0.03614178                0.11998767                0.00479425               -0.02029932               -0.02121083
               2.99548721                7.98317001               44.05342975                0.01297386                0.01817531               -0.14586225                0.11650153                0.31785680                0.15787033               -0.08163581
               3.99614371                7.98494253               44.05692183                0.01020119                0.06151830               -0.30835171                0.13842792                0.70699371                0.38574474               -0.12921615
               4.99671758                7.98876734               44.06123373                0.01000000                0.05541076               -0.17692730                0.14947748                0.77986435                0.50676034                0.06910177
               5.99725193                7.99320598               44.06718851                0.01000000                0.04665973               -0.09385686                0.16577483                0.77103119                0.62822465                0.24224798
               6.99765077                7.99742610               44.07397162                0.01106665                0.01869129               -0.04110082                0.18250525                0.67954659                0.57192355                0.34148600
               7.99762575                7.99982534               44.07875347                0.01000002                0.05814856                0.04991327                0.18818743                0.54161341                0.61350382                0.59840855
               8.99881374                8.00063861               44.08634186                0.13005896                0.02946462                0.02649189                0.19969784                0.38714474                0.37996736                0.47089094
               9.99821504                7.99976805               44.08633994                0.61651606               -0.05986994                0.21055653                0.19884677                0.35695985               -0.00012143                0.41648619
               0.00196387                8.99902711               44.05394219                1.00000000               -0.03770343               -0.03801276                0.12726595                0.00011873                0.00127479                0.02240039
               1.00158683                8.99358879               44.05384330                0.99999998               -0.03719013               -0.03721022                0.12390294                0.00003717                0.00028205                0.00103919
               2.00122007                8.98815134               44.05372588                0.96196938               -0.03618271               -0.03624931                0.12045021               -0.00019351               -0.00654525               -0.01258258
               3.00086318                8.98271152               44.05348943                0.01715014               -0.01586772               -0.04048526                0.11688256                0.22180550                0.10127029               -0.01959022
               4.00090271                8.98177861               44.05552485                0.01000000               -0.04526215               -0.16653388                0.13063810                0.58302450                0.45721225               -0.11805555
               4.99995794                8.98732829               44.06226674                0.01000000               -0.08036842               -0.08118551                0.15684341                0.61894601                0.68876744                0.05343142
               5.99929534                8.99230161               44.06930718                0.01099322               -0.01658021               -0.07642834                0.17423038                0.47006359                0.68521253                0.14405275
               6.99962633                8.99669352               44.07610285                0.01000002                0.04906883               -0.10128397                0.18344707                0.43645003                0.84655833                0.13790555
               8.00027672                9.00089232               44.08630810                0.14598878                0.00277137                0.02348663                0.19949810                0.34233047                0.51091637                0.38163031
               8.99968176                9.00004288               44.08628768                0.99999997               -0.05935693               -0.05937606                0.19758223                0.00076235               -0.00057231                0.00018277
               9.99908958                8.99918409               44.08626556                0.99320944               -0.05921793               -0.05864070                0.19671430                0.00080673               -0.00053925               -0.00202647
               0.00739915                9.99864500               44.05404436                1.00000000               -0.03780862               -0.03821128                0.12778884                0.00065980                0.01636430                0.01707108
               1.00702106                9.99321631               44.05393988                0.99999138               -0.03727743               -0.03724769                0.12442174                0.00058553                0.02055303                0.00095857
               2.00665360                9.98778825               44.05392182                0.90067987               -0.03625094               -0.03630895                0.12118611                0.00055315                0.02137686               -0.00459604
               3.00629605                9.98236030               44.05383411                0.08947348               -0.17330847               -0.03512203                0.11768658                0.23446666                0.10039521               -0.00514064
               4.00318743                9.98161185               44.05539446                0.07039849               -0.38612730               -0.01667659                0.10784417                0.46763844                0.46296334               -0.05534559
               4.99857350                9.98714363               44.06261430                0.01976604               -0.29497314               -0.01846640                0.15203720                0.36483451                0.73473945                0.01983945
               5.99728797                9.99167741               44.07018784                0.08475842               -0.03922146               -0.06242015                0.17271786                0.21210239                0.69468108                0.08036000
               6.99778907                9.99540042               44.07672953                0.09505443                0.19175177               -0.12931000                0.17898776                0.24715694                0.79487663                0.05916853
               8.00112301               10.00029507               44.08625109                0.62959686                0.13740739               -0.05972426                0.19840089                0.28716214                0.47832789                0.00043404
               9.00053722                9.99945109               44.08624024                0.99321130               -0.05871238               -0.05917868                0.19647699                0.00055383                0.00106849                0.00062797
               9.99994876                9.99859523               44.08621813                1.00000000               -0.05884606               -0.05888566                0.19560904                0.00033186                0.00065205               -0.00052240
              -0.02542049               -0.00030739               45.04462843                0.97394747               -0.03088122               -0.03021504                0.10059433                0.00217346               -0.00379303                0.00590483
               0.97427070               -0.00183662               45.04585001                0.74771742               -0.03285633               -0.03264696                0.10918774                0.00092680               -0.00739050               -0.00279569
               1.97392238               -0.00337608               45.04705273                0.22039932               -0.04121132               -0.03526005                0.11673303               -0.00631572               -0.00836593               -0.00316683
               2.97344647               -0.00507300               45.04828240                0.05070148               -0.12099336               -0.03293440                0.12324174               -0.19362661                0.07343137               -0.00351608
               3.97150252               -0.01062011               45.05114892                0.11721713               -0.09623457               -0.00506287                0.11062790               -0.30335457                0.08562755               -0.00224555
               4.97152178               -0.00935030               45.05258345                0.29655523               -0.01353339               -0.03278773                0.11344398               -0.04235048                0.01159328               -0.00200537
               5.97123185               -0.00711581               45.05393170                0.79481250               -0.03213787               -0.03504857                0.11720859               -0.00378336                0.00750762               -0.00200767
               6.97087902               -0.00478520               45.05527640                1.00000000               -0.03596592               -0.03628752                0.12101188                0.00038520                0.00818631               -0.00160393
               7.97051253               -0.00244635               45.05663626                0.99072007               -0.03727707               -0.03742897                0.12482242                0.00054747                0.00997825               -0.00133274
               8.97013348               -0.00010454               45.05801570                1.00000000               -0.03852027               -0.03856161                0.12865985                0.00060575                0.00889253                0.00072799
               9.96974213                0.00223770               45.05935344                1.00000000               -0.03913564               -0.03974567                0.13248282                0.00065879                0.00679377                0.00669303
              -0.02386953                0.99939046               45.04468811                0.74798098               -0.03161598               -0.03044697                0.10045011               -0.00011140                0.00331009                0.00857775
               0.97581431                0.99783691               45.04591250                0.03651913               -0.03265261               -0.03231536                0.10918402               -0.00095214                0.00803297               -0.00676228
               1.97547742                0.99627132               45.04722114                0.01000000               -0.03410433               -0.03529776                0.11832701               -0.00828780                0.01375855               -0.02078287
               2.97513222                0.99459766               45.04856685                0.01000001               -0.24348954               -0.02474277                0.12631658               -0.24457204                0.09764893                0.07265410
               3.97060763                0.98932926               45.05156878                0.01000000               -0.28930490                0.13854845                0.11105266               -0.10240600                0.09178929                0.02130805
               4.96934612                0.99032182               45.05298968                0.01000000               -0.08480823                0.03854393                0.11351057                0.12944688                0.00255302                0.03024887
               5.96891146                0.99253371               45.05428039                0.01000001               -0.03989880                0.00062615                0.11716597                0.08980506               -0.00446212                0.02447261
               6.96854815                0.99485193               45.05556705                0.54613055               -0.03668924               -0.03629708                0.12089802               -0.00065098               -0.00388960               -0.00636525
               7.96817768                0.99717936               45.05686752                0.98029256               -0.03753183               -0.03735677                0.12462159               -0.00011479               -0.00123599               -0.00268894
               8.96779751                0.99950985               45.05820572                0.99999999               -0.03856015               -0.03852236                0.12842570                0.00002167                0.00059046                0.00068008
               9.96740647                1.00184024               45.05954165                0.99929582               -0.03910382               -0.03970201                0.13225022                0.00005932                0.00050382                0.00860219
              -0.02231563                1.99908367               45.04478490                0.21874109               -0.03135775               -0.03646330                0.10101838               -0.01221470                0.00350854                0.01996910
               0.97737079                1.99751708               45.04589887                0.01000000               -0.03442432               -0.02504996                0.10827356               -0.01437010                0.00483629               -0.00260042
               1.97699588                1.99591797               45.04704548                0.01000001               -0.09368492               -0.01479509                0.05572685               -0.06303775                0.12099632                0.14790042
               2.97549709                1.99443215               45.05038069                0.01000000               -0.16328212               -0.01774593                0.13027409               -0.11364639                0.15379504                0.14376202
               3.97373024                1.99215086               45.05243865                0.01000000               -0.22954100                0.19148714                0.12129936                0.09308996                0.06460419                0.09041387
               4.97090627                1.99142057               45.05403730                0.01000001               -0.26162001                0.12355394                0.11971436                0.25601426                0.01245310                0.08655017
               5.96849784                1.99289672               45.05515642                0.01141904               -0.23429594                0.08374984                0.12068238                0.21763087               -0.04471219                0.07460104
               6.96622035                1.99448886               45.05576086                0.01620013               -0.13227608                0.01994828                0.12061986                0.08935582               -0.04374882                0.03425630
               7.96585232                1.99680651               45.05707065                0.04410612               -0.03736633               -0.03134302                0.12436577                0.00974106               -0.00765930               -0.00197173
               8.96547303                1.99912501               45.05839435                0.92798141               -0.03849022               -0.03842446                0.12817381               -0.00002291               -0.00435763               -0.00163533
               9.96508251                2.00144366               45.05976821                1.00000000               -0.03905136               -0.03963808                0.13206516                0.00006547               -0.00178259                0.00927431
              -0.02098064                2.99866119               45.04506239                0.06106911               -0.03267497                0.03916643                0.10193797               -0.21514999                0.00379491                0.43695180
               0.97869261                2.99733592               45.04605765                0.01000001               -0.08588841               -0.05978865                0.10755590               -0.22175674                0.16284971                0.40090640
               1.97730159                2.99597542               45.05023557                0.01000000               -0.10331023               -0.05459451                0.12482081               -0.11530099                0.20551464                0.26158893
               2.97662640                2.99424274               45.05206931                0.01000000               -0.09102944               -0.04629136                0.11963748                0.01140807                0.09565355                0.15870225
               3.97548100                2.99315900               45.05406574                0.01197121               -0.14529253                0.03589107                0.12415922                0.14619667                0.06904662                0.11961020
               4.97372055                2.99279290               45.05545606                0.01000000               -0.26426052                0.10149663                0.12481556                0.35470022                0.01324825                0.11431501
               5.97019579                2.99420870               45.05643104                0.01000001               -0.36475417                0.12166432                0.12562735                0.45015745               -0.04745436                0.15216365
               6.96642547                2.99525089               45.05686162                0.01000001               -0.32297224                0.12474403                0.12500556                0.43097344               -0.08906605                0.19982836
               7.96373635                2.99655250               45.05731437                0.01301332               -0.16327831                0.03482620                0.12457695                0.34233690               -0.06106839                0.15401555
               8.96315990                2.99874136               45.05853681                0.01717281               -0.04829279               -0.00971424                0.12785845                0.23758539               -0.01258666                0.08755491
               9.96277049                3.00104748               45.05996921                0.08724214               -0.03894137               -0.17916346                0.13179392                0.24732528               -0.00197740                0.07028974
              -0.02396808                3.99986700               45.05348532                0.12853033               -0.04104933                0.08955474                0.12023433               -0.31228700               -0.00460786                0.47967126
               0.97562143                3.99632130               45.05412829                0.01000000                0.08755577               -0.11093977                0.11898677               -0.21199523               -0.10890862                0.43413253
               1.97778304                3.99482608               45.05268732                0.01000000                0.14601218               -0.16184728                0.11936030                0.01639975               -0.07419038                0.19743917
               2.97854167                3.99350632               45.05409438                0.01197311                0.01604915               -0.11312783                0.12337567                0.14478580                0.06037644                0.13608964
               3.97810402                3.99286868               45.05540710                0.01000000               -0.07955468               -0.06598626                0.12522345                0.32344563                0.06192676                0.10780793
               4.97695058                3.99345051               45.05692495                0.01000001               -0.15305138                0.02740423                0.12922855                0.52687197                0.07946142                0.15467050
               5.97504299                3.99533000               45.05869000                0.01000001               -0.22272735                0.08004535                0.13445997                0.71142007                0.07534537                0.24157644
               6.97249603                3.99698374               45.06023920                0.01180438               -0.29171988                0.10731140                0.14228587                0.73946065               -0.00052798                0.29718659
               7.96920859                3.99750303               45.06062377                0.01023121               -0.33831411                0.09109441                0.14515785                0.75105026               -0.09794381                0.34486448
               8.96572975                3.99893073               45.06050715                0.01000000               -0.18959139               -0.01072428                0.14009661                0.61765703               -0.09263205                0.38394236
               9.96541677                3.99786039               45.06141465                0.07022021               -0.03129821               -0.36561807                0.11883520                0.48642630               -0.04088879                0.35650973
              -0.02013500                5.00045229               45.05451445                0.29748698               -0.03713808                0.01749935                0.12423007               -0.07094596               -0.00459235                0.06838105
               0.97949362                4.99511712               45.05497213                0.01000000                0.02897812               -0.08506867                0.12144444                0.07884554               -0.04515102                0.03353989
               1.98044457                4.99273847               45.05461519                0.01000001                0.09929469               -0.20753938                0.12125838                0.21230402               -0.03861232                0.10137090
               2.98147952                4.99198019               45.05526904                0.01000000                0.07805813               -0.23535231                0.12400702                0.34215703                0.04950144                0.07191547
               3.98200573                4.99183928               45.05673361                0.01000001                0.01585767               -0.13861196                0.12811165                0.52351931                0.13069024                0.10996133
               4.98179667                4.99334098               45.05902738                0.01000001               -0.05573870               -0.04654838                0.13535441                0.72916119                0.18332769                0.19603679
               5.98089096                4.99580961               45.06159178                0.01177933               -0.13775105               -0.00950357                0.14430604                0.79362300                0.13938634                0.23647099
               6.97904165                4.99739712               45.06306645                0.01000000               -0.20402956                0.01955828                0.14980416                0.79640569                0.08034109                0.30207917
               7.97681036                4.99837438               45.06454778                0.01000000               -0.19429814                0.08815569                0.15471134                0.83996054                0.09227166                0.45599969
               8.97515569                4.99852687               45.06638696                0.01000000               -0.10853365               -0.02143797                0.16252890                0.67126144                0.06827650                0.59087974
               9.97463969                4.99373512               45.06746382                0.02430937               -0.05159957               -0.22754684                0.15762617                0.39295367                0.02712489                0.58886063
              -0.01471667                6.00021698               45.05471640                0.80672445               -0.03711841               -0.03014164                0.12535424               -0.00876401               -0.00508779                0.02301661
               0.98491215                5.99461993               45.05500163                0.01000001               -0.00586412               -0.04368737                0.12214832                0.07373114               -0.01406347               -0.00964900
               1.98516605                5.99067529               45.05510459                0.01142213                0.06859291               -0.20570603                0.12140004                0.19404008                0.01453205               -0.00860978
               2.98628401                5.98879928               45.05597964                0.01000001                0.10237792               -0.33415743                0.12377873                0.43556028                0.11604521               -0.01212813
               3.98721361                5.99009644               45.05807542                0.01000001                0.06397307               -0.20306735                0.13179186                0.69584037                0.22715838                0.09129244
               4.98756347                5.99251954               45.06118885                0.01178058               -0.01771495               -0.12851123                0.14242609                0.78379387                0.24114565                0.14028378
               5.98685931                5.99513993               45.06361811                0.01000000               -0.08520494               -0.08410408                0.14925948                0.81413990                0.22486015                0.20918849
               6.98585937                5.99737491               45.06645966                0.01000000               -0.09906274                0.00571445                0.15681211                0.87653440                0.27790819                0.39104878
               7.98487806                5.99926615               45.06997866                0.01000000               -0.10325655                0.07761668                0.16918728                0.83963308                0.26980278                0.57970771
               8.98379424                5.99850197               45.07267902                0.01099789               -0.10093589                0.04778638                0.17898338                0.52800850                0.15634853                0.60748491
               9.98285934                5.99330946               45.07399498                0.01000000               -0.09349016                0.05044190                0.17727209                0.24508185                0.08235694                0.58304446
              -0.00911617                6.99984945               45.05484059                0.99999999               -0.03738905               -0.03710780                0.12613511               -0.00028284               -0.00430127                0.02112478
               0.99050994                6.99424337               45.05497109                0.57608133               -0.03689040               -0.03744045                0.12273642               -0.00115094               -0.01657853               -0.01053145
               1.99014602                6.98862435               45.05485462                0.01620350                0.01298157               -0.12048839                0.11886964                0.08193358                0.01170573               -0.03642611
               2.99076957                6.98529704               45.05554680                0.01000001                0.10281255               -0.30128611                0.12049454                0.41676119                0.19054793               -0.10209490
               3.99220227                6.98777793               45.05895066                0.01180818                0.08297433               -0.26798128                0.13704948                0.71736673                0.31005104                0.00101865
               4.99242906                6.99077076               45.06204565                0.01000000                0.00580548               -0.19195111                0.14665687                0.77100361                0.32936591                0.07271410
               5.99231838                6.99412753               45.06590574                0.01000000                0.00085305               -0.09736679                0.15477081                0.85140960                0.42717446                0.25929847
               6.99244612                6.99751141               45.07100246                0.01000000                0.00787902                0.00433535                0.16921572                0.87619825                0.49834826                0.46737399
               7.99247596                6.99992672               45.07625862                0.01110883               -0.03867846                0.03017393                0.18493067                0.73371505                0.37624210                0.53561638
               8.99167255                6.99948260               45.07884033                0.01000002               -0.12748029                0.10982083                0.18682086                0.49244613                0.16048389                0.77907710
               9.98992636                6.99474396               45.07984231                0.10566661               -0.17461921                0.32528513                0.18293871                0.29410818                0.07314777                0.69328086
              -0.00351016                7.99947483               45.05500428                0.99102584               -0.03756084               -0.03768855                0.12686650                0.00004914               -0.00375946                0.02550613
               0.99611423                7.99387112               45.05497922                0.95167717               -0.03693899               -0.03718627                0.12323091               -0.00023649               -0.00721726               -0.00373820
               1.99575106                7.98826552               45.05488503                0.05217850               -0.03242879               -0.03595939                0.11938579                0.00523340               -0.02057552               -0.02153817
               2.99546565                7.98277355               45.05459041                0.01301944                0.01680831               -0.14939936                0.11562815                0.33474291                0.17304357               -0.08471525
               3.99608722                7.98473682               45.05835297                0.01023734                0.05841451               -0.31660271                0.14646766                0.74282765                0.40855207               -0.10495325
               4.99663394                7.98868052               45.06275199                0.01000000                0.05298116               -0.17444410                0.15055712                0.79582466                0.51311778                0.09661238
               5.99714685                7.99319259               45.06886229                0.01000000                0.04751012               -0.09183305                0.16655902                0.78208603                0.63937591                0.26156899
               6.99758415                7.99746162               45.07580762                0.01111970                0.02171607               -0.03996060                0.18331636                0.69058424                0.58266165                0.35204996
               7.99758117                7.99986963               45.08064369                0.01000002                0.06208869                0.05200461                0.18907059                0.55295640                0.62329570                0.60711490
               8.99882592                8.00069839               45.08834599                0.13019513                0.03188049                0.03087789                0.20204887                0.39868788                0.38616241                0.47906024
               9.99821878                7.99981516               45.08833491                0.61596010               -0.06071412                0.22427214                0.20107707                0.37093890               -0.00013261                0.42611232
               0.00209223                8.99909568               45.05521695                1.00000000               -0.03777100               -0.03814601                0.12769514                0.00015244                0.00125998                0.02264308
               1.00171452                8.99349965               45.05508246                0.99999999               -0.03719839               -0.03721806                0.12393021                0.00003804                0.00021899                0.00102359
               2.00134826                8.98790517               45.05492853                0.96893712               -0.03606899               -0.03613273                0.12007490               -0.00018878               -0.00670873               -0.01268194
               3.00099314                8.98230905               45.05465446                0.01748521               -0.00981974               -0.04068474                0.11610963                0.23281825                0.11399667               -0.01990713
               4.00115186                8.98144588               45.05691107                0.01000000               -0.05516823               -0.17180426                0.14571087                0.61550853                0.43886850               -0.08037938
               4.99988977                8.98728187               45.06391703                0.01000000               -0.09864295               -0.07882864                0.17057361                0.63265781                0.67721543                0.08557657
               5.99917901                8.99229087               45.07107866                0.01104773               -0.01545003               -0.07773732                0.17572905                0.47113307                0.68482367                0.15687084
               6.99958077                8.99671220               45.07794736                0.01000002                0.05596576               -0.10413838                0.18384440                0.43953388                0.85664311                0.13921260
               8.00029832                9.00096681               45.08831076                0.14564324                0.00600028                0.02454705                0.20199732                0.34813089                0.51978729                0.38787993
               8.99970078                9.00010016               45.08826351                0.99999997               -0.05933632               -0.05935580                0.19799522                0.00022681               -0.00094876               -0.00016517
               9.99911159                8.99922940               45.08823198                0.99340905               -0.05891832               -0.05856397                0.19699420                0.00111775               -0.00103111               -0.00238231
               0.00768496                9.99871191               45.05532543                1.00000000               -0.03794506               -0.03837745                0.12844043                0.00075831                0.01653673                0.01726361
               1.00730551                9.99312676               45.05518530                0.99982831               -0.03735385               -0.03728868                0.12467263                0.00064698                0.02078382                0.00096127
               2.00693788                9.98754287               45.05513293                0.90152203               -0.03620994               -0.03622989                0.12103660                0.00061704                0.02153921               -0.00455800
               3.00658131                9.98195986               45.05500826                0.09535299               -0.17566549               -0.03491911                0.11713918                0.24671023                0.09546381               -0.00521416
               4.00342457                9.98130073               45.05643239                0.07097610               -0.40695991               -0.01451474                0.13107854                0.48447486                0.41445173               -0.02279459
               4.99844211                9.98710394               45.06422753                0.01982072               -0.31426929               -0.01779310                0.16786813                0.37208965                0.73818263                0.03504341
               5.99713919                9.99163785               45.07194279                0.08469447               -0.03716139               -0.06530199                0.17521921                0.20976315                0.69663456                0.08494529
               6.99769888                9.99537885               45.07852814                0.09539331                0.20083225               -0.13333514                0.17937281                0.24794704                0.80573225                0.05684240
               8.00115583               10.00036057               45.08824229                0.62850234                0.14344911               -0.06062420                0.20080500                0.29237207                0.48893517                0.00041631
               9.00056786                9.99951127               45.08820458                0.99340921               -0.05865939               -0.05888856                0.19681109                0.00087420                0.00068957                0.00013583
               9.99998264                9.99864388               45.08817306                1.00000000               -0.05852223               -0.05855241                0.19581012                0.00036554                0.00015742               -0.00101564
              -0.02669524               -0.00030952               46.04563026                0.97277245               -0.03694654               -0.02885560                0.10041617               -0.00341805               -0.00844491                0.00845129
               0.97293529               -0.00192723               46.04695207                0.74633303               -0.03673706               -0.03264545                0.11043179                0.00105965               -0.01092365               -0.00436787
               1.97257001               -0.00358942               46.04822706                0.22006472               -0.04252653               -0.03549824                0.11764404               -0.00659851               -0.01234002               -0.00394850
               2.97208476               -0.00541307               46.04952340                0.05133392               -0.11907558               -0.03307717                0.12429897               -0.19276044                0.05992969               -0.00441368
               3.97018850               -0.01106427               46.05225392                0.11752896               -0.09285880               -0.00416865                0.11037196               -0.30780083                0.07620247               -0.00215808
               4.97022758               -0.00977701               46.05371599                0.29631511               -0.01234193               -0.03261062                0.11307587               -0.04411841                0.01107881               -0.00201599
               5.96994166               -0.00748447               46.05510228                0.79340248               -0.03188961               -0.03493744                0.11691797               -0.00398851                0.00753150               -0.00202732
               6.96958979               -0.00509141               46.05648551                1.00000000               -0.03589182               -0.03620849                0.12081699                0.00038950                0.00823201               -0.00162189
               7.96922383               -0.00269013               46.05788397                0.99074554               -0.03724114               -0.03737896                0.12472457                0.00056131                0.01003727               -0.00137004
               8.96884497               -0.00028615               46.05930228                1.00000000               -0.03851794               -0.03853986                0.12865901                0.00062157                0.00895560                0.00072270
               9.96845347                0.00211786               46.06067875                1.00000000               -0.03914996               -0.03975350                0.13257825                0.00069728                0.00684893                0.00675206
              -0.02511171                0.99940192               46.04568737                0.74661797               -0.03024482               -0.02940990                0.10015420               -0.00217819                0.00441742                0.01084689
               0.97458584                0.99774631               46.04700941                0.01097731               -0.03206679               -0.03289437                0.10991045               -0.00144948                0.00857080               -0.00860208
               1.97424695                0.99605560               46.04841722                0.01000000               -0.03456305               -0.01625832                0.11980888               -0.00362297                0.01365949               -0.07305109
               2.97389458                0.99425616               46.04984344                0.01000001               -0.24772444               -0.02641561                0.12781529               -0.25394497                0.08493393                0.07911034
               3.96929246                0.98889405               46.05267809                0.01000000               -0.29490363                0.14334666                0.11071552               -0.10184624                0.08016702                0.02483943
               4.96799650                0.98989689               46.05412232                0.01000000               -0.08667391                0.04135092                0.11301482                0.13473107                0.00164424                0.03339801
               5.96755898                0.99216615               46.05544991                0.01000001               -0.03999938                0.00264834                0.11674116                0.09399102               -0.00461180                0.02613229
               6.96719652                0.99454650               46.05677436                0.54423242               -0.03660873               -0.03619944                0.12056612               -0.00068169               -0.00399722               -0.00647101
               7.96682681                0.99693608               46.05811254                0.98097887               -0.03746653               -0.03728443                0.12438318               -0.00012046               -0.00130649               -0.00275569
               8.96644719                0.99932845               46.05948928                0.99999999               -0.03851899               -0.03847943                0.12828326                0.00002280                0.00057229                0.00066576
               9.96605643                1.00172033               46.06086395                0.99911860               -0.03907570               -0.03968837                0.13220423                0.00008208                0.00049835                0.00868734
              -0.02342759                1.99910228               46.04579508                0.21833761               -0.03197817               -0.03580426                0.10123708               -0.01138949                0.00404653                0.02225783
               0.97625263                1.99741488               46.04698477                0.01000000               -0.02923484               -0.02593463                0.10881621                0.00530816               -0.04342447               -0.00408946
               1.97598771                1.99608541               46.04722768                0.01000001               -0.10426109               -0.02014609                0.15120225               -0.06512711                0.09545249                0.13298201
               2.97416741                1.99405862               46.05183269                0.01000000               -0.17384338               -0.01479666                0.12395012               -0.12635452                0.18169750                0.13677030
               3.97251085                1.99180267               46.05362790                0.01000000               -0.22586527                0.19805465                0.11989328                0.10742450                0.04579491                0.09522148
               4.96965010                1.99105001               46.05523356                0.01000001               -0.26694873                0.12960870                0.11827666                0.27134970                0.00915098                0.09156195
               5.96717187                1.99256849               46.05635856                0.01142049               -0.24219345                0.09003963                0.11965429                0.22931407               -0.04761688                0.07893155
               6.96480623                1.99418460               46.05696467                0.01619833               -0.13662019                0.02336271                0.12014200                0.09411143               -0.04572108                0.03647867
               7.96443947                1.99656418               46.05831242                0.04460561               -0.03725300               -0.03090879                0.12398482                0.01015054               -0.00778481               -0.00181032
               8.96406117                1.99894426               46.05967470                0.93252386               -0.03840553               -0.03833842                0.12788883               -0.00002396               -0.00440647               -0.00168846
               9.96367136                2.00132409               46.06108799                0.99999999               -0.03898158               -0.03958285                0.13187956                0.00008857               -0.00178393                0.00934501
              -0.02196470                2.99868584               46.04608267                0.06080101               -0.03264253                0.04185258                0.10222444               -0.20703729                0.00428636                0.44748771
               0.97770887                2.99722762               46.04713541                0.01000001               -0.08673110               -0.06083216                0.10797967               -0.21742821                0.17639659                0.40529646
               1.97630067                2.99565267               46.05163303                0.01000000               -0.10293207               -0.07455021                0.12096159               -0.10972695                0.20899694                0.29533515
               2.97565023                2.99396022               46.05325489                0.01000000               -0.09255600               -0.04053081                0.12378172                0.04053180                0.08077657                0.14156764
               3.97444955                2.99285514               46.05531028                0.01197269               -0.14962781                0.04020132                0.12230792                0.16610264                0.06767640                0.12060667
               4.97265767                2.99248906               46.05669646                0.01000000               -0.27194372                0.10788735                0.12296192                0.37815346                0.01140930                0.11796454
               5.96901068                2.99396694               46.05768270                0.01000001               -0.37873067                0.12997607                0.12410279                0.47514784               -0.04857900                0.15948261
               6.96508306                2.99501375               46.05811019                0.01000001               -0.33702627                0.13360716                0.12425833                0.45555077               -0.09107903                0.21260954
               7.96227015                2.99631790               46.05855800                0.01306437               -0.16981360                0.03742653                0.12412487                0.36329411               -0.06335704                0.16722469
               8.96168679                2.99856168               46.05981331                0.01751426               -0.04858115               -0.00229392                0.12742863                0.25115617               -0.01296779                0.09707215
               9.96129853                3.00092867               46.06128558                0.09003645               -0.03882566               -0.18385090                0.13146658                0.26356045               -0.00200001                0.06070039
              -0.02465190                3.99993933               46.05468485                0.12770863               -0.04108684                0.09163569                0.11963468               -0.30712340               -0.00480153                0.49090015
               0.97493723                3.99619824               46.05531338                0.01000000                0.08562380               -0.11081107                0.11796150               -0.20241582               -0.10900584                0.43920176
               1.97706057                3.99459441               46.05385678                0.01000000                0.14191728               -0.15582560                0.11822549                0.03338761               -0.07202136                0.18552138
               2.97777558                3.99324800               46.05533069                0.01197200                0.01217428               -0.11043715                0.12164336                0.16420378                0.06346640                0.13552650
               3.97730406                3.99260669               46.05665191                0.01000000               -0.08371034               -0.06269930                0.12358212                0.34742978                0.06348690                0.10766364
               4.97610137                3.99320776               46.05821037                0.01000001               -0.15769623                0.03412631                0.12700818                0.55577217                0.08387191                0.15905715
               5.97415014                3.99516801               46.06002767                0.01000001               -0.22675384                0.08723595                0.13222959                0.74633938                0.08489996                0.25117670
               6.97156629                3.99685674               46.06167348                0.01181544               -0.29963566                0.11445222                0.14053428                0.77369116                0.01602525                0.30979121
               7.96815742                3.99731271               46.06212222                0.01026901               -0.35463830                0.09554204                0.15401924                0.79591979               -0.07106259                0.36264754
               8.96447353                3.99889838               46.06197174                0.01000000               -0.19744159               -0.01381430                0.14843106                0.65695355               -0.05243060                0.36377922
               9.96420859                3.99764708               46.06253513                0.07094194               -0.02649358               -0.38370459                0.13245333                0.50692686               -0.00941200                0.31047823
              -0.02062498                5.00051855               46.05575455                0.29649917               -0.03695377                0.01710454                0.12376875               -0.06997513               -0.00464577                0.07049564
               0.97900548                4.99501140               46.05618216                0.01000000                0.02718238               -0.08390348                0.12052741                0.08367631               -0.04367113                0.03419060
               1.97991867                4.99253616               46.05582528                0.01000001                0.09582686               -0.20636545                0.11960578                0.22586528               -0.03549480                0.10189281
               2.98092202                4.99175148               46.05650029                0.01000000                0.07598620               -0.23543324                0.12206526                0.36314691                0.05386205                0.07041546
               3.98143839                4.99160116               46.05800570                0.01000001                0.01448897               -0.13483624                0.12569037                0.55059412                0.13750002                0.11205128
               4.98121180                4.99317159               46.06037009                0.01000001               -0.05749516               -0.03906944                0.13237403                0.76130373                0.19363424                0.20198622
               5.98028849                4.99571166               46.06302770                0.01178796               -0.13998041               -0.00428249                0.14138756                0.82369670                0.15191880                0.24339781
               6.97841219                4.99730280               46.06456930                0.01000000               -0.20707897                0.02281534                0.14850871                0.82205192                0.09664496                0.30736779
               7.97614691                4.99822874               46.06611455                0.01000000               -0.19603500                0.09345431                0.15492000                0.86699687                0.12196053                0.45749149
               8.97449149                4.99828540               46.06808131                0.01000000               -0.11036139               -0.03007768                0.17545221                0.69761976                0.09994780                0.57709940
               9.97393968                4.99325458               46.06910688                0.02511439               -0.05518100               -0.23671892                0.17058199                0.40685553                0.04269665                0.59202477
              -0.01503710                6.00028142               46.05596871                0.80305468               -0.03697527               -0.03022341                0.12509427               -0.00852244               -0.00515209                0.02342137
               0.98459315                5.99452017               46.05621975                0.01000001               -0.00625494               -0.04329176                0.12145369                0.07670635               -0.01295037               -0.00976369
               1.98483780                5.99046710               46.05631183                0.01142240                0.06901865               -0.20854728                0.11998839                0.20462895                0.01813222               -0.01059241
               2.98597352                5.98853933               46.05720844                0.01000001                0.10290166               -0.33876872                0.12154149                0.45855547                0.12383409               -0.01437421
               3.98689583                5.98990997               46.05938116                0.01000001                0.06217079               -0.19563459                0.12825187                0.72554918                0.23910090                0.09520770
               4.98721694                5.99242637               46.06259787                0.01178935               -0.02014881               -0.12068048                0.13840520                0.81084698                0.25292319                0.14661631
               5.98649286                5.99508236               46.06510060                0.01000000               -0.08633419               -0.07955636                0.14582271                0.83591718                0.23699490                0.21439532
               6.98549025                5.99731305               46.06802401                0.01000000               -0.09890481                0.01061326                0.15462695                0.89780396                0.29569808                0.39860430
               7.98451476                5.99918179               46.07168117                0.01000000               -0.10450842                0.08563025                0.16915245                0.85904058                0.29256783                0.58692439
               8.98340008                5.99829683               46.07449464                0.01106172               -0.10537128                0.05711100                0.17999179                0.53734868                0.17069730                0.60478353
               9.98240734                5.99291270               46.07578862                0.01000000               -0.09927474                0.06220308                0.17900223                0.24801473                0.08709157                0.58423796
              -0.00927292                6.99991408               46.05610185                0.99999999               -0.03731469               -0.03712015                0.12611071               -0.00024325               -0.00434153                0.02133899
               0.99035393                6.99414557               46.05619628                0.57071466               -0.03675004               -0.03728892                0.12228865               -0.00112793               -0.01684483               -0.01072870
               1.98999208                6.98836522               46.05603909                0.01620144                0.01481611               -0.12292666                0.11800988                0.08751206                0.01393184               -0.03829689
               2.99065026                6.98497611               46.05674485                0.01000001                0.10351288               -0.30856453                0.11860110                0.44149315                0.20270477               -0.10591837
               3.99206234                6.98768846               46.06029412                0.01181808                0.08030434               -0.25134614                0.13144588                0.75196035                0.32518797                0.01401433
               4.99225634                6.99075798               46.06349816                0.01000000                0.00289082               -0.17990847                0.14089381                0.78428743                0.34214994                0.08081042
               5.99212015                6.99412054               46.06744194                0.01000000                0.00062478               -0.09089640                0.15144504                0.86240238                0.44162082                0.27005301
               6.99226884                6.99751506               46.07268988                0.01000000                0.01118914                0.01045764                0.16696087                0.89265824                0.51825397                0.48013866
               7.99234394                6.99994135               46.07811288                0.01116366               -0.03806402                0.03668547                0.18462352                0.74755424                0.39056093                0.54294069
               8.99150756                6.99942762               46.08071376                0.01000002               -0.13378509                0.12499016                0.18677227                0.50014914                0.16381717                0.78746492
               9.98966824                6.99449864               46.08167667                0.10684528               -0.18393235                0.34939613                0.18292622                0.29846278                0.07191369                0.70280376
              -0.00350493                7.99953902               46.05627400                0.99102305               -0.03756164               -0.03776274                0.12707811                0.00008531               -0.00383822                0.02574276
               0.99611946                7.99377439               46.05621052                0.95175796               -0.03687854               -0.03711946                0.12302428               -0.00023792               -0.00739994               -0.00387674
               1.99575750                7.98800857               46.05607581                0.05166935               -0.03196606               -0.03577085                0.11876256                0.00577316               -0.02077749               -0.02186234
               2.99548014                7.98236804               46.05574232                0.01306969                0.01978330               -0.15402878                0.11472226                0.36923966                0.19227099               -0.08781238
               3.99615317                7.98488305               46.05985119                0.01027679                0.04952385               -0.27984254                0.13403693                0.74076626                0.43513276               -0.07668895
               4.99647061                7.98882820               46.06424487                0.01000000                0.04153257               -0.15968458                0.14743870                0.77298531                0.51696785                0.12596234
               5.99698382                7.99326444               46.07051969                0.01000000                0.05259970               -0.08810025                0.16183045                0.77676655                0.65477804                0.27609147
               6.99752261                7.99752220               46.07763795                0.01117609                0.02847373               -0.03789062                0.18175697                0.69546604                0.59635134                0.36037000
               7.99755329                7.99991550               46.08253489                0.01000002                0.06615830                0.05549881                0.18903703                0.56434048                0.63598453                0.61628209
               8.99884577                8.00079663               46.09038284                0.13004829                0.03406249                0.03766853                0.20439168                0.41095597                0.39392424                0.48714033
               9.99823454                7.99990062               46.09036148                0.61460180               -0.06112283                0.23998268                0.20330564                0.38358787               -0.00007732                0.43560364
               0.00225805                8.99915883               46.05649609                1.00000000               -0.03784170               -0.03828525                0.12814236                0.00018742                0.00124437                0.02288314
               1.00187963                8.99340318               46.05632190                0.99999999               -0.03720794               -0.03722723                0.12396142                0.00003774                0.00015433                0.00100831
               2.00151389                8.98764980               46.05612737                0.97582473               -0.03595322               -0.03601345                0.11968910               -0.00018597               -0.00687272               -0.01277942
               3.00116057                8.98189553               46.05581162                0.01000001               -0.05481923               -0.04098152                0.11531167                0.29337690                0.13440786               -0.02029702
               4.00041751                8.98209161               46.05843907                0.01000000               -0.09129535               -0.13848586                0.18275895                0.58863931                0.40663372                0.00738154
               4.99933466                8.98756429               46.06567822                0.01000000               -0.07280098               -0.08023505                0.16145323                0.58115257                0.66152323                0.11525754
               5.99896149                8.99235853               46.07282176                0.01110693                0.00962158               -0.08081951                0.17118725                0.45645990                0.68526767                0.16560033
               6.99952709                8.99675725               46.07977973                0.01000002                0.06974136               -0.10732432                0.18160959                0.43872044                0.87231461                0.13862019
               8.00035631                9.00105132               46.09034805                0.14503628                0.01072338                0.02624217                0.20449122                0.35478563                0.52974405                0.39577245
               8.99974156                9.00018099               46.09024759                0.98037858               -0.06121496               -0.06124770                0.20381719                0.00107166               -0.00248169               -0.00155945
               9.99913201                8.99929829               46.09020544                0.99361362               -0.06095456               -0.06039290                0.20268908                0.00075029               -0.00164942               -0.00382718
               0.00801013                9.99877332               46.05661317                1.00000000               -0.03808865               -0.03855130                0.12912401                0.00086084                0.01670831                0.01745491
               1.00762924                9.99302985               46.05643333                0.99965839               -0.03743494               -0.03733303                0.12494090                0.00070994                0.02101412                0.00096409
               2.00726143                9.98728830               46.05634255                0.90237200               -0.03616910               -0.03615030                0.12089074                0.00068229                0.02170311               -0.00451867
               3.00690586                9.98154841               46.05617689                0.10096642               -0.25021160               -0.03471165                0.11658384                0.31578089                0.11830025               -0.00528811
               4.00225720                9.98211333               46.05801603                0.07112209               -0.45395569                0.00217171                0.22012504                0.46772349                0.34778362                0.08753615
               4.99782675                9.98722350               46.06597166                0.01915564               -0.26685725               -0.03407870                0.16397263                0.32594432                0.72857364                0.04043768
               5.99692005                9.99164805               46.07369223                0.08463027               -0.01112613               -0.07104849                0.17356304                0.20346729                0.69766584                0.08898010
               6.99760422                9.99537571               46.08031699                0.09576729                0.21526095               -0.13815388                0.17739572                0.24732815                0.82057730                0.05403418
               8.00122527               10.00044035               46.09026719                0.62648497                0.15080053               -0.06109758                0.20321659                0.29669406                0.50047856                0.00049812
               9.00062023                9.99957168               46.09017646                0.99361582               -0.06051677               -0.06093088                0.20254777                0.00048823               -0.00080088               -0.00044321
              10.00001494                9.99869276               46.09013433                1.00000000               -0.06052978               -0.06055308                0.20141971                0.00040067               -0.00042582               -0.00162818
              -0.02823301               -0.00025257               47.04663675                0.97161643               -0.03115647               -0.03048490                0.10153717                0.00216717               -0.01307345                0.01098868
               0.97145543               -0.00203864               47.04805865                0.74496484               -0.03313661               -0.03291783                0.11008049                0.00090563               -0.01444453               -0.00593554
               1.97110426               -0.00383536               47.04940561                0.21978380               -0.04186111               -0.03549607                0.11758210               -0.00690476               -0.01629936               -0.00471091
               2.97061821               -0.00580136               47.05076838                0.05200726               -0.11351445               -0.03280590                0.12404292               -0.18863104                0.04615349               -0.00530634
               3.96883397               -0.01151162               47.05335636                0.11782874               -0.08616065               -0.00363111                0.11010685               -0.31028417                0.06628817               -0.00208046
               4.96889499               -0.01020328               47.05484497                0.29606604               -0.01105043               -0.03245092                0.11273777               -0.04577910                0.01045863               -0.00202710
               5.96861296               -0.00785160               47.05627006                0.79199675               -0.03165062               -0.03483187                0.11664874               -0.00417996                0.00754804               -0.00204745
               6.96826198               -0.00539533               47.05769274                1.00000000               -0.03582292               -0.03613266                0.12063740                0.00039341                0.00827997               -0.00164029
               7.96789651               -0.00293091               47.05913075                0.99077849               -0.03720836               -0.03733056                0.12463639                0.00057442                0.01009911               -0.00140901
               8.96751781               -0.00046408               47.06058888                1.00000000               -0.03851698               -0.03851797                0.12866233                0.00063663                0.00902078                0.00071710
               9.96712617                0.00200234               47.06200500                1.00000000               -0.03916482               -0.03975928                0.13267227                0.00073648                0.00690580                0.00681382
              -0.02642526                0.99944258               47.04669119                0.74528349               -0.03188580               -0.03069526                0.10137059               -0.00009329                0.00551963                0.01310051
               0.97325588                0.99763218               47.04811071                0.01067807               -0.03290812               -0.03260324                0.11005256               -0.00093102                0.00909384               -0.01042069
               1.97291657                0.99580968               47.04961732                0.01000000               -0.03429260               -0.04014245                0.11909839               -0.04044222                0.01351488                0.00749661
               2.97257003                0.99387058               47.05112316                0.01000001               -0.24922413               -0.02212657                0.12692373               -0.26224947                0.07182426                0.06420787
               3.96793209                0.98845207               47.05378309                0.01000000               -0.29814153                0.14673583                0.11017439               -0.09935391                0.06807017                0.02963152
               4.96660719                0.98947221               47.05524998                0.01000000               -0.08824505                0.04404765                0.11251871                0.14058243                0.00065178                0.03551624
               5.96616719                0.99180008               47.05661522                0.01000001               -0.04008130                0.00470779                0.11632653                0.09862786               -0.00477045                0.02751207
               6.96580557                0.99424334               47.05797837                0.54231775               -0.03652821               -0.03610337                0.12023965               -0.00071043               -0.00410756               -0.00658117
               7.96543663                0.99669579               47.05935518                0.98165294               -0.03740070               -0.03721222                0.12414486               -0.00012580               -0.00137899               -0.00282527
               8.96505755                0.99915074               47.06077139                0.99999999               -0.03847611               -0.03843504                0.12813554                0.00002414                0.00055330                0.00065077
               9.96466710                1.00160475               47.06218573                0.99893081               -0.03904518               -0.03967106                0.13214763                0.00010637                0.00049234                0.00877619
              -0.02461407                1.99913352               47.04680965                0.21799798               -0.03162221               -0.03606984                0.10190585               -0.01117880                0.00458572                0.02450975
               0.97506970                1.99730929               47.04807519                0.01000000               -0.06644551               -0.02594718                0.10916025               -0.01787118                0.04106323               -0.00556999
               1.97405702                1.99536179               47.05006953                0.01000001               -0.11694392               -0.02783273                0.22226123               -0.05538577                0.08555568                0.10731872
               2.97273083                1.99375611               47.05285969                0.01000000               -0.14058761               -0.01472431                0.11306322               -0.09720157                0.10972291                0.13737813
               3.97124526                1.99142310               47.05483652                0.01000000               -0.21860959                0.20475229                0.11762791                0.11912175                0.05000661                0.09840620
               4.96835863                1.99067767               47.05640284                0.01000001               -0.27154376                0.13515849                0.11644495                0.28942906                0.00523451                0.09574180
               5.96581439                1.99224256               47.05754951                0.01142025               -0.25032839                0.09645796                0.11834298                0.24241102               -0.04940797                0.08232457
               6.96335207                1.99388260               47.05816370                0.01619442               -0.14138974                0.02754693                0.11965955                0.10026566               -0.04742380                0.03840786
               7.96298659                1.99632485               47.05955034                0.04514671               -0.03713666               -0.03042961                0.12359421                0.01070392               -0.00791421               -0.00162422
               8.96260933                1.99876722               47.06095213                0.93710480               -0.03831649               -0.03824908                0.12758960               -0.00002593               -0.00445739               -0.00174361
               9.96222026                2.00120892               47.06240581                0.99999999               -0.03890688               -0.03952043                0.13167412                0.00011231               -0.00178560                0.00941938
              -0.02300038                2.99872118               47.04710688                0.06052272               -0.03294370                0.04397977                0.10274433               -0.19614955                0.00476386                0.45748007
               0.97667018                2.99711324               47.04821725                0.01000001               -0.08187880               -0.06253528                0.10837571               -0.21342381                0.17093231                0.40893171
               1.97536204                2.99525303               47.05265481                0.01000000               -0.10527476               -0.05087678                0.11289277               -0.06344283                0.21725988                0.22197181
               2.97456469                2.99357609               47.05454494                0.01000000               -0.09845410               -0.03923243                0.12553991                0.07895633                0.08727853                0.14825795
               3.97339296                2.99254712               47.05651190                0.01197349               -0.14941827                0.04517174                0.11933956                0.19240494                0.06348483                0.12106383
               4.97157632                2.99217538               47.05791530                0.01000000               -0.27912399                0.11401742                0.12055712                0.40378738                0.01125738                0.12142558
               5.96781048                2.99372924               47.05891309                0.01000001               -0.39238661                0.13829863                0.12181736                0.50411963               -0.04973585                0.16545273
               6.96372859                2.99479428               47.05934679                0.01000001               -0.35221960                0.14189290                0.12259403                0.48639395               -0.09282492                0.22273869
               7.96076609                2.99608720               47.05979687                0.01311500               -0.17778135                0.04372904                0.12353566                0.40469781               -0.06555652                0.18490232
               8.96017296                2.99838576               47.06108539                0.01000001               -0.04900771               -0.04144522                0.12697734                0.31930160               -0.01338242                0.10885300
               9.95978593                3.00081434               47.06259854                0.09278930               -0.03870274               -0.24801318                0.13111013                0.33693288               -0.00202367                0.07176311
              -0.02532117                4.00001312               47.05587801                0.12682419               -0.04094455                0.09285768                0.11894268               -0.29958986               -0.00501209                0.50148720
               0.97426938                3.99605859               47.05648752                0.01000000                0.08232370               -0.11093362                0.11679091               -0.18947810               -0.10702828                0.44337861
               1.97632530                3.99434426               47.05505183                0.01000000                0.13732395               -0.14658770                0.11660873                0.04836866               -0.07056685                0.19264279
               2.97701586                3.99297146               47.05652725                0.01197184                0.00843877               -0.10326756                0.11896838                0.18969657                0.06553513                0.13112722
               3.97649408                3.99232654               47.05787875                0.01000000               -0.08818001               -0.05980278                0.12137573                0.37397638                0.06614964                0.10848863
               4.97525226                3.99295802               47.05946511                0.01000001               -0.16080980                0.04089099                0.12398412                0.58765095                0.08781473                0.16259932
               5.97327788                3.99500853               47.06133460                0.01000001               -0.22651350                0.09377002                0.12831239                0.78410405                0.09169694                0.25925371
               6.97072199                3.99672046               47.06304988                0.01182658               -0.28944028                0.11998299                0.13458335                0.81750062                0.03391452                0.32057003
               7.96748907                3.99719943               47.06370415                0.01030867               -0.32268863                0.09390316                0.14134138                0.80946639               -0.04204222                0.38402907
               8.96426822                3.99793831               47.06347577                0.01000000               -0.16936639               -0.04198941                0.18020550                0.65192919                0.03936929                0.32090472
               9.96410175                3.99624866               47.06406371                0.07145877               -0.01664705               -0.42461071                0.20800626                0.51386210                0.10710591                0.23541479
              -0.02108312                5.00057833               47.05698983                0.29550915               -0.03674042                0.01624993                0.12325272               -0.06840760               -0.00469620                0.07253352
               0.97854948                4.99489456               47.05738267                0.01000000                0.02498305               -0.08240265                0.11954351                0.08917888               -0.04287579                0.03480495
               1.97941654                4.99232127               47.05700731                0.01000001                0.09134307               -0.20473142                0.11770387                0.24154417               -0.03274127                0.10076693
               2.98037634                4.99151074               47.05771035                0.01000000                0.07346913               -0.23521179                0.11976384                0.38526489                0.05820440                0.06958755
               3.98088593                4.99135106               47.05924741                0.01000001                0.01355037               -0.13071839                0.12271781                0.57972872                0.14362865                0.11227398
               4.98064735                4.99299320               47.06167486                0.01000001               -0.05779017               -0.03171129                0.12848841                0.79519049                0.20270903                0.20584688
               5.97973012                4.99560464               47.06441953                0.01179674               -0.13798236                0.00025364                0.13657878                0.85479639                0.16288276                0.24862775
               6.97788770                4.99719394               47.06603663                0.01000000               -0.19962795                0.02529740                0.14215611                0.84156926                0.10980432                0.31420862
               7.97573756                4.99796526               47.06764618                0.01000000               -0.18626921                0.09034411                0.15127617                0.85608719                0.15609823                0.45391019
               8.97416232                4.99754597               47.06989601                0.01000000               -0.11475419                0.00134408                0.16663715                0.65946933                0.13085122                0.55897444
               9.97344248                4.99232213               47.07087546                0.02554677               -0.07198356               -0.19121154                0.16885955                0.37318862                0.04619001                0.58351527
              -0.01532178                6.00033812               47.05721829                0.79941064               -0.03681986               -0.03036935                0.12479973               -0.00819535               -0.00521225                0.02380144
               0.98431002                5.99441053               47.05743071                0.01000001               -0.00691070               -0.04282657                0.12071809                0.07989207               -0.01198755               -0.00986796
               1.98454000                5.99024963               47.05750436                0.01142362                0.06906739               -0.21134168                0.11844277                0.21581165                0.02072790               -0.01208751
               2.98569137                5.98826722               47.05841047                0.01000001                0.10330943               -0.34329748                0.11904401                0.48274167                0.12993769               -0.01792343
               3.98660619                5.98971217               47.06064045                0.01000001                0.06055622               -0.18814382                0.12421303                0.75616872                0.24943493                0.09486481
               4.98690249                5.99232379               47.06395695                0.01179855               -0.02165632               -0.11266179                0.13348005                0.83891633                0.26475029                0.14706943
               5.98617307                5.99501360               47.06653457                0.01000000               -0.08548675               -0.07475737                0.14073259                0.85657822                0.24920119                0.21750765
               6.98519276                5.99722641               47.06955220                0.01000000               -0.09571379                0.01531543                0.15055657                0.91226359                0.31321914                0.40572447
               7.98425879                5.99900631               47.07336171                0.01000000               -0.10460118                0.09832791                0.16407069                0.86322669                0.31228477                0.59668624
               8.98310073                5.99796519               47.07627886                0.01112801               -0.11227973                0.08988650                0.17555417                0.53204534                0.18198645                0.60068623
               9.98201320                5.99242443               47.07757502                0.01000000               -0.10875372                0.09525223                0.17746539                0.24574019                0.09176040                0.58265762
              -0.00939186                6.99997095               47.05736281                0.99999999               -0.03723340               -0.03713355                0.12606905               -0.00020067               -0.00437798                0.02154926
               0.99023581                6.99403803               47.05741687                0.56530926               -0.03660261               -0.03712844                0.12181817               -0.00110548               -0.01709740               -0.01091179
               1.98987609                6.98809444               47.05721482                0.01619910                0.01664144               -0.12548192                0.11713641                0.09352324                0.01561361               -0.03998388
               2.99056863                6.98464479               47.05791882                0.01000001                0.10383206               -0.31583433                0.11648908                0.46690386                0.21130824               -0.11122947
               3.99195273                6.98758819               47.06157958                0.01182815                0.07778030               -0.23270402                0.12510889                0.78881497                0.33889087                0.00468506
               4.99212424                6.99073996               47.06486352                0.01000000                0.00031730               -0.16520447                0.13381205                0.79618050                0.35666868                0.08050561
               5.99195907                6.99410949               47.06893464                0.01000000                0.00080103               -0.08394974                0.14704904                0.87182757                0.46050849                0.27435279
               6.99214026                6.99750025               47.07434168                0.01000000                0.01521185                0.01763789                0.16315228                0.90627729                0.54023328                0.49185052
               7.99226331                6.99993182               47.07995109                0.01122782               -0.03775777                0.04768920                0.18262429                0.75703162                0.40512308                0.55188830
               8.99138511                6.99934370               47.08257577                0.01000002               -0.14122494                0.14710849                0.18448510                0.50362147                0.16641210                0.79912764
               9.98943881                6.99422717               47.08350084                0.10795831               -0.19462930                0.37870127                0.18110524                0.30068459                0.07074686                0.71407265
              -0.00345996                7.99959544               47.05754584                0.99102357               -0.03756194               -0.03783877                0.12729023                0.00011938               -0.00391467                0.02597918
               0.99616442                7.99366796               47.05743970                0.95184252               -0.03681646               -0.03705165                0.12281164               -0.00024694               -0.00757931               -0.00401073
               1.99580371                7.98773999               47.05726028                0.05107032               -0.03143601               -0.03558023                0.11812968                0.00637842               -0.02092126               -0.02219084
               2.99553570                7.98195054               47.05688485                0.01312114                0.02418067               -0.15881297                0.11371373                0.40595297                0.19632200               -0.09053677
               3.99628732                7.98505809               47.06103371                0.01031766                0.03845491               -0.20797611                0.11819265                0.72671934                0.45071414               -0.05394602
               4.99630480                7.98901971               47.06570077                0.01000000                0.02810058               -0.14398636                0.14093575                0.74449150                0.54553689                0.12054070
               5.99684933                7.99333461               47.07209890                0.01000000                0.05955919               -0.08395777                0.15557254                0.76916132                0.67980046                0.28135041
               6.99749598                7.99757917               47.07944276                0.01123655                0.03533208               -0.03473436                0.17954960                0.69929994                0.61642542                0.36645641
               7.99755598                7.99996010               47.08442443                0.01000002                0.06909135                0.06090709                0.18815630                0.57451187                0.65141711                0.62688841
               8.99887781                8.00090736               47.09243382                0.12985244                0.03519808                0.04658213                0.20721771                0.42235021                0.40277336                0.49860403
               9.99825994                7.99999845               47.09240103                0.61328346               -0.06178704                0.25764179                0.20600357                0.39531319               -0.00024811                0.44834618
               0.00246549                8.99921417               47.05777980                1.00000000               -0.03791668               -0.03842994                0.12860907                0.00022090                0.00122827                0.02312473
               1.00208632                8.99329700               47.05756169                0.99999999               -0.03722012               -0.03723880                0.12399923                0.00003258                0.00008579                0.00099190
               2.00172108                8.98738284               47.05732231                0.98264603               -0.03583614               -0.03589280                0.11929377               -0.00018962               -0.00704256               -0.01288266
               3.00136960                8.98146853               47.05696069                0.01000001               -0.11515691               -0.04134877                0.11448447                0.38919842                0.18538730               -0.02075073
               3.99941795                8.98342866               47.06056625                0.01000000               -0.13160228               -0.05802762                0.18173892                0.53449269                0.46849243                0.04257934
               4.99873755                8.98786024               47.06714610                0.01000000               -0.03175525               -0.08469500                0.14588724                0.50171309                0.66722899                0.10800355
               5.99878284                8.99243034               47.07450240                0.01117241                0.03816095               -0.08290496                0.16538348                0.44215828                0.71165865                0.16974531
               6.99950077                8.99680556               47.08157955                0.01000002                0.08212548               -0.10970732                0.17907957                0.43795557                0.89496662                0.13576036
               8.00042535                9.00114996               47.09240058                0.14445018                0.01464906                0.02860822                0.20735309                0.36098667                0.54418807                0.40477823
               8.99979375                9.00027534               47.09233985                0.98064777               -0.06312283               -0.06313547                0.20958090                0.00184714               -0.00052032                0.00057096
               9.99916289                8.99938001               47.09228576                0.99382762               -0.06308576               -0.06224605                0.20832554                0.00038936               -0.00106674               -0.00175455
               0.00837880                9.99882685               47.05790791                1.00000000               -0.03823966               -0.03873266                0.12983998                0.00096596                0.01688071                0.01764820
               1.00799641                9.99292319               47.05768412                0.99947552               -0.03752111               -0.03738096                0.12522647                0.00077315                0.02124312                0.00096508
               2.00762838                9.98702214               47.05755074                0.90326384               -0.03612850               -0.03607000                0.12074683                0.00074827                0.02186611               -0.00448187
               3.00727384                9.98112356               47.05733994                0.10548687               -0.35214544               -0.03449726                0.11601887                0.43419396                0.20338427               -0.00536148
               4.00058547                9.98389754               47.06083489                0.07168599               -0.49682259                0.04688705                0.24791866                0.42686484                0.43594795                0.11949116
               4.99733738                9.98732581               47.06750698                0.01950661               -0.19191493               -0.05344313                0.15773959                0.24893193                0.70581437                0.04625928
               5.99674717                9.99167651               47.07541405                0.08470948                0.00990430               -0.07538307                0.17126235                0.19939392                0.71850106                0.09287081
               6.99753547                9.99538502               47.08207605                0.09620851                0.22793782               -0.14205431                0.17531168                0.24625767                0.84008208                0.05095483
               8.00130593               10.00053226               47.09230662                0.62446008                0.15746142               -0.06176984                0.20601068                0.30103970                0.51632130                0.00036738
               9.00068470                9.99964465               47.09225553                0.99382953               -0.06237725               -0.06306862                0.20822793                0.00015838                0.00119056                0.00016651
              10.00005839                9.99875353               47.09220145                1.00000000               -0.06263141               -0.06264761                0.20697256                0.00043704                0.00018779               -0.00105170
              -0.02980051               -0.00019862               48.04766101                0.97048609               -0.03219481               -0.03103358                0.10325955                0.00087062               -0.01115314                0.01082549
               0.96987754               -0.00215006               48.04915368                0.74362512               -0.03325976               -0.03285761                0.10978307                0.00098326               -0.01513729               -0.00541422
               1.96953429               -0.00410705               48.05057870                0.21956952               -0.04102314               -0.03513353                0.11665378               -0.00688341               -0.01810215               -0.00542846
               2.96905708               -0.00622875               48.05200426                0.05273682               -0.10483079               -0.03222488                0.12277592               -0.18179249                0.03400776               -0.00586067
               3.96743768               -0.01195933               48.05445606                0.11811538               -0.07670109               -0.00341530                0.10984002               -0.31100411                0.05653967               -0.00200606
               4.96752306               -0.01062756               48.05597075                0.29581536               -0.00964103               -0.03230902                0.11243239               -0.04738475                0.00975030               -0.00204238
               5.96724486               -0.00821573               48.05743526                0.79059583               -0.03141765               -0.03473203                0.11640208               -0.00436350                0.00755268               -0.00206782
               6.96689470               -0.00569548               48.05889826                1.00000000               -0.03575925               -0.03606035                0.12047419                0.00039675                0.00832907               -0.00165964
               7.96652967               -0.00316719               48.06037670                0.99081688               -0.03717874               -0.03728377                0.12455808                0.00058679                0.01016322               -0.00145000
               8.96615113               -0.00063683               48.06187552                1.00000000               -0.03851719               -0.03849592                0.12866933                0.00065079                0.00908825                0.00071118
               9.96575933                0.00189268               48.06333219                1.00000000               -0.03917997               -0.03976311                0.13276429                0.00077611                0.00696487                0.00687804
              -0.02784036                0.99949104               48.04771478                0.74396718               -0.03180476               -0.03122952                0.10312321               -0.00029089                0.00498232                0.01357148
               0.97184159                0.99752136               48.04921046                0.01037406               -0.03274171               -0.03264950                0.10987257               -0.00064783                0.00952720               -0.01038352
               1.97150480                0.99554161               48.05079918                0.01000000               -0.03381488               -0.03493254                0.11717457               -0.03461622                0.01413127                0.02766587
               2.97116529                0.99344900               48.05238192                0.01000001               -0.24888787               -0.01934291                0.12423877               -0.24986497                0.06037054                0.06152695
               3.96652704                0.98800652               48.05488158                0.01000000               -0.29939395                0.15006561                0.10947799               -0.09347491                0.05691945                0.03177217
               4.96517741                0.98904935               48.05637269                0.01000000               -0.08959306                0.04635434                0.11202884                0.14745882               -0.00028657                0.03748346
               5.96473518                0.99143695               48.05777644                0.01000001               -0.04015072                0.00664195                0.11592420                0.10362775               -0.00492958                0.02841857
               6.96437440                0.99394391               48.05917915                0.54036739               -0.03644850               -0.03600913                0.11992007               -0.00073758               -0.00422041               -0.00669831
               7.96400621                0.99645998               48.06059544                0.98230659               -0.03733471               -0.03714033                0.12390740               -0.00013083               -0.00145330               -0.00289817
               8.96362770                0.99897821               48.06205199                0.99999999               -0.03843159               -0.03838921                0.12798275                0.00002538                0.00053393                0.00063536
               9.96323758                1.00149505               48.06350690                0.99873826               -0.03901219               -0.03965028                0.13208002                0.00013191                0.00048631                0.00886853
              -0.02586697                1.99917679               48.04783320                0.21773320               -0.03190198               -0.03619833                0.10303366               -0.01047372                0.00499397                0.02568836
               0.97381401                1.99719695               48.04916797                0.01000000               -0.06093535               -0.02637155                0.10929317               -0.01222425                0.06327550               -0.00653942
               1.97291433                1.99519430               48.05167290                0.01000001               -0.11095710               -0.02159034                0.14325804               -0.04995874                0.12431298                0.13333961
               2.97159487                1.99338439               48.05409395                0.01000000               -0.14732452               -0.00955893                0.12272829               -0.08894452                0.09670848                0.13280299
               3.96996784                1.99104198               48.05598046                0.01000000               -0.22765328                0.21138364                0.11525032                0.13684889                0.04558726                0.10214929
               4.96704181                1.99029952               48.05756246                0.01000001               -0.27724945                0.14029741                0.11518470                0.30896663                0.00399378                0.09883826
               5.96442285                1.99191711               48.05872542                0.01142193               -0.25924419                0.10269817                0.11712352                0.25670517               -0.05131926                0.08440312
               6.96185692                1.99358433               48.05935786                0.01619217               -0.14650450                0.03192178                0.11917322                0.10706458               -0.04866246                0.03958281
               7.96149276                1.99609001               48.06078431                0.04570720               -0.03701795               -0.02989199                0.12319564                0.01126337               -0.00804440               -0.00151799
               8.96111656                1.99859539               48.06222649                0.94173546               -0.03822317               -0.03815551                0.12727621               -0.00002831               -0.00450937               -0.00179878
               9.96072829                2.00109968               48.06372147                0.99999999               -0.03882697               -0.03945118                0.13144794                0.00013724               -0.00178745                0.00949660
              -0.02409016                2.99876707               48.04813756                0.06027217               -0.03302485                0.04546737                0.10351520               -0.18252406                0.00503051                0.46653541
               0.97557959                2.99699393               48.04930292                0.01000001               -0.07958314               -0.06482801                0.10863455               -0.19242183                0.17607954                0.41196189
               1.97431818                2.99510980               48.05389089                0.01000000               -0.10204406               -0.05497679                0.12210796               -0.05204613                0.21955074                0.20652492
               2.97353871                2.99325782               48.05576569                0.01000000               -0.09846437               -0.03396287                0.12065753                0.08944396                0.08816283                0.14942032
               3.97234889                2.99223419               48.05769707                0.01197371               -0.15285443                0.04994820                0.11788550                0.21594125                0.06226000                0.12322855
               4.97048162                2.99185530               48.05910760                0.01000000               -0.28822075                0.12003313                0.11846438                0.43083633                0.01067479                0.12399499
               5.96658448                2.99349091               48.06011905                0.01000001               -0.40694180                0.14647748                0.11966638                0.53517569               -0.05180299                0.16942440
               6.96234279                2.99458235               48.06056207                0.01000001               -0.36820247                0.14969830                0.12082248                0.51946655               -0.09616561                0.22863776
               7.95922043                2.99586214               48.06102871                0.01316979               -0.18626591                0.05269848                0.12276443                0.45153437               -0.06739108                0.18580235
               8.95861747                2.99821510               48.06235285                0.01000001               -0.04943380               -0.10447668                0.12650258                0.43143401               -0.01372263                0.15074677
               9.95823175                3.00070603               48.06390779                0.09561739               -0.03857179               -0.35106112                0.13072338                0.47141886               -0.00204787                0.13823739
              -0.02597116                4.00008613               48.05706370                0.12589405               -0.04059966                0.09309363                0.11811567               -0.28929673               -0.00523466                0.51122338
               0.97362285                3.99590039               48.05764920                0.01000000                0.07903326               -0.11148073                0.11546921               -0.17202413               -0.10705355                0.44665907
               1.97560951                3.99409476               48.05618895                0.01000000                0.13182588               -0.15054161                0.11460737                0.07113693               -0.06828674                0.18983529
               2.97625936                3.99270514               48.05771005                0.01197413                0.00398412               -0.09989085                0.11764558                0.21267394                0.06893033                0.12947921
               3.97568919                3.99204095               48.05907943                0.01000000               -0.09287744               -0.05746317                0.11910005                0.39963057                0.06846504                0.10912206
               4.97440181                3.99270019               48.06069005                0.01000001               -0.16449414                0.04706942                0.12143046                0.62089751                0.09002368                0.16530399
               5.97239931                3.99484666               48.06259392                0.01000001               -0.22633941                0.09966694                0.12451773                0.82390054                0.09389823                0.26537726
               6.96987503                3.99657830               48.06436514                0.01183897               -0.27543083                0.12511499                0.12808648                0.86680782                0.02782517                0.32937487
               7.96689069                3.99714398               48.06494904                0.01035149               -0.24868365                0.08936249                0.12366143                0.80583096               -0.02182624                0.39410755
               8.96490135                3.99650585               48.06557585                0.01000000               -0.08579335               -0.07766543                0.18298381                0.60981210                0.06117636                0.37024595
               9.96517482                3.99407845               48.06669526                0.07181104                0.02734700               -0.46462272                0.24119102                0.49090120                0.12361922                0.30363771
              -0.02150460                5.00062895               48.05821961                0.29451808               -0.03649187                0.01491702                0.12265487               -0.06621420               -0.00474216                0.07450935
               0.97813048                4.99476431               48.05857303                0.01000000                0.02203823               -0.08058840                0.11850159                0.09572539               -0.04182927                0.03542912
               1.97893617                4.99209897               48.05817935                0.01000001                0.08577596               -0.20384618                0.11635937                0.25793892               -0.03054035                0.10165203
               2.97984600                4.99126001               48.05889556                0.01000000                0.07051430               -0.23663707                0.11779573                0.40813865                0.06175917                0.06821274
               3.98034645                4.99108493               48.06046005                0.01000001                0.01239321               -0.12829229                0.12034534                0.60927693                0.14866615                0.11165592
               4.98009387                4.99279668               48.06293986                0.01000001               -0.05810391               -0.02605454                0.12518867                0.83076678                0.20947187                0.20816174
               5.97918437                4.99548425               48.06575928                0.01180672               -0.13561222                0.00353757                0.13206248                0.88851457                0.16769596                0.25366280
               6.97738162                4.99708465               48.06741242                0.01000000               -0.18874409                0.02720931                0.13507370                0.86088005                0.11408680                0.32284078
               7.97540949                4.99764939               48.06914008                0.01000000               -0.17511934                0.08333141                0.14503585                0.83601281                0.15445698                0.47649841
               8.97387924                4.99666179               48.07141405                0.01000000               -0.12524571                0.05624678                0.15050866                0.58446666                0.12753733                0.56131561
               9.97290458                4.99141357               48.07248407                0.02570658               -0.09746573               -0.10689892                0.16417489                0.29894752                0.05358312                0.56231606
              -0.01556618                6.00038447               48.05846471                0.79578424               -0.03664960               -0.03057156                0.12444811               -0.00778548               -0.00526788                0.02416521
               0.98406733                5.99428862               48.05863411                0.01000001               -0.00806155               -0.04229910                0.11994904                0.08314265               -0.01123012               -0.00995243
               1.98427259                5.99001784               48.05868069                0.01142429                0.06844268               -0.21446759                0.11712146                0.22750057                0.02272031               -0.01377169
               2.98543618                5.98797239               48.05958932                0.01000001                0.10327301               -0.34914365                0.11716657                0.50614647                0.13498596               -0.02184985
               3.98633805                5.98947510               48.06186542                0.01000001                0.05908249               -0.18480114                0.12150674                0.78778508                0.25814301                0.09098431
               4.98661783                5.99217910               48.06526747                0.01180644               -0.02282090               -0.10862030                0.12984931                0.86915482                0.27488255                0.14497383
               5.98588163                5.99491741               48.06791525                0.01000000               -0.08451703               -0.07204977                0.13651479                0.88055927                0.25933578                0.22030093
               6.98492749                5.99712249               48.07103515                0.01000000               -0.09239162                0.01884361                0.14655227                0.92843118                0.32437834                0.41720693
               7.98403380                5.99881061               48.07496258                0.01000000               -0.10504943                0.11335014                0.15798301                0.86555578                0.32316682                0.61608056
               8.98282650                5.99763079               48.07800572                0.01119849               -0.11917918                0.12967064                0.17012704                0.52683464                0.18894083                0.62211820
               9.98165022                5.99194047               48.07933793                0.01000000               -0.11762831                0.12702596                0.17586184                0.24739177                0.09613699                0.59786309
              -0.00946860                7.00001751               48.05862323                0.99999999               -0.03714312               -0.03714284                0.12599185               -0.00015636               -0.00440782                0.02176641
               0.99015997                6.99391833               48.05863264                0.55985132               -0.03645018               -0.03696306                0.12133279               -0.00108913               -0.01732345               -0.01107497
               1.98980240                6.98780962               48.05838182                0.01619505                0.01758465               -0.12802890                0.11628837                0.09900688                0.01705859               -0.04141771
               2.99051167                6.98427713               48.05907464                0.01000001                0.10465262               -0.32284791                0.11510583                0.48881229                0.21696098               -0.11681058
               3.99189545                6.98738891               48.06279630                0.01183986                0.07614964               -0.23288255                0.12171554                0.81803154                0.35087786               -0.00749002
               4.99203466                6.99062428               48.06617440                0.01000000               -0.00216418               -0.16113278                0.13053585                0.81763383                0.37251646                0.07362541
               5.99185217                6.99404325               48.07038292                0.01000000                0.00111945               -0.07968644                0.14370384                0.88967245                0.48012435                0.27666758
               6.99205705                6.99746152               48.07595293                0.01000000                0.01800677                0.02454833                0.16012805                0.92356157                0.56183805                0.50545875
               7.99221230                6.99991639               48.08176536                0.01129233               -0.03854943                0.05965887                0.18081961                0.76752279                0.41774088                0.56660856
               8.99128606                6.99925521               48.08440346                0.01000002               -0.14896300                0.16869202                0.18222747                0.50679250                0.16697859                0.81910676
               9.98923304                6.99395409               48.08529877                0.10905167               -0.20530144                0.40710714                0.17946165                0.30213638                0.06949156                0.73135573
              -0.00337094                7.99964162               48.05881980                0.99102595               -0.03756238               -0.03791266                0.12748974                0.00014554               -0.00398389                0.02623034
               0.99625344                7.99354936               48.05866675                0.95191730               -0.03675677               -0.03698684                0.12260278               -0.00027486               -0.00774737               -0.00413750
               1.99589393                7.98745726               48.05843840                0.05037359               -0.03101486               -0.03539688                0.11752276                0.00688578               -0.02107307               -0.02254399
               2.99563314                7.98151544               48.05801659                0.01317424                0.02288063               -0.16258515                0.11266129                0.42364502                0.20102120               -0.09313761
               3.99635154                7.98481745               48.06221504                0.01036028                0.03415092               -0.21234410                0.12097972                0.75737504                0.46342276               -0.06709630
               4.99631616                7.98895644               48.06706359                0.01000000                0.02431503               -0.13530682                0.13493976                0.76073297                0.57694681                0.10667299
               5.99683784                7.99332368               48.07363114                0.01000000                0.06047127               -0.08024834                0.15301830                0.77830238                0.71164286                0.28218770
               6.99752558                7.99761345               48.08122894                0.01130258                0.03763658               -0.03111791                0.17869456                0.70756508                0.63876170                0.37284101
               7.99759057                8.00000378               48.08629801                0.01000002                0.06995320                0.06741576                0.18729251                0.58293231                0.66946587                0.64121705
               8.99892465                8.00100463               48.09452719                0.12986344                0.03523026                0.05577456                0.21016025                0.43193745                0.41433622                0.51216307
               9.99829518                8.00008262               48.09448155                0.61275643               -0.06294724                0.27543414                0.20880877                0.40708952               -0.00012811                0.46272663
               0.00271883                8.99925926               48.05906827                1.00000000               -0.03800018               -0.03857786                0.12909145                0.00024578                0.00121473                0.02338217
               1.00233883                8.99317859               48.05880189                0.99999999               -0.03724000               -0.03725410                0.12405473                0.00001275                0.00000978                0.00097317
               2.00197403                8.98710168               48.05851325                0.98940409               -0.03572302               -0.03577285                0.11889145               -0.00020763               -0.00723848               -0.01301360
               3.00162437                8.98102543               48.05810131                0.01000000               -0.11860428               -0.04163737                0.11360695                0.40482988                0.20600359               -0.02123555
               3.99960195                8.98314202               48.06207385                0.01000000               -0.14406408               -0.04257844                0.14221479                0.56751415                0.54469345                0.00466273
               4.99874309                8.98791814               48.06859596                0.01000000               -0.04203728               -0.07647645                0.14605502                0.51719855                0.71179641                0.09556911
               5.99876120                8.99243829               48.07612943                0.01123958                0.03925767               -0.08207595                0.16381964                0.44020931                0.74300952                0.17144048
               6.99952824                8.99683916               48.08336133                0.01000002                0.08592846               -0.11058223                0.17856776                0.44070681                0.92355914                0.13227836
               8.00047977                9.00126470               48.09449511                0.14412550                0.01588642                0.03159223                0.21026627                0.36565920                0.55996592                0.41644083
               8.99984597                9.00037070               48.09443920                0.98092599               -0.06304560               -0.06304869                0.20983467                0.00113143               -0.00014974                0.00103261
               9.99921886                8.99946277               48.09437195                0.99405053               -0.06271119               -0.06211342                0.20845584                0.00079103               -0.00053355               -0.00130569
               0.00879531                9.99887006               48.05920997                1.00000000               -0.03840396               -0.03892026                0.13058920                0.00106912                0.01706636                0.01785846
               1.00841127                9.99280427               48.05893786                0.99928067               -0.03761869               -0.03743207                0.12553979                0.00083096                0.02147059                0.00095961
               2.00804294                9.98674180               48.05875749                0.90420116               -0.03609369               -0.03598816                0.12059666                0.00081098                0.02201343               -0.00445342
               3.00768940                9.98068269               48.05849727                0.11139044               -0.36169127               -0.03427423                0.11542280                0.46770656                0.25499738               -0.00542114
               4.00080911                9.98396588               48.06297440                0.07255363               -0.51627650                0.08238589                0.18468115                0.45792737                0.55373310                0.07980537
               4.99736387                9.98742691               48.06912645                0.01985623               -0.20440537               -0.04912299                0.16304002                0.24789148                0.71681272                0.05013609
               5.99672100                9.99168216               48.07711747                0.08482876                0.00747175               -0.07561273                0.17170526                0.19472491                0.73673617                0.09690081
               6.99751330                9.99540181               48.08382322                0.09669440                0.23256078               -0.14373544                0.17532451                0.24617923                0.86331665                0.04782882
               8.00137222               10.00063563               48.09438740                0.62336926                0.16179525               -0.06290773                0.20886490                0.30633712                0.53314976                0.00049250
               9.00074921                9.99974366               48.09434102                0.99405205               -0.06226875               -0.06270414                0.20841575                0.00055957                0.00155449                0.00069594
              10.00012684                9.99884035               48.09427378                1.00000000               -0.06223628               -0.06224252                0.20703693                0.00046762                0.00071604               -0.00051965
              -0.03144142               -0.00014361               49.04870194                0.96938258               -0.03235908               -0.03145764                0.10487336                0.00075692               -0.01148286                0.01091124
               0.96823499               -0.00226048               49.05025431                0.74230816               -0.03334656               -0.03293010                0.11017769                0.00063889               -0.01508932               -0.00552145
               1.96789165               -0.00438489               49.05173869                0.21944322               -0.04069902               -0.03463134                0.11547744               -0.00706161               -0.01838510               -0.00542001
               2.96742101               -0.00667390               49.05322390                0.05355522               -0.09466864               -0.03146752                0.12089361               -0.17349139                0.02443234               -0.00603508
               3.96599827               -0.01240278               49.05555316                0.11841884               -0.06551047               -0.00340987                0.10956237               -0.31056319                0.04734352               -0.00194790
               4.96611080               -0.01104802               49.05709362                0.29556091               -0.00808827               -0.03218102                0.11215629               -0.04904581                0.00895915               -0.00206292
               5.96583651               -0.00857531               49.05859810                0.78918638               -0.03118355               -0.03463892                0.11618009               -0.00455108                0.00754482               -0.00208860
               6.96548713               -0.00599031               49.06010222                1.00000000               -0.03570045               -0.03599216                0.12032844                0.00039894                0.00837982               -0.00167988
               7.96512250               -0.00339740               49.06162191                0.99085875               -0.03715229               -0.03723894                0.12449046                0.00059826                0.01022979               -0.00149256
               8.96474408               -0.00080279               49.06316226                1.00000000               -0.03851865               -0.03847379                0.12868039                0.00066386                0.00915816                0.00070552
               9.96435213                0.00179049               49.06466029                1.00000000               -0.03919543               -0.03976473                0.13285348                0.00081600                0.00702636                0.00694492
              -0.02931698                0.99954182               49.04875365                0.74268069               -0.03210036               -0.03159411                0.10457039               -0.00027585                0.00522268                0.01375245
               0.97036202                0.99741022               49.05030816                0.01006610               -0.03276398               -0.03267373                0.10980096               -0.00062482                0.00987203               -0.01062995
               1.97002774                0.99526880               49.05196081                0.01000000               -0.03334885               -0.03391137                0.11537223               -0.03365706                0.01464554                0.03263986
               2.96969504                0.99301142               49.05360793                0.01000001               -0.24740186               -0.01488523                0.12104381               -0.23846206                0.05090243                0.06083694
               3.96507970                0.98756312               49.05597265                0.01000000               -0.29942172                0.15266891                0.10874906               -0.08455159                0.04740580                0.03547990
               4.96370661                0.98863017               49.05749055                0.01000000               -0.09087805                0.04837754                0.11155647                0.15489648               -0.00110083                0.03901056
               5.96326214                0.99107830               49.05893370                0.01000001               -0.04022237                0.00816624                0.11553794                0.10878440               -0.00508255                0.02913512
               6.96290216                0.99364977               49.06037677                0.53837257               -0.03637114               -0.03591764                0.11960953               -0.00076425               -0.00433446               -0.00682157
               7.96253472                0.99623021               49.06183333                0.98294294               -0.03726918               -0.03706923                0.12367207               -0.00013570               -0.00152903               -0.00297373
               8.96215677                0.99881248               49.06333104                0.99999999               -0.03838562               -0.03834191                0.12782527                0.00002667                0.00051421                0.00061952
               9.96176701                1.00139285               49.06482733                0.99851803               -0.03897672               -0.03962628                0.13200082                0.00015881                0.00048014                0.00896395
              -0.02718374                1.99922451               49.04887032                0.21756326               -0.03207477               -0.03602142                0.10431799               -0.00952222                0.00502476                0.02618791
               0.97249551                1.99708604               49.05026105                0.01000000               -0.05994784               -0.02694843                0.10925477               -0.01055990                0.06903205               -0.00695315
               1.97161730                1.99493688               49.05293469                0.01000001               -0.10690322               -0.02006594                0.12229881               -0.03975520                0.12138981                0.13101829
               2.97035744                1.99302840               49.05531426                0.01000000               -0.14644000               -0.00315148                0.11919283               -0.07297848                0.08358612                0.13103026
               3.96868850                1.99065060               49.05714153                0.01000000               -0.23319475                0.21747981                0.11552328                0.15538385                0.03923204                0.10558764
               4.96569355                1.98991953               49.05870653                0.01000001               -0.28479512                0.14487606                0.11421081                0.32993260                0.00099353                0.10161061
               5.96299260                1.99158801               49.05989198                0.01142065               -0.26868118                0.10854640                0.11635596                0.27148085               -0.05299716                0.08571756
               6.96031993                1.99329134               49.06054717                0.01619065               -0.15177604                0.03549943                0.11868725                0.11333295               -0.04971897                0.04036824
               7.95995708                1.99586122               49.06201426                0.04626695               -0.03689719               -0.02958541                0.12279044                0.01159024               -0.00817626               -0.00155198
               8.95958198                1.99843038               49.06349765                0.94639939               -0.03812568               -0.03805731                0.12694931               -0.00002960               -0.00456337               -0.00185611
               9.95919456                2.00099797               49.06503476                0.99999999               -0.03874191               -0.03937726                0.13120186                0.00016433               -0.00179027                0.00957596
              -0.02523049                2.99882139               49.04917719                0.06007315               -0.03310620                0.04655117                0.10444564               -0.16566953                0.00520353                0.47429195
               0.97443844                2.99687125               49.05038994                0.01000001               -0.07396100               -0.06821931                0.10871688               -0.17231784                0.17983498                0.41451153
               1.97329029                2.99486748               49.05509697                0.01000000               -0.09583434               -0.05421947                0.11790460               -0.03207231                0.22391637                0.19426196
               2.97252176                2.99294839               49.05695809                0.01000000               -0.09970196               -0.02986124                0.11795310                0.10958901                0.08541069                0.14615406
               3.97129625                2.99191272               49.05886961                0.01197372               -0.15769577                0.05476996                0.11665049                0.23870876                0.05973933                0.12330266
               4.96936784                2.99152769               49.06028459                0.01000000               -0.29881475                0.12561586                0.11728089                0.45906025                0.00899706                0.12612048
               5.96531995                2.99324923               49.06130642                0.01000001               -0.42361161                0.15439136                0.11836412                0.56601097               -0.05476508                0.17225290
               6.96089561                2.99435976               49.06176324                0.01000001               -0.38462341                0.15831359                0.11989313                0.54963611               -0.10003196                0.23103549
               7.95762748                2.99563851               49.06225216                0.01322831               -0.19380884                0.05544984                0.12194919                0.47881688               -0.06898362                0.18619156
               8.95701943                2.99805133               49.06361544                0.01000000               -0.04961874               -0.10741716                0.12600486                0.45651707               -0.01393019                0.16594014
               9.95663511                3.00060530               49.06521301                0.09860651               -0.03843237               -0.36264193                0.13030832                0.51243503               -0.00207310                0.18303230
              -0.02659686                4.00015553               49.05824033                0.12494010               -0.04000812                0.09230641                0.11710884               -0.27610278               -0.00547386                0.51990722
               0.97300306                3.99572166               49.05879690                0.01000000                0.07477836               -0.11265090                0.11401675               -0.14941680               -0.10520686                0.44916228
               1.97489871                3.99385249               49.05734398                0.01000000                0.12504640               -0.15024519                0.11485175                0.09512138               -0.06622649                0.18589540
               2.97550399                3.99243117               49.05888016                0.01197313               -0.00076635               -0.09763314                0.11638604                0.23512842                0.07030012                0.12693927
               3.97488338                3.99174600               49.06026075                0.01000000               -0.09828717               -0.05572602                0.11753500                0.42596908                0.06960250                0.10894542
               4.97353825                3.99243185               49.06189372                0.01000001               -0.17013159                0.05256607                0.11988811                0.65497786                0.09072389                0.16727176
               5.97148075                3.99467584               49.06382495                0.01000001               -0.23074383                0.10536709                0.12259285                0.86586441                0.09159766                0.27043459
               6.96892337                3.99645761               49.06561161                0.01185055               -0.28194551                0.13104996                0.12503114                0.90937028                0.01653626                0.33680489
               7.96584184                3.99697022               49.06617738                0.01039774               -0.25889200                0.09215904                0.12674872                0.85110061               -0.03770322                0.40035364
               8.96374553                3.99628203               49.06713545                0.01000000               -0.07532591               -0.08544572                0.14954498                0.65622739                0.01319935                0.44168310
               9.96433532                3.99374513               49.06888753                0.07235081                0.05897933               -0.48397606                0.19262522                0.53325932                0.07302277                0.41242384
              -0.02188480                5.00066752               49.05944292                0.29352605               -0.03620536                0.01311317                0.12194230               -0.06338280               -0.00478552                0.07644821
               0.97775315                4.99461823               49.05975271                0.01000000                0.01840009               -0.07848953                0.11741636                0.10307171               -0.04087590                0.03610758
               1.97848320                4.99186258               49.05933450                0.01000001                0.07888391               -0.20403811                0.11515469                0.27589965               -0.02818894                0.10068964
               2.97933083                4.99099573               49.06006626                0.01000000                0.06658756               -0.23900091                0.11663066                0.43189959                0.06510182                0.06630560
               3.97981495                4.99079820               49.06165432                0.01000001                0.01033656               -0.12751946                0.11899390                0.63953972                0.15267664                0.11073785
               4.97953756                4.99257901               49.06417863                0.01000001               -0.06017374               -0.02215587                0.12342047                0.86852193                0.21412411                0.21036265
               5.97861148                4.99535657               49.06706078                0.01181558               -0.13744588                0.00600707                0.12972807                0.92565528                0.16862144                0.25911214
               6.97678864                4.99698075               49.06873810                0.01000000               -0.18932037                0.02862141                0.13269761                0.89173691                0.11027753                0.33411873
               7.97482507                4.99748169               49.07054690                0.01000000               -0.17097859                0.08662108                0.13981893                0.86356877                0.14129174                0.50409056
               8.97336907                4.99634242               49.07290618                0.01000000               -0.12254846                0.05680594                0.15137554                0.61013848                0.11491016                0.60296827
               9.97237410                4.99092578               49.07415896                0.02627756               -0.09949652               -0.10890685                0.16978765                0.30514608                0.05757977                0.56776273
              -0.01576595                6.00041780               49.05970725                0.79216912               -0.03646187               -0.03081681                0.12400625               -0.00729508               -0.00532056                0.02452382
               0.98386943                5.99415187               49.05982969                0.01000001               -0.00974259               -0.04171692                0.11915836                0.08657696               -0.01038880               -0.01001461
               1.98403920                5.98977173               49.05984679                0.01142497                0.06684628               -0.21771024                0.11616185                0.23956747                0.02476343               -0.01511968
               2.98520636                5.98765115               49.06075380                0.01000001                0.10258484               -0.35572112                0.11608656                0.52932097                0.13966952               -0.02554157
               3.98609090                5.98919561               49.06307059                0.01000001                0.05719756               -0.18547161                0.12035187                0.81965717                0.26620933                0.08836988
               4.98635031                5.99198873               49.06655394                0.01181628               -0.02493939               -0.10813265                0.12856185                0.90253832                0.28335311                0.14428843
               5.98559211                5.99479598               49.06926486                0.01000000               -0.08586619               -0.07148083                0.13471573                0.91064297                0.26689018                0.22469699
               6.98463299                5.99703004               49.07248325                0.01000000               -0.09202782                0.02174367                0.14437776                0.95562984                0.33139307                0.43190685
               7.98375155                5.99870264               49.07652137                0.01000000               -0.10643917                0.12234378                0.15613786                0.88653229                0.32791087                0.64385869
               8.98250420                5.99741815               49.07968140                0.01127624               -0.12400199                0.14309737                0.16878007                0.53432789                0.19270173                0.65050526
               9.98127151                5.99156699               49.08109226                0.01000000               -0.12326898                0.13924420                0.17689641                0.24807991                0.10070046                0.61244894
              -0.00949884                7.00005118               49.05988264                0.99999999               -0.03704065               -0.03713926                0.12584623               -0.00010794               -0.00442841                0.02200421
               0.99013075                6.99378389               49.05984352                0.55433435               -0.03629445               -0.03679484                0.12084526               -0.00106874               -0.01750928               -0.01121464
               1.98977527                6.98750837               49.05954059                0.01619376                0.01813102               -0.13070262                0.11550939                0.10453095                0.01866718               -0.04287112
               2.99049337                6.98388131               49.06022094                0.01000001                0.10476265               -0.32950231                0.11425503                0.50767592                0.22405776               -0.12147406
               3.99187052                6.98708876               49.06401389                0.01185496                0.07472892               -0.23784968                0.12231813                0.84764632                0.36199242               -0.01302521
               4.99198795                6.99041636               49.06747424                0.01000000               -0.00437450               -0.16285623                0.13024060                0.84577527                0.38643310                0.06934972
               5.99178303                6.99392695               49.07180871                0.01000000                0.00033148               -0.07820625                0.14247845                0.91619991                0.49756347                0.28174535
               6.99199458                6.99741563               49.07754424                0.01000000                0.01922852                0.02987771                0.15924221                0.94864840                0.58184012                0.52244238
               7.99216760                6.99992856               49.08356749                0.01136337               -0.04016545                0.06760259                0.18074372                0.78421128                0.42892980                0.58559183
               8.99119127                6.99920436               49.08622032                0.01000002               -0.15647915                0.18483637                0.18201307                0.51294424                0.16625860                0.84488719
               9.98903802                6.99371066               49.08709007                0.11022439               -0.21532515                0.43064063                0.17958164                0.30448651                0.06751707                0.75125280
              -0.00323353                7.99967501               49.06009564                0.99103730               -0.03755982               -0.03797660                0.12764480                0.00016546               -0.00403553                0.02651797
               0.99639087                7.99341597               49.05989176                0.95199609               -0.03670313               -0.03692718                0.12240974               -0.00032721               -0.00788417               -0.00424770
               1.99603240                7.98715768               49.05961073                0.04957450               -0.03056913               -0.03524467                0.11701496                0.00733776               -0.02123157               -0.02294082
               2.99577949                7.98106111               49.05913808                0.01323140                0.02381867               -0.16590832                0.11181360                0.43583150                0.20937664               -0.09577326
               3.99650878                7.98443861               49.06345331                0.01040385                0.03240716               -0.21631036                0.12323170                0.78085716                0.48102261               -0.06935053
               4.99642763                7.98873160               49.06839956                0.01000000                0.02040298               -0.13538016                0.13379001                0.78615977                0.59907056                0.10411684
               5.99691684                7.99323186               49.07515927                0.01000000                0.05883578               -0.07770677                0.15327731                0.79953110                0.74090399                0.28737089
               6.99760435                7.99762759               49.08301665                0.01136971                0.03651037               -0.02793907                0.17963619                0.72172610                0.65997340                0.38156699
               7.99764705                8.00005469               49.08817028                0.01000002                0.06883212                0.07304132                0.18776115                0.59332393                0.68754160                0.65791460
               8.99898099                8.00111488               49.09663703                0.13000694                0.03507991                0.06388991                0.21107866                0.44238810                0.42665965                0.52761173
               9.99834864                8.00017980               49.09657720                0.61278113               -0.06323443                0.29255016                0.20960019                0.41892799                0.00019742                0.47873937
               0.00302255                8.99929165               49.06036162                1.00000000               -0.03810093               -0.03871971                0.12955714                0.00026438                0.00121423                0.02367964
               1.00264154                8.99304535               49.06004278                0.99999999               -0.03728291               -0.03727669                0.12415579               -0.00003703               -0.00007399                0.00095568
               2.00227689                8.98680348               49.05970014                0.99609611               -0.03562348               -0.03565474                0.11850701               -0.00026857               -0.00749874               -0.01320996
               3.00192907                8.98056314               49.05923283                0.01000000               -0.12298611               -0.04189399                0.11264009                0.41682317                0.21867559               -0.02177910
               3.99981717                8.98276256               49.06341055                0.01000000               -0.15055828               -0.03730387                0.13007630                0.58338905                0.56577765                0.01413454
               4.99891790                8.98770875               49.07006720                0.01000000               -0.04697500               -0.07320312                0.14572696                0.53565986                0.73735385                0.09419410
               5.99887767                8.99237282               49.07777880                0.01131135                0.03441823               -0.07967142                0.16602682                0.45081913                0.76811872                0.17568580
               6.99960627                8.99685685               49.08515091                0.01000002                0.08345621               -0.11048955                0.17994795                0.44720536                0.95092172                0.12983216
               8.00054679                9.00138939               49.09660591                0.14396514                0.01538243                0.03514242                0.21117668                0.37146992                0.57677147                0.42881427
               8.99991392                9.00048216               49.09653655                0.98121510               -0.06300328               -0.06299696                0.20969706                0.00103474               -0.00001938                0.00121362
               9.99928673                8.99956167               49.09645488                0.99428294               -0.06271902               -0.06201632                0.20819619                0.00087742               -0.00061173               -0.00113219
               0.00926435                9.99890062               49.06051969                1.00000000               -0.03860513               -0.03910300                0.13134625                0.00116224                0.01728483                0.01811061
               1.00887830                9.99267044               49.06019492                0.99908000               -0.03775549               -0.03749125                0.12592497                0.00087444                0.02170216                0.00093971
               2.00850924                9.98644459               49.05996267                0.90518854               -0.03607139               -0.03588920                0.12043468                0.00087452                0.02211935               -0.00448049
               3.00815687                9.98022323               49.05964839                0.11701292               -0.37391456               -0.03399172                0.11476947                0.48517774                0.27780710               -0.00549972
               4.00103095                9.98369254               49.06452851                0.07321078               -0.53131517                0.09299793                0.14598784                0.47359393                0.58105778                0.08156797
               4.99753057                9.98726754               49.07076778                0.02017185               -0.21229109               -0.04412124                0.15893144                0.25856102                0.73206251                0.05075582
               5.99678513                9.99163843               49.07884816                0.08495185                0.00006561               -0.07343887                0.17349422                0.19825888                0.74802506                0.10059292
               6.99753188                9.99541780               49.08558254                0.09719989                0.23330010               -0.14390481                0.17655569                0.24851673                0.88464821                0.04474939
               8.00145113               10.00075754               49.09648391                0.62296515                0.16487620               -0.06318510                0.20972170                0.31229083                0.55074298                0.00080822
               9.00082940                9.99985494               49.09642385                0.99428118               -0.06219746               -0.06272216                0.20821620                0.00064584                0.00167090                0.00061531
              10.00020718                9.99893948               49.09634219                1.00000000               -0.06222237               -0.06221883                0.20671534                0.00049933                0.00063412               -0.00059817
              -0.03313491               -0.00008382               50.04975848                0.96831231               -0.03260821               -0.03184637                0.10635663                0.00056061               -0.01140359                0.01108506
               0.96653901               -0.00236820               50.05135724                0.74102728               -0.03340459               -0.03297869                0.11045968                0.00049266               -0.01515152               -0.00552943
               1.96619700               -0.00465970               50.05288825                0.21941873               -0.04038813               -0.03418948                0.11418945               -0.00737177               -0.01817385               -0.00539348
               2.96573125               -0.00711751               50.05442213                0.05446801               -0.08410853               -0.03071031                0.11870943               -0.16485299                0.01725722               -0.00576900
               3.96451483               -0.01283726               50.05664731                0.11874565               -0.05369753               -0.00349901                0.10928127               -0.30948832                0.03902660               -0.00190692
               4.96465730               -0.01146269               50.05821387                0.29530302               -0.00638402               -0.03206597                0.11191191               -0.05086762                0.00812793               -0.00208807
               5.96438715               -0.00892870               50.05975886                0.78777593               -0.03094030               -0.03455263                0.11598373               -0.00475776                0.00752714               -0.00211018
               6.96403849               -0.00627818               50.06130482                1.00000000               -0.03564613               -0.03592837                0.12020120                0.00039927                0.00843165               -0.00170119
               7.96367423               -0.00361988               50.06286650                0.99090770               -0.03712902               -0.03719623                0.12443439                0.00060866                0.01029886               -0.00153723
               8.96329591               -0.00096027               50.06444913                1.00000000               -0.03852134               -0.03845135                0.12869548                0.00067611                0.00923038                0.00069950
               9.96290380                0.00169749               50.06598926                1.00000000               -0.03921105               -0.03976380                0.13293916                0.00085640                0.00708974                0.00701464
              -0.03084493                0.99959771               50.04980619                0.74142442               -0.03231971               -0.03195823                0.10594725               -0.00022152                0.00537377                0.01386706
               0.96883188                0.99730202               50.05140648                0.01000001               -0.03285652               -0.03278488                0.11004345               -0.00040159                0.01000676               -0.01085894
               1.96849794                0.99499841               50.05310663                0.01000000               -0.03301881               -0.03308992                0.11391430               -0.03173581                0.01482974                0.03480772
               2.96817150                0.99257538               50.05480279                0.01000001               -0.24527020               -0.01138240                0.11837783               -0.22710755                0.04321053                0.05945563
               3.96359254                0.98712775               50.05705656                0.01000000               -0.29885781                0.15470188                0.10812222               -0.07566814                0.03945106                0.03927401
               4.96219434                0.98821665               50.05860382                0.01000000               -0.09226111                0.05001976                0.11111946                0.16259746               -0.00179111                0.04066725
               5.96174732                0.99072577               50.06008720                0.01000001               -0.04031336                0.00937175                0.11517010                0.11405036               -0.00523037                0.02982273
               6.96138808                0.99336254               50.06157134                0.53632021               -0.03629766               -0.03582950                0.11930973               -0.00079227               -0.00445139               -0.00695218
               7.96102136                0.99600816               50.06306888                0.98356216               -0.03720449               -0.03699882                0.12343912               -0.00014048               -0.00160693               -0.00305274
               8.96064399                0.99865521               50.06460849                0.99999999               -0.03833819               -0.03829288                0.12766260                0.00002865                0.00049393                0.00060334
               9.96025460                1.00129985               50.06614692                0.99829353               -0.03893871               -0.03959864                0.13190976                0.00018743                0.00047368                0.00906359
              -0.02854794                1.99927701               50.04991956                0.21748463               -0.03217698               -0.03574038                0.10521101               -0.00842394                0.00510810                0.02661700
               0.97113029                1.99697611               50.05135307                0.01000000               -0.05815686               -0.02768534                0.10918620               -0.00869356                0.07169619               -0.00728750
               1.97028892                1.99467850               50.05411888                0.01000001               -0.10352660               -0.02063276                0.11636749               -0.02954281                0.12171661                0.13116826
               2.96905975                1.99265484               50.05647781                0.01000000               -0.14643564                0.00198091                0.11524057               -0.05594690                0.07691946                0.12837549
               3.96736021                1.99025678               50.05829092                0.01000000               -0.23742640                0.22266362                0.11420737                0.17537528                0.03355266                0.10922509
               4.96431123                1.98953770               50.05984667                0.01000001               -0.29189689                0.14869325                0.11376422                0.35161804               -0.00209613                0.10432422
               5.96152227                1.99125873               50.06105253                0.01142435               -0.27854804                0.11386105                0.11588078                0.28653696               -0.05473954                0.08713043
               6.95874026                1.99300523               50.06173161                0.01618896               -0.15717617                0.03880382                0.11820380                0.11948716               -0.05075728                0.04124967
               7.95837874                1.99564014               50.06324011                0.04682081               -0.03677390               -0.02926572                0.12237753                0.01179144               -0.00830926               -0.00169424
               8.95800479                1.99827387               50.06476548                0.95110552               -0.03802391               -0.03795493                0.12660919               -0.00002967               -0.00461804               -0.00191422
               9.95761827                2.00090552               50.06634551                0.99999999               -0.03865206               -0.03929750                0.13093687                0.00019268               -0.00179256                0.00965988
              -0.02641159                2.99888291               50.05022647                0.05996336               -0.03318929                0.04707633                0.10538184               -0.14575186                0.00549316                0.48102881
               0.97325651                2.99674831               50.05147726                0.01000001               -0.06800264               -0.07276208                0.10897175               -0.15061920                0.18127748                0.41674509
               1.97222835                2.99458575               50.05624898                0.01000000               -0.08911135               -0.05516835                0.11421723               -0.01102532                0.22512846                0.18905569
               2.97147429                2.99261500               50.05812475                0.01000000               -0.10055860               -0.02595443                0.11558521                0.13420574                0.08302655                0.14368920
               3.97021718                2.99158102               50.06003008                0.01197287               -0.16247687                0.05891810                0.11558335                0.26414917                0.05707514                0.12320873
               4.96822475                2.99119051               50.06145322                0.01000000               -0.31033275                0.13069378                0.11665517                0.48814174                0.00695361                0.12793228
               5.96401053                2.99300299               50.06248633                0.01000001               -0.44141681                0.16211287                0.11792352                0.59696033               -0.05759781                0.17501119
               6.95939641                2.99413861               50.06295993                0.01000001               -0.40109854                0.16671511                0.11949510                0.57664515               -0.10309466                0.23495583
               7.95598855                2.99542284               50.06346770                0.01328802               -0.20091984                0.06080837                0.12119627                0.49957734               -0.07046638                0.19108434
               8.95537801                2.99789611               50.06487295                0.01000000               -0.04967028               -0.11125482                0.12548776                0.47707328               -0.01403688                0.17505836
               9.95499515                3.00051390               50.06651395                0.10142273               -0.03828658               -0.37622702                0.12986691                0.53742100               -0.00209999                0.20152940
              -0.02719379                4.00021854               50.05940588                0.12399478               -0.03911535                0.09040395                0.11587626               -0.26018122               -0.00574568                0.52741546
               0.97241505                3.99552086               50.05992953                0.01000000                0.06977554               -0.11473138                0.11248855               -0.12392612               -0.10303716                0.45090294
               1.97420172                3.99357514               50.05848599                0.01000000                0.11667707               -0.14878982                0.11350973                0.12226814               -0.06363908                0.18258462
               2.97474860                3.99213575               50.06003777                0.01197516               -0.00670202               -0.09512630                0.11525536                0.26069668                0.07150913                0.12447757
               3.97406768                3.99143514               50.06143013                0.01000000               -0.10482535               -0.05455893                0.11664028                0.45431306                0.07028585                0.10855721
               4.97265209                3.99215158               50.06308781                0.01000001               -0.17771533                0.05766031                0.11930594                0.69054982                0.09098786                0.16919873
               5.97051337                3.99450099               50.06504578                0.01000001               -0.23993844                0.11117930                0.12234243                0.90873818                0.09007664                0.27582389
               6.96785332                3.99633953               50.06686577                0.01186401               -0.29502904                0.13783853                0.12649968                0.95299780                0.01185591                0.34417023
               7.96461279                3.99685631               50.06748402                0.01044280               -0.26990655                0.09821828                0.13075034                0.88939652               -0.04032006                0.41255635
               8.96245519                3.99604877               50.06856675                0.01000000               -0.07408433               -0.08604551                0.14016583                0.68560166                0.02124062                0.45584109
               9.96313110                3.99338098               50.07054776                0.07292230                0.06759152               -0.49749031                0.15734907                0.56099438                0.07365902                0.43303452
              -0.02221987                5.00069098               50.06065846                0.29254519               -0.03587370                0.01083455                0.12108255               -0.05991352               -0.00482914                0.07837439
               0.97742139                4.99445368               50.06092136                0.01000000                0.01393501               -0.07616782                0.11629418                0.11119650               -0.03956512                0.03685928
               1.97805883                4.99160996               50.06048245                0.01000001                0.07034112               -0.20328928                0.11433348                0.29504083               -0.02555590                0.09951505
               2.97882821                4.99071248               50.06122818                0.01000000                0.06143926               -0.24144299                0.11588939                0.45685321                0.06826198                0.06431727
               3.97928761                4.99048985               50.06283993                0.01000001                0.00708394               -0.12761044                0.11842330                0.67128327                0.15640952                0.11026785
               4.97896989                4.99234372               50.06540827                0.01000001               -0.06451406               -0.01911596                0.12311102                0.90876325                0.21835905                0.21340772
               5.97799733                4.99522658               50.06835384                0.01182639               -0.14344213                0.00812085                0.12983203                0.96642118                0.16992506                0.26525829
               6.97610105                4.99689538               50.07006637                0.01000000               -0.19650432                0.03074766                0.13372743                0.93030731                0.10789721                0.34513082
               7.97406725                4.99738721               50.07193646                0.01000000               -0.17678362                0.09054405                0.13977211                0.90304470                0.13943190                0.52204893
               8.97256538                4.99617520               50.07444156                0.01000000               -0.12583126                0.06389918                0.15290066                0.64156739                0.11269842                0.62432336
               9.97155062                4.99056410               50.07587982                0.02699976               -0.10147565               -0.10613190                0.16759305                0.32445960                0.05720208                0.57846234
              -0.01591746                6.00043523               50.06094483                0.78856475               -0.03625280               -0.03108865                0.12343999               -0.00672463               -0.00537221                0.02487555
               0.98372001                5.99399751               50.06101728                0.01000001               -0.01193999               -0.04108582                0.11835424                0.09022858               -0.00944226               -0.01006084
               1.98384374                5.98950935               50.06100393                0.01142435                0.06428787               -0.22108507                0.11538417                0.25244416                0.02715228               -0.01666580
               2.98500577                5.98730689               50.06191105                0.01000001                0.10091802               -0.36245494                0.11551240                0.55324440                0.14495245               -0.02889956
               3.98586210                5.98888293               50.06427245                0.01000001                0.05424242               -0.18720812                0.12031228                0.85283752                0.27449293                0.08781721
               4.98609062                5.99176926               50.06783871                0.01182685               -0.02859864               -0.10890338                0.12887961                0.93895395                0.29118000                0.14594360
               5.98529013                5.99466341               50.07060956                0.01000000               -0.08958894               -0.07214146                0.13501011                0.94606666                0.27351120                0.23054621
               6.98429884                5.99695449               50.07392270                0.01000000               -0.09481313                0.02407923                0.14440613                0.99189035                0.33899387                0.44685506
               7.98339387                5.99866719               50.07808534                0.01000000               -0.10945969                0.12960528                0.15716451                0.92099194                0.33496554                0.67017931
               8.98210965                5.99732676               50.08138132                0.01135615               -0.12756794                0.15110600                0.17127229                0.55572099                0.19745630                0.67277289
               9.98084251                5.99125834               50.08287586                0.01000000               -0.12671388                0.14650542                0.17898230                0.25782198                0.10406559                0.61992183
              -0.00947892                7.00006921               50.06114016                0.99999999               -0.03692371               -0.03711175                0.12559485               -0.00004601               -0.00443921                0.02226006
               0.99015184                6.99363197               50.06104955                0.54875802               -0.03613747               -0.03661824                0.12036629               -0.00101546               -0.01766197               -0.01133658
               1.98979833                6.98718825               50.06069201                0.01619271                0.01838393               -0.13352304                0.11482362                0.11053216                0.02044360               -0.04435948
               2.99051952                6.98346338               50.06135974                0.01000001                0.10418336               -0.33594068                0.11360562                0.52648786                0.23248766               -0.12572595
               3.99188200                6.98674568               50.06524266                0.01186707                0.07244872               -0.24245759                0.12301779                0.87753404                0.37376157               -0.01488259
               4.99196850                6.99016565               50.06877921                0.01000000               -0.00742793               -0.16617194                0.13099700                0.87695285                0.39885786                0.06929761
               5.99173344                6.99378375               50.07323249                0.01000000               -0.00167094               -0.07811979                0.14277119                0.94800114                0.51382925                0.28956505
               6.99193508                6.99737697               50.07913777                0.01000000                0.01906894                0.03418187                0.15999877                0.98053796                0.60156871                0.54167074
               7.99211482                6.99997931               50.08538024                0.01143672               -0.04232146                0.07282309                0.18236977                0.80737556                0.43983572                0.60499157
               8.99108865                6.99919732               50.08804372                0.01000002               -0.16354638                0.19569415                0.18328476                0.52280862                0.16501168                0.86920848
               9.98884389                6.99349421               50.08889040                0.11153848               -0.22447577                0.45171259                0.18063801                0.30850180                0.06511967                0.76864587
              -0.00304389                7.99969299               50.06137270                0.99105365               -0.03754502               -0.03802043                0.12771034                0.00020130               -0.00407355                0.02683917
               0.99658066                7.99326514               50.06111494                0.95206498               -0.03665690               -0.03687087                0.12224657               -0.00035544               -0.00797434               -0.00433093
               1.99622297                7.98683889               50.06077870                0.04865796               -0.03012809               -0.03513557                0.11665509                0.00793075               -0.02131892               -0.02339413
               2.99597810                7.98058808               50.06025286                0.01329053                0.02437680               -0.16919209                0.11129830                0.44814229                0.21769051               -0.09850978
               3.99671051                7.98403378               50.06467967                0.01045143                0.03067540               -0.21980863                0.12211286                0.80294404                0.49693371               -0.06977659
               4.99659161                7.98844582               50.06973939                0.01000000                0.01641621               -0.13659244                0.13400632                0.81103295                0.61898968                0.10729185
               5.99703883                7.99310101               50.07669669                0.01000000                0.05612153               -0.07603194                0.15420500                0.82493666                0.76753236                0.29726972
               6.99771404                7.99763812               50.08482167                0.01144339                0.03410951               -0.02535294                0.18155432                0.74035638                0.67977604                0.39264109
               7.99772102                8.00012365               50.09005323                0.01000002                0.06684436                0.07740233                0.18901044                0.60586293                0.70451443                0.67489858
               8.99905093                8.00124064               50.09874876                0.13019847                0.03488771                0.07054142                0.21111456                0.45384532                0.43881041                0.54280673
               9.99841878                8.00029259               50.09867356                0.61304729               -0.06321471                0.30904657                0.20952406                0.43149902                0.00031710                0.49431583
               0.00338081                8.99930880               50.06165941                1.00000000               -0.03819701               -0.03884274                0.12994484                0.00029662                0.00124710                0.02401700
               1.00299884                8.99289455               50.06128500                0.99999999               -0.03733984               -0.03731755                0.12431653               -0.00007945               -0.00018780                0.00096213
               2.00263401                8.98648554               50.06088339                1.00000000               -0.03556808               -0.03558822                0.11833132               -0.00030686               -0.00795710               -0.01353700
               3.00228748                8.98007954               50.06035412                0.01000000               -0.12754379               -0.04232554                0.11200771                0.42827851                0.22822799               -0.02254061
               4.00008314                8.98234951               50.06467538                0.01000000               -0.15827775               -0.03362315                0.12498665                0.59773174                0.58647938                0.01876733
               4.99912192                8.98743380               50.07151050                0.01000000               -0.05216339               -0.07024827                0.14312425                0.55037322                0.76044600                0.10010827
               5.99903987                8.99226311               50.07944996                0.01138941                0.02988222               -0.07728618                0.16752734                0.46320105                0.78959262                0.18319595
               6.99971957                8.99686991               50.08696029                0.01000002                0.07948471               -0.11022996                0.18165615                0.45603602                0.97558136                0.12832405
               8.00062956                9.00152736               50.09871865                0.14386432                0.01385236                0.03860637                0.21122731                0.37814972                0.59272074                0.44098834
               8.99999661                9.00060815               50.09863315                0.98150550               -0.06298004               -0.06296354                0.20960420                0.00106004               -0.00005821                0.00119715
               9.99936996                8.99967514               50.09853588                0.99452495               -0.06266521               -0.06194159                0.20799121                0.00090134               -0.00059546               -0.00115485
               0.00979055                9.99891614               50.06183689                1.00000000               -0.03882197               -0.03926629                0.13205001                0.00123962                0.01757137                0.01840277
               1.00940233                9.99251879               50.06145636                0.99886328               -0.03793514               -0.03757565                0.12640867                0.00089873                0.02189868                0.00092351
               2.00903185                9.98612713               50.06116618                0.90625505               -0.03613150               -0.03584171                0.12049163                0.00092250                0.02208862               -0.00467600
               3.00867970                9.97974157               50.06079266                0.12265304               -0.38604856               -0.03379695                0.11449523                0.50093218                0.29156332               -0.00568117
               4.00131088                9.98336132               50.06589416                0.07384499               -0.54971163                0.10118073                0.13337260                0.48773867                0.60556248                0.08749605
               4.99768547                9.98704085               50.07230508                0.02047712               -0.22220659               -0.03929478                0.15112949                0.26605346                0.75098138                0.05584194
               5.99686675                9.99155529               50.08058736                0.08507415               -0.00574790               -0.07078225                0.17346352                0.20232139                0.76062568                0.10510149
               6.99757051                9.99543353               50.08735434                0.09772192                0.23395156               -0.14363858                0.17733348                0.25211906                0.90396962                0.04130909
               8.00154578               10.00089578               50.09858183                0.62281844                0.16769179               -0.06315799                0.20972311                0.31901369                0.56781655                0.00091542
               9.00092435                9.99998137               50.09850534                0.99452515               -0.06214721               -0.06267843                0.20807238                0.00067256                0.00161758                0.00062896
              10.00030283                9.99905376               50.09840809                1.00000000               -0.06215145               -0.06213764                0.20645939                0.00052660                0.00064517               -0.00058378
              -0.03486702               -0.00001733               51.05082907                0.96727775               -0.03308011               -0.03245952                0.10725700                0.00047093               -0.01200935                0.01058857
               0.96480218               -0.00246955               51.05246350                0.73978604               -0.03348504               -0.03332388                0.11046978                0.00034408               -0.01512616               -0.00594425
               1.96446328               -0.00492951               51.05402247                0.21952470               -0.03975409               -0.03361645                0.11226187               -0.00757900               -0.01746309               -0.00512557
               2.96400710               -0.00755061               51.05559809                0.05552093               -0.07381097               -0.03045276                0.11699785               -0.15627413                0.01197071               -0.00547657
               3.96298706               -0.01325943               51.05773879                0.11910746               -0.04226489               -0.00355830                0.10905257               -0.30789006                0.03169712               -0.00190614
               4.96316180               -0.01186968               51.05933186                0.29505351               -0.00454803               -0.03196050                0.11169913               -0.05290301                0.00726952               -0.00211790
               5.96289610               -0.00927419               51.06091778                0.78634794               -0.03068418               -0.03447328                0.11581421               -0.00499226                0.00750046               -0.00213308
               6.96254812               -0.00655737               51.06250625                1.00000000               -0.03559661               -0.03586956                0.12009476                0.00039744                0.00848715               -0.00172317
               7.96218417               -0.00383290               51.06411060                0.99096539               -0.03710932               -0.03715553                0.12439128                0.00061831                0.01037068               -0.00158472
               8.96180593               -0.00110752               51.06573617                1.00000000               -0.03852532               -0.03842862                0.12871365                0.00068773                0.00930349                0.00069262
               9.96141366                0.00161548               51.06731907                1.00000000               -0.03922686               -0.03976066                0.13301954                0.00089738                0.00715504                0.00708761
              -0.03241009                0.99965807               51.05087260                0.74020603               -0.03282010               -0.03230510                0.10695236               -0.00016563                0.00514129                0.01394338
               0.96726171                0.99719721               51.05250903                0.01000001               -0.03309454               -0.03304648                0.11046495                0.00020911                0.01006881               -0.01102442
               1.96692802                0.99473432               51.05423909                0.01000000               -0.03261967               -0.03262942                0.11271768               -0.02943675                0.01528401                0.03549715
               2.96660932                0.99214486               51.05597549                0.01000001               -0.24301625               -0.00877194                0.11712604               -0.21563224                0.03699780                0.05815311
               3.96206770                0.98670498               51.05813509                0.01000000               -0.29845847                0.15605060                0.10771297               -0.06652627                0.03250348                0.04278579
               4.96064015                0.98781071               51.05971294                0.01000000               -0.09388386                0.05131500                0.11072457                0.17021537               -0.00244155                0.04237492
               5.96019002                0.99038108               51.06123710                0.01000001               -0.04043513                0.01028388                0.11482209                0.11949996               -0.00538294                0.03060122
               6.95983145                0.99308394               51.06276297                0.53421160               -0.03622959               -0.03574492                0.11902168               -0.00082240               -0.00457075               -0.00708899
               7.95946543                0.99579555               51.06430211                0.98414683               -0.03714131               -0.03692916                0.12320978               -0.00014446               -0.00168776               -0.00313682
               8.95908862                0.99850820               51.06588429                0.99999999               -0.03828949               -0.03824237                0.12749508                0.00003122                0.00047280                0.00058688
               9.95869964                1.00121787               51.06746553                0.99805792               -0.03889821               -0.03956762                0.13180631                0.00021760                0.00046780                0.00916885
              -0.02994860                1.99933657               51.05097454                0.21753844               -0.03212872               -0.03512139                0.10535614               -0.00731057                0.00536311                0.02733127
               0.96973011                1.99686952               51.05244478                0.01000000               -0.05622517               -0.02837597                0.10926632               -0.00694447                0.07254552               -0.00698343
               1.96892690                1.99441790               51.05526204                0.01000001               -0.10031590               -0.02264181                0.11370748               -0.01891152                0.12063626                0.13056734
               2.96772379                1.99227395               51.05761907                0.01000000               -0.14681055                0.00586757                0.11366560               -0.03822260                0.07270912                0.12622207
               3.96599068                1.98986158               51.05942567                0.01000000               -0.24168900                0.22663487                0.11316745                0.19621268                0.02932162                0.11281028
               4.96289001                1.98915662               51.06098181                0.01000001               -0.29889060                0.15172433                0.11333396                0.37402148               -0.00478417                0.10725926
               5.96001287                1.99093149               51.06220959                0.01142238               -0.28864067                0.11875647                0.11558200                0.30211921               -0.05644495                0.08892304
               6.95711720                1.99272773               51.06291124                0.01618893               -0.16279256                0.04203880                0.11771781                0.12589674               -0.05189876                0.04227941
               7.95675702                1.99542852               51.06446181                0.04736114               -0.03664852               -0.02896296                0.12195885                0.01198061               -0.00844532               -0.00189999
               8.95638423                1.99812763               51.06602984                0.95585800               -0.03791816               -0.03784868                0.12625679               -0.00002872               -0.00467222               -0.00197229
               9.95599866                2.00082413               51.06765350                0.99999999               -0.03855717               -0.03921212                0.13065285                0.00022268               -0.00179338                0.00974823
              -0.02762220                2.99895565               51.05128482                0.05996501               -0.03363108                0.04676461                0.10671173               -0.12311965                0.00571038                0.48668596
               0.97204149                2.99662969               51.05256937                0.01000001               -0.06162187               -0.07869493                0.11028219               -0.12710301                0.18174095                0.41828579
               1.97114536                2.99428149               51.05738131                0.01000000               -0.08201507               -0.05735919                0.11288394                0.01116548                0.22572820                0.18596971
               2.97040119                2.99226221               51.05926980                0.01000000               -0.10180397               -0.02283246                0.11408043                0.16112139                0.08155005                0.14212583
               3.96910928                2.99123768               51.06118127                0.01197391               -0.16752593                0.06228553                0.11491545                0.29156821                0.05526935                0.12354082
               4.96705067                2.99084520               51.06261769                0.01000000               -0.32239991                0.13520794                0.11638333                0.51854349                0.00532806                0.13006141
               5.96266128                2.99275621               51.06366489                0.01000001               -0.45991592                0.16966564                0.11785902                0.62854860               -0.05995489                0.17862553
               6.95785235                2.99392471               51.06415314                0.01000001               -0.41780719                0.17534191                0.11913346                0.60325621               -0.10591738                0.24062176
               7.95430514                2.99521629               51.06467608                0.01335217               -0.20799559                0.06620308                0.12048499                0.52019694               -0.07196892                0.19645049
               8.95369244                2.99775122               51.06612519                0.01000000               -0.04970177               -0.11486962                0.12494971                0.49698536               -0.01408728                0.18156523
               9.95331110                3.00043363               51.06781035                0.10424611               -0.03813335               -0.38920899                0.12939792                0.56063219               -0.00212768                0.21167238
              -0.02775908                4.00027186               51.06055785                0.12307377               -0.03787102                0.08702021                0.11440809               -0.24187303               -0.00603657                0.53369139
               0.97186221                3.99529562               51.06104667                0.01000000                0.06383825               -0.11810084                0.11093035               -0.09523893               -0.10069260                0.45151968
               1.97351768                3.99327072               51.05961417                0.01000000                0.10639093               -0.14732758                0.11252844                0.15207916               -0.06076851                0.18021375
               2.97399003                3.99181730               51.06118527                0.01197458               -0.01393111               -0.09267040                0.11452428                0.28869853                0.07300683                0.12276368
               3.97323906                3.99110729               51.06259355                0.01000000               -0.11238354               -0.05382267                0.11627144                0.48486235                0.07125550                0.10852370
               4.97174236                3.99186077               51.06427984                0.01000001               -0.18673672                0.06255340                0.11931250                0.72788354                0.09190651                0.17165088
               5.96950433                3.99432480               51.06627180                0.01000001               -0.25100564                0.11708687                0.12300773                0.95321951                0.09073170                0.28215091
               6.96672224                3.99623457               51.06814160                0.01187852               -0.30849379                0.14508617                0.12798823                0.99696998                0.01125137                0.35292678
               7.96333445                3.99675258               51.06879239                0.01049035               -0.28078246                0.10525260                0.13055967                0.92645242               -0.03979320                0.42365355
               8.96110659                3.99583024               51.06993876                0.01000000               -0.07439843               -0.08684528                0.13580656                0.71372975                0.02563178                0.47023590
               9.96184648                3.99303995               51.07203451                0.07346780                0.07398885               -0.51333496                0.14554847                0.58749636                0.07887117                0.45117318
              -0.02250718                5.00069605               51.06186458                0.29157295               -0.03549663                0.00808738                0.12007246               -0.05579785               -0.00487170                0.08031891
               0.97713785                4.99426767               51.06207859                0.01000000                0.00862237               -0.07365813                0.11512880                0.11990863               -0.03804317                0.03766370
               1.97766527                4.99133494               51.06162117                0.01000001                0.06003660               -0.20209284                0.11348415                0.31559598               -0.02250539                0.09833365
               2.97833858                4.99040880               51.06238405                0.01000000                0.05488939               -0.24378493                0.11546029                0.48365734                0.07182925                0.06252426
               3.97876305                4.99016123               51.06402279                0.01000001                0.00261215               -0.12790360                0.11837055                0.70507487                0.16063169                0.11041584
               4.97839083                4.99209626               51.06664085                0.01000001               -0.07055891               -0.01620598                0.12366641                0.95155817                0.22349429                0.21743860
               5.97735187                4.99509795               51.06965742                0.01183605               -0.15134284                0.01017272                0.13104164                1.01020949                0.17314956                0.27197609
               6.97536397                4.99682644               51.07141265                0.01001332               -0.20566777                0.03305806                0.13539623                0.97191188                0.10938080                0.35525320
               7.97323852                4.99732134               51.07334234                0.01000000               -0.18421515                0.09549296                0.14085840                0.94228367                0.14347487                0.53750044
               8.97167967                4.99601432               51.07596420                0.01000000               -0.12984499                0.07206051                0.15132610                0.67009051                0.11843817                0.64244589
               9.97064162                4.99016693               51.07751082                0.02775426               -0.10380473               -0.10425489                0.16066759                0.34112500                0.06190537                0.59180676
              -0.01601828                6.00043361               51.06217605                0.78495861               -0.03602226               -0.03137679                0.12274089               -0.00607660               -0.00542083                0.02520302
               0.98362149                5.99382246               51.06219677                0.01000001               -0.01466218               -0.04040881                0.11753797                0.09415321               -0.00833097               -0.01009525
               1.98368847                5.98922886               51.06215447                0.01142320                0.06076936               -0.22442660                0.11477435                0.26639160                0.02995843               -0.01833914
               2.98483688                5.98694160               51.06306405                0.01000001                0.09823113               -0.36919117                0.11517192                0.57871209                0.15093692               -0.03224934
               3.98565310                5.98854922               51.06547683                0.01000001                0.04999601               -0.18886685                0.12064550                0.88791395                0.28352455                0.08838372
               4.98583680                5.99153665               51.06913153                0.01183826               -0.03373759               -0.10973171                0.12982537                0.97817462                0.29949177                0.14902793
               5.98497834                5.99452826               51.07196506                0.01000340               -0.09498581               -0.07334099                0.13642111                0.98541295                0.28091291                0.23705563
               6.98393709                5.99689573               51.07537137                0.01000000               -0.09930494                0.02618205                0.14555957                1.03242099                0.34834279                0.46134960
               7.98299225                5.99866244               51.07966466                0.01000000               -0.11371362                0.13695798                0.15844189                0.95977850                0.34568701                0.69369412
               8.98166281                5.99727145               51.08310685                0.01143872               -0.13142473                0.16033872                0.17306898                0.57970402                0.20479981                0.69107882
               9.98036375                5.99095485               51.08467191                0.01000000               -0.12990624                0.15594744                0.17922857                0.26861104                0.10778704                0.62873941
              -0.00940641                7.00006851               51.06239454                0.99999999               -0.03679234               -0.03705345                0.12522217                0.00003761               -0.00444926                0.02250066
               0.99022566                6.99345950               51.06225085                0.54309552               -0.03598158               -0.03642788                0.11989967               -0.00091138               -0.01781590               -0.01145021
               1.98987395                6.98684640               51.06183706                0.01619073                0.01834023               -0.13652228                0.11425049                0.11725577                0.02234093               -0.04597911
               2.99059247                6.98302498               51.06249305                0.01000001                0.10261614               -0.34225342                0.11318260                0.54664654                0.24156525               -0.12996550
               3.99192628                6.98638389               51.06647424                0.01187968                0.06914067               -0.24694246                0.12335612                0.90922403                0.38628573               -0.01596799
               4.99197528                6.98990163               51.07009418                0.01001672               -0.01126115               -0.16952514                0.13196282                0.91004203                0.41145007                0.07064718
               5.99170105                6.99363113               51.07466414                0.01000000               -0.00485376               -0.07842401                0.14374689                0.98276557                0.52994533                0.29876962
               6.99187821                6.99735008               51.08074421                0.01000000                0.01786586                0.03810832                0.16132716                1.01678042                0.62210259                0.56163758
               7.99205837                7.00006050               51.08721488                0.01151626               -0.04484334                0.07759057                0.18448493                0.83445019                0.45165151                0.62343203
               8.99098134                6.99922109               51.08988602                0.01000002               -0.17056636                0.20550676                0.18487023                0.53497188                0.16375179                0.89069812
               9.98864704                6.99328588               51.09070283                0.11297256               -0.23342941                0.47328990                0.18142417                0.31356110                0.06207560                0.78380772
              -0.00279949                7.99969254               51.06264985                0.99106925               -0.03751288               -0.03803618                0.12766062                0.00027231               -0.00411270                0.02714786
               0.99682538                7.99309390               51.06233669                0.95212840               -0.03661995               -0.03681599                0.12212524               -0.00029892               -0.00806001               -0.00441072
               1.99646811                7.98649841               51.06194383                0.04761385               -0.02965255               -0.03505736                0.11643525                0.00886569               -0.02136252               -0.02384054
               2.99623233                7.98009653               51.06136405                0.01335572                0.02464092               -0.17262219                0.11104244                0.46105650                0.22580731               -0.10133199
               3.99696093                7.98361037               51.06589556                0.01050215                0.02790411               -0.22302374                0.12146305                0.82568563                0.51305181               -0.07123314
               4.99679041                7.98814615               51.07107969                0.01000000                0.01121417               -0.13782030                0.13415191                0.83631814                0.63871785                0.11163531
               5.99718521                7.99295978               51.07824337                0.01000000                0.05264559               -0.07425312                0.15495873                0.85152151                0.79387216                0.30917488
               6.99784332                7.99765790               51.08664773                0.01152203                0.03125143               -0.02297117                0.18356407                0.76127414                0.69907144                0.40464471
               7.99781024                8.00021425               51.09195049                0.01000002                0.06467756                0.08100278                0.19029560                0.61968309                0.72020823                0.69072861
               8.99913687                8.00138159               51.10085932                0.13040024                0.03475779                0.07642156                0.21095593                0.46602890                0.45031177                0.55700772
               9.99850539                8.00042065               51.10076768                0.61340017               -0.06314781                0.32590785                0.20926614                0.44502157                0.00036316                0.50918530
               0.00379631                8.99930779               51.06296052                1.00000000               -0.03825022               -0.03894130                0.13021698                0.00035569                0.00128674                0.02434871
               1.00341381                8.99272318               51.06252911                0.99999999               -0.03738369               -0.03738508                0.12452505               -0.00004633               -0.00030655                0.00097782
               2.00304864                8.98614526               51.06206677                1.00000000               -0.03560826               -0.03564686                0.11858578               -0.00020177               -0.00848164               -0.01390510
               3.00270164                8.97957253               51.06147298                0.01000000               -0.13291334               -0.04320076                0.11235405                0.44029970                0.23639330               -0.02341631
               4.00039037                8.98192342               51.06591028                0.01000000               -0.16747033               -0.03027408                0.12298977                0.61207692                0.60576263                0.02172482
               4.99935224                8.98714522               51.07292968                0.01000000               -0.05853170               -0.06754685                0.14145610                0.56446175                0.78546276                0.10651976
               5.99921974                8.99214606               51.08112934                0.01146593                0.02484880               -0.07470564                0.16840995                0.47543038                0.81177794                0.19231285
               6.99984921                8.99689065               51.08878403                0.01000002                0.07543055               -0.11010133                0.18283891                0.46539856                0.99885822                0.12679330
               8.00072835                9.00168056               51.10083045                0.14376450                0.01231545                0.04176094                0.21113342                0.38525419                0.60796353                0.45250053
               9.00009552                9.00074952               51.10072863                0.98180996               -0.06294962               -0.06292339                0.20948427                0.00110538               -0.00003921                0.00122035
               9.99946935                8.99980404               51.10061471                0.99477929               -0.06261668               -0.06186366                0.20777168                0.00091155               -0.00059289               -0.00113805
               0.01037685                9.99891371               51.06316069                1.00000000               -0.03898642               -0.03940790                0.13266022                0.00130242                0.01787979                0.01869431
               1.00998698                9.99234620               51.06272309                0.99863631               -0.03810676               -0.03769791                0.12696432                0.00090594                0.02207387                0.00091993
               2.00961471                9.98578548               51.06237251                0.90742600               -0.03634117               -0.03597800                0.12109935                0.00092365                0.02204911               -0.00495083
               3.00926016                9.97923252               51.06193830                0.12836178               -0.39924697               -0.03400188                0.11520680                0.51682236                0.30216468               -0.00588893
               4.00162977                9.98300489               51.06719596                0.07449171               -0.57015824                0.10814709                0.12928433                0.50207538                0.62650967                0.09215994
               4.99785700                9.98679521               51.07379037                0.02078186               -0.23406939               -0.03500100                0.14766376                0.27351484                0.77426539                0.06120618
               5.99694839                9.99146566               51.08231743                0.08519609               -0.01200987               -0.06804002                0.17319399                0.20589802                0.77577138                0.11015032
               6.99761680                9.99545587               51.08912921                0.09826461                0.23540341               -0.14347810                0.17748843                0.25594908                0.92335912                0.03737394
               8.00165645               10.00104947               51.10067838                0.62273500                0.17093493               -0.06310850                0.20959152                0.32617305                0.58472830                0.00094732
               9.00103550               10.00012312               51.10058529                0.99477670               -0.06209311               -0.06264024                0.20791546                0.00069284                0.00162239                0.00062874
              10.00041459                9.99918337               51.10047138                1.00000000               -0.06209054               -0.06206629                0.20620289                0.00054936                0.00064257               -0.00058319
              -0.03664395                0.00004090               52.05190362                1.00000000               -0.03129573               -0.03097824                0.10221277                0.00099543               -0.01311955                0.00872644
               0.96304309               -0.00257813               52.05356663                0.73867676               -0.03214455               -0.03216108                0.10662372                0.00054950               -0.01625335               -0.00678685
               1.96271315               -0.00519545               52.05513349                0.21979285               -0.03943690               -0.03357642                0.11101333               -0.00778446               -0.01720371               -0.00460144
               2.96225435               -0.00798184               52.05676208                0.05673101               -0.06490743               -0.03006908                0.11586923               -0.14751656                0.00745416               -0.00541574
               3.96141501               -0.01366799               52.05882836                0.11954826               -0.03153262               -0.00354285                0.10888916               -0.30525444                0.02486575               -0.00194386
               4.96162370               -0.01226722               52.06044786                0.29481614               -0.00261177               -0.03185867                0.11151559               -0.05512058                0.00637473               -0.00214941
               5.96136277               -0.00961001               52.06207515                0.78491392               -0.03041418               -0.03440070                0.11567187               -0.00525633                0.00746989               -0.00215728
               6.96101541               -0.00682608               52.06370672                1.00000000               -0.03555275               -0.03581570                0.12001036                0.00039340                0.00854666               -0.00174732
               7.96065172               -0.00403461               52.06535433                0.99102531               -0.03709541               -0.03711791                0.12436609                0.00062730                0.01044462               -0.00163468
               8.96027351               -0.00124266               52.06702341                1.00000000               -0.03853078               -0.03840519                0.12873600                0.00069933                0.00937678                0.00068877
               9.95988110                0.00154633               52.06864965                1.00000000               -0.03924062               -0.03975311                0.13308952                0.00093804                0.00721784                0.00716888
              -0.03401497                0.99973112               52.05194523                0.73909905               -0.03182764               -0.03147424                0.10409337                0.00005338                0.00439019                0.01223670
               0.96566676                0.99710025               52.05361578                0.01000000               -0.03239346               -0.03228852                0.10846236               -0.00058598                0.00911525               -0.01197990
               1.96533716                0.99446879               52.05536098                0.01000000               -0.03256501               -0.03284590                0.11272439               -0.02842956                0.01529497                0.03567742
               2.96501546                0.99171747               52.05714532                0.01000001               -0.24160058               -0.00665916                0.11727237               -0.20381300                0.03093130                0.05605983
               3.96050515                0.98629658               52.05921082                0.01000000               -0.29859773                0.15673980                0.10752312               -0.05671955                0.02539789                0.04613617
               4.95904350                0.98741419               52.06081831                0.01000000               -0.09577587                0.05226819                0.11036774                0.17786633               -0.00317889                0.04417819
               5.95858964                0.99004598               52.06238364                0.01000001               -0.04059271                0.01097082                0.11449231                0.12513720               -0.00554860                0.03151445
               6.95823165                0.99281576               52.06395177                0.53201318               -0.03616777               -0.03566371                0.11874530               -0.00085543               -0.00469417               -0.00723907
               7.95786628                0.99559421               52.06553308                0.98470102               -0.03708099               -0.03686085                0.12298659               -0.00014754               -0.00177144               -0.00322609
               8.95749003                0.99837328               52.06715840                0.99999999               -0.03823983               -0.03819075                0.12732426                0.00003657                0.00045032                0.00057132
               9.95710148                1.00114880               52.06878304                0.99780823               -0.03885445               -0.03953336                0.13169078                0.00025025                0.00045937                0.00928091
              -0.03138116                1.99941141               52.05202668                0.21775684               -0.03251394               -0.03489021                0.10601781               -0.00610805                0.00565318                0.02724744
               0.96829370                1.99677610               52.05353840                0.01000000               -0.05457427               -0.02940623                0.11042241               -0.00678467                0.07241374               -0.00691941
               1.96752735                1.99414763               52.05639303                0.01000001               -0.09716997               -0.02578892                0.11296252               -0.00928957                0.11860669                0.12929382
               2.96635030                1.99188497               52.05875112                0.01000000               -0.14717293                0.00869269                0.11319763               -0.01954811                0.06873071                0.12339783
               3.96458389                1.98946680               52.06055427                0.01000000               -0.24593377                0.22936905                0.11281706                0.21813418                0.02547690                0.11631962
               4.96143162                1.98877814               52.06211335                0.01000001               -0.30599762                0.15397626                0.11308925                0.39733943               -0.00719842                0.11048301
               5.95846394                1.99060941               52.06336417                0.01142503               -0.29907731                0.12336587                0.11534719                0.31844255               -0.05823938                0.09117097
               6.95545008                1.99246065               52.06408597                0.01618601               -0.16863492                0.04524624                0.11723028                0.13269967               -0.05318969                0.04344746
               7.95509124                1.99522817               52.06567929                0.04787530               -0.03652151               -0.02864710                0.12153429                0.01218599               -0.00857803               -0.00215937
               8.95471965                1.99799352               52.06729062                0.96065846               -0.03780865               -0.03773954                0.12589340               -0.00002643               -0.00472607               -0.00203158
               9.95433507                2.00075567               52.06895856                0.99999999               -0.03845771               -0.03912312                0.13035336                0.00025479               -0.00179395                0.00984107
              -0.02886649                2.99903331               52.05236071                0.06012395               -0.03386664                0.04505999                0.10843798               -0.09766863                0.00566100                0.49026081
               0.97079484                2.99651213               52.05368290                0.01000001               -0.05455080               -0.08670259                0.11268904               -0.10145602                0.18049807                0.41769886
               1.97004249                2.99395301               52.05850666                0.01000000               -0.07447599               -0.06040392                0.11260299                0.03497965                0.22466336                0.18281213
               2.96930532                2.99189132               52.06040636                0.01000000               -0.10339114               -0.02041022                0.11360524                0.19050031                0.08030977                0.14071909
               3.96797467                2.99088396               52.06232839                0.01197474               -0.17288172                0.06486483                0.11473902                0.32083582                0.05397089                0.12416161
               4.96584769                2.99049371               52.06378089                0.01000000               -0.33493456                0.13916477                0.11638962                0.55048448                0.00406326                0.13266997
               5.96127598                2.99251330               52.06484351                0.01000001               -0.47904083                0.17710403                0.11786224                0.66146380               -0.06222385                0.18312130
               6.95626687                2.99372069               52.06534260                0.01000001               -0.43494285                0.18389566                0.11876496                0.63078261               -0.10885205                0.24719125
               7.95257712                2.99502127               52.06587740                0.01341734               -0.21524333                0.07174748                0.11977402                0.54131671               -0.07358427                0.20197345
               8.95196201                2.99761849               52.06737194                0.01000000               -0.04974167               -0.11895171                0.12438733                0.51755622               -0.01409253                0.18704565
               9.95158229                3.00036634               52.06910191                0.10709571               -0.03797165               -0.40258483                0.12890045                0.58388239               -0.00215566                0.21902675
              -0.02829217                4.00031261               52.06169404                0.12221444               -0.03629489                0.08229249                0.11270641               -0.22099919               -0.00633278                0.53820886
               0.97134488                3.99504204               52.06214814                0.01000000                0.05699627               -0.12276349                0.10929829               -0.06319825               -0.09792005                0.44996878
               1.97284775                3.99293956               52.06073655                0.01000000                0.09422363               -0.14583394                0.11216932                0.18477458               -0.05740669                0.17755488
               2.97322935                3.99147677               52.06232826                0.01197418               -0.02247691               -0.09035710                0.11431585                0.31912001                0.07480297                0.12135690
               3.97239822                3.99076410               52.06375556                0.01000000               -0.12086894               -0.05345394                0.11631809                0.51767196                0.07270695                0.10885279
               4.97081197                3.99156143               52.06547406                0.01000001               -0.19659865                0.06735426                0.11965578                0.76724225                0.09360293                0.17479837
               5.96846624                3.99415149               52.06750593                0.01000001               -0.26271075                0.12297694                0.12373568                0.99948354                0.09262032                0.28946402
               6.96555776                3.99613856               52.06942553                0.01189107               -0.32232367                0.15249972                0.12859780                1.04242535                0.01165042                0.36260934
               7.96201977                3.99666312               52.07009521                0.01054288               -0.29160295                0.11218367                0.13003916                0.96420030               -0.04010330                0.43562238
               8.95972570                3.99561449               52.07128289                0.01000000               -0.07513727               -0.08812289                0.13368010                0.74222518                0.02853600                0.48359427
               9.96051702                3.99270397               52.07345873                0.07400652                0.07913246               -0.53017500                0.14118936                0.61460786                0.08298912                0.46628324
              -0.02274533                5.00067916               52.06305990                0.29062355               -0.03507303                0.00483552                0.11893736               -0.05098741               -0.00490748                0.08229660
               0.97690394                4.99405686               52.06322393                0.01000000                0.00242960               -0.07093496                0.11389179                0.12936309               -0.03625049                0.03849710
               1.97730326                4.99103633               52.06275213                0.01000001                0.04796208               -0.20064409                0.11281643                0.33775961               -0.01893047                0.09694965
               2.97786318                4.99008418               52.06353738                0.01000000                0.04700931               -0.24619314                0.11537570                0.51256731                0.07592689                0.06080305
               3.97824345                4.98981488               52.06520734                0.01000001               -0.00290147               -0.12824755                0.11868861                0.74117587                0.16552736                0.11098707
               4.97780515                4.99184080               52.06788159                0.01000001               -0.07774593               -0.01324714                0.12456597                0.99691035                0.22966722                0.22220503
               5.97668853                4.99497284               52.07097467                0.01184524               -0.16007032                0.01231577                0.13236693                1.05660944                0.17778759                0.27935665
               6.97460374                4.99677068               52.07277430                0.01003457               -0.21516635                0.03556785                0.13665845                1.01502216                0.11220313                0.36543752
               7.97238520                4.99726494               52.07475362                0.01000000               -0.19190399                0.10027040                0.14118269                0.98188582                0.14855343                0.55288177
               8.97076566                4.99585604               52.07746808                0.01000000               -0.13448590                0.08060113                0.14979847                0.69852977                0.12466730                0.66236188
               9.96969548                4.98976284               52.07909318                0.02852886               -0.10701809               -0.10314257                0.15719601                0.35823563                0.06674006                0.60950311
              -0.01606732                6.00040932               52.06339965                0.78136080               -0.03577113               -0.03168662                0.12193455               -0.00535736               -0.00546136                0.02547248
               0.98357497                5.99362334               52.06336804                0.01000001               -0.01785281               -0.03969086                0.11669621                0.09832083               -0.00705065               -0.01010754
               1.98357563                5.98892667               52.06329941                0.01142853                0.05635868               -0.22785105                0.11426740                0.28146258                0.03315383               -0.02018377
               2.98470215                5.98655291               52.06421449                0.01000001                0.09447421               -0.37600520                0.11505070                0.60614700                0.15755089               -0.03577277
               3.98546511                5.98819915               52.06668536                0.01000001                0.04450387               -0.19036446                0.12119395                0.92533599                0.29338028                0.08929843
               4.98559222                5.99129649               52.07043522                0.01184838               -0.03982818               -0.11051798                0.13098299                1.02005530                0.30874543                0.15254872
               5.98466855                5.99439780               52.07333798                0.01002183               -0.10130635               -0.07460004                0.13809985                1.02736033                0.28921453                0.24392734
               6.98356610                5.99684992               52.07683389                0.01000000               -0.10482088                0.02813382                0.14689322                1.07466851                0.35874303                0.47532940
               7.98257213                5.99866853               52.08125418                0.01000000               -0.11838499                0.14485897                0.15930124                0.99987198                0.35824619                0.71697507
               8.98119840                5.99722651               52.08484270                0.01152625               -0.13520012                0.17013888                0.17387465                0.60413296                0.21364854                0.70963445
               9.97986813                5.99064112               52.08646043                0.01000000               -0.13302687                0.16558724                0.17875716                0.27927551                0.11194393                0.63971520
              -0.00928052                7.00004543               52.06364460                0.99999999               -0.03664762               -0.03696766                0.12474935                0.00013548               -0.00446721                0.02268072
               0.99035300                6.99326304               52.06344754                0.53735534               -0.03582661               -0.03623394                0.11944143               -0.00078106               -0.01799048               -0.01155494
               1.99000295                6.98647931               52.06297702                0.01618935                0.01803192               -0.13971500                0.11378831                0.12468848                0.02433954               -0.04776694
               2.99071364                6.98256407               52.06362339                0.01000001                0.10018161               -0.34857025                0.11302339                0.56843261                0.25116875               -0.13441739
               3.99200658                6.98600759               52.06770979                0.01189663                0.06469805               -0.25130347                0.12387506                0.94285778                0.39955345               -0.01722804
               4.99200760                6.98963044               52.07141847                0.01003400               -0.01621354               -0.17267340                0.13301201                0.94495894                0.42446441                0.07192242
               5.99168231                6.99348084               52.07610743                0.01000000               -0.00906101               -0.07892477                0.14503949                1.01913004                0.54620000                0.30820317
               6.99182638                6.99733336               52.08236432                0.01000000                0.01618676                0.04206434                0.16255407                1.05517650                0.64332343                0.58165077
               7.99200604                7.00016212               52.08906994                0.01159781               -0.04753242                0.08270602                0.18632194                0.86334641                0.46407608                0.64129040
               8.99087573                6.99925881               52.09174112                0.01000002               -0.17771347                0.21558336                0.18581649                0.54770182                0.16230479                0.91060480
               9.98845178                6.99307459               52.09251889                0.11449422               -0.24239594                0.49616526                0.18139476                0.31863639                0.05859963                0.79856508
              -0.00249983                7.99966997               52.06392591                0.99109219               -0.03746958               -0.03802491                0.12751892                0.00036360               -0.00416692                0.02739008
               0.99712547                7.99289867               52.06355745                0.95217568               -0.03659007               -0.03676698                0.12203953               -0.00020698               -0.00820285               -0.00451770
               1.99676837                7.98613237               52.06310741                0.04642601               -0.02914783               -0.03502702                0.11636881                0.01001970               -0.02145650               -0.02419416
               2.99654252                7.97958150               52.06247371                0.01341850                0.02437681               -0.17635583                0.11115163                0.47494458                0.23384764               -0.10405905
               3.99725590                7.98317308               52.06710893                0.01055080                0.02378213               -0.22619927                0.12155202                0.84983157                0.52940217               -0.07340294
               4.99701816                7.98784302               52.07242243                0.01000000                0.00461640               -0.13884631                0.13464518                0.86253690                0.65890293                0.11549115
               5.99734823                7.99281931               52.07979586                0.01000000                0.04850923               -0.07227639                0.15576309                0.87934731                0.82106931                0.32177403
               6.99798834                7.99769120               52.08849295                0.01160239                0.02826864               -0.02045297                0.18540219                0.78362898                0.71862992                0.41668556
               7.99791360                8.00032265               52.09385915                0.01000002                0.06258140                0.08436820                0.19132786                0.63425801                0.73492355                0.70524433
               8.99923997                8.00153818               52.10296788                0.13059067                0.03478553                0.08238852                0.21074080                0.47888075                0.46120225                0.57053711
               9.99860931                8.00056442               52.10285888                0.61379234               -0.06306567                0.34370465                0.20896383                0.45933369                0.00039704                0.52379520
               0.00426936                8.99928493               52.06426375                1.00000000               -0.03829018               -0.03901416                0.13039328                0.00043602                0.00128266                0.02462294
               1.00388646                8.99252770               52.06377551                0.99999999               -0.03744290               -0.03747180                0.12479113                0.00001797               -0.00037612                0.00096265
               2.00352051                8.98577877               52.06325510                1.00000000               -0.03573172               -0.03578715                0.11910505               -0.00007439               -0.00875788               -0.01412589
               3.00317183                8.97903696               52.06260120                0.01000000               -0.13894079               -0.04441716                0.11323681                0.45309305                0.24379103               -0.02405736
               4.00074169                8.98148361               52.06713517                0.01000000               -0.17798558               -0.02699633                0.12262732                0.62748244                0.62446124                0.02364263
               4.99961212                8.98685351               52.07433962                0.01000000               -0.06603063               -0.06497142                0.14117487                0.57914271                0.81181223                0.11243041
               5.99942108                8.99203531               52.08281816                0.01155325                0.01917509               -0.07185921                0.16951484                0.48829442                0.83503001                0.20205553
               6.99999562                8.99692430               52.09061706                0.01000002                0.07115764               -0.11002814                0.18372383                0.47512899                1.02161059                0.12466258
               8.00084423                9.00184949               52.10294131                0.14366341                0.01079802                0.04481151                0.21101721                0.39264720                0.62277485                0.46341502
               9.00021158                9.00090658               52.10282283                0.98212399               -0.06291366               -0.06287785                0.20934615                0.00115060                0.00000754                0.00129184
               9.99958596                8.99994868               52.10269131                0.99504347               -0.06256210               -0.06178386                0.20754568                0.00091913               -0.00058810               -0.00107342
               0.01102335                9.99888969               52.06449010                1.00000000               -0.03913509               -0.03952440                0.13319051                0.00135234                0.01811503                0.01893972
               1.01063199                9.99214923               52.06399565                0.99839682               -0.03828603               -0.03784739                0.12760145                0.00090042                0.02229871                0.00091117
               2.01025762                9.98541663               52.06358817                0.90871812               -0.03662279               -0.03621384                0.12204903                0.00090836                0.02222177               -0.00508613
               3.00989954                9.97869316               52.06309679                0.13416025               -0.41343142               -0.03437990                0.11645040                0.53359728                0.31140859               -0.00598694
               4.00198900                9.98263315               52.06847985                0.07514866               -0.59251140                0.11495462                0.12853271                0.51725248                0.64595435                0.09644195
               4.99804931                9.98654360               52.07525836                0.02108691               -0.24728312               -0.03099179                0.14699255                0.28116791                0.79896167                0.06652969
               5.99704333                9.99138212               52.08405124                0.08531917               -0.01862821               -0.06531878                0.17397193                0.20957790                0.79229457                0.11532704
               6.99767675                9.99549064               52.09090411                0.09883377                0.23704641               -0.14336591                0.17752454                0.25995090                0.94258014                0.03279186
               8.00178426               10.00121888               52.10277366                0.62268267                0.17435223               -0.06306043                0.20945153                0.33350227                0.60165796                0.00097607
               9.00116379               10.00028062               52.10266365                0.99504259               -0.06203764               -0.06259638                0.20775409                0.00071457                0.00165534                0.00063084
              10.00054351                9.99932875               52.10253215                0.99089846               -0.06202817               -0.06199315                0.20595363                0.00056787                0.00064234               -0.00058014
              -0.03845545                0.00007396               53.05287333                1.00000000               -0.02973148               -0.02942174                0.09684378                0.00145363               -0.01114946                0.00991365
               0.96124724               -0.00270358               53.05459598                0.73785645               -0.03103992               -0.03105715                0.10259807                0.00057875               -0.01427871               -0.00593001
               1.96092376               -0.00547653               53.05624274                0.22026859               -0.03929623               -0.03351420                0.10983367               -0.00802761               -0.01626656               -0.00484502
               2.96046131               -0.00842539               53.05791547                0.05813532               -0.05625749               -0.02975883                0.11494694               -0.13765659                0.00167639               -0.00522426
               3.95979861               -0.01406324               53.05991657                0.12007049               -0.02094040               -0.00349665                0.10878866               -0.30100518                0.01846848               -0.00200117
               4.96004251               -0.01265359               53.06156217                0.29459235               -0.00059855               -0.03176334                0.11136868               -0.05742944                0.00543832               -0.00217928
               5.95978663               -0.00993432               53.06323121                0.78346566               -0.03013202               -0.03433404                0.11555561               -0.00554612                0.00743541               -0.00218336
               6.95943987               -0.00708242               53.06490645                1.00000000               -0.03551302               -0.03576689                0.11994838                0.00038753                0.00861304               -0.00177218
               7.95907637               -0.00422309               53.06659792                0.99109514               -0.03708617               -0.03708504                0.12436107                0.00063517                0.01051919               -0.00168911
               8.95869814               -0.00136372               53.06831089                0.99980553               -0.03854255               -0.03838659                0.12878133                0.00071019                0.00944047                0.00069409
               9.95830552                0.00149208               53.06998086                1.00000000               -0.03926195               -0.03974996                0.13318515                0.00098117                0.00726207                0.00727778
              -0.03566337                0.99977974               53.05295447                0.73827512               -0.03083598               -0.03039569                0.10100474                0.00043483                0.00517682                0.01347630
               0.96402827                0.99698585               53.05467828                0.01000000               -0.03161220               -0.03162063                0.10638341               -0.00133047                0.01006527               -0.01086946
               1.96370438                0.99418833               53.05649358                0.01000000               -0.03250819               -0.03326859                0.11292062               -0.02731376                0.01550965                0.03425926
               2.96337810                0.99127702               53.05832094                0.01000001               -0.24008648               -0.00468758                0.11778487               -0.19053417                0.02295468                0.05278887
               3.95890265                0.98590180               53.06028555                0.01000000               -0.29871760                0.15668210                0.10746243               -0.04544329                0.01758918                0.04939889
               4.95740375                0.98702878               53.06192030                0.01000000               -0.09785331                0.05286471                0.11004550                0.18570893               -0.00409629                0.04617193
               5.95694559                0.98972234               53.06352695                0.01000001               -0.04078146                0.01146799                0.11417642                0.13099865               -0.00573750                0.03257333
               6.95658812                0.99255991               53.06513787                0.52972035               -0.03611061               -0.03558621                0.11847902               -0.00089263               -0.00482127               -0.00739818
               7.95622338                0.99540606               53.06676185                0.98521106               -0.03702311               -0.03679499                0.12277004               -0.00015305               -0.00185966               -0.00332315
               8.95584766                0.99825241               53.06843078                0.99999999               -0.03819221               -0.03814124                0.12716013                0.00004054                0.00042250                0.00056019
               9.95545953                1.00109458               53.07009934                0.99754450               -0.03881297               -0.03950009                0.13158208                0.00028491                0.00044258                0.00941213
              -0.03285896                1.99946604               53.05309489                0.21815511               -0.03289969               -0.03431181                0.10653138               -0.00470369                0.00516394                0.02768484
               0.96681204                1.99666401               53.05465323                0.01000000               -0.05273642               -0.03059628                0.11156000               -0.00653562                0.07050721               -0.00647753
               1.96608631                1.99385810               53.05752129                0.01000001               -0.09374351               -0.02970630                0.11307379                0.00138180                0.11508762                0.12651803
               2.96493717                1.99148086               53.05988302                0.01000000               -0.14741602                0.01112136                0.11325607                0.00099227                0.06453704                0.11944680
               3.96313799                1.98907040               53.06168202                0.01000000               -0.25005138                0.23089154                0.11282706                0.24171813                0.02131383                0.11965063
               4.95993614                1.98840370               53.06324360                0.01000001               -0.31312567                0.15545564                0.11302141                0.42188491               -0.00972383                0.11408432
               5.95687547                1.99029504               53.06451654                0.01142745               -0.30989260                0.12772697                0.11515723                0.33558272               -0.06021941                0.09377598
               6.95373829                1.99220585               53.06525585                0.01618408               -0.17473312                0.04845312                0.11674374                0.13996366               -0.05464379                0.04476618
               7.95338081                1.99504102               53.06689249                0.04834732               -0.03639260               -0.02831130                0.12110219                0.01241675               -0.00871225               -0.00246752
               8.95301044                1.99787345               53.06854771                0.96550056               -0.03769639               -0.03762737                0.12551895               -0.00002633               -0.00477857               -0.00209200
               9.95262688                2.00070208               53.07026057                0.99999999               -0.03835537               -0.03902927                0.13004092                0.00028889               -0.00179279                0.00994213
              -0.03015337                2.99909350               53.05345358                0.06048997               -0.03411305                0.04353965                0.11019237               -0.06870671                0.00569164                0.48984763
               0.96950550                2.99637392               53.05482315                0.01000001               -0.04657299               -0.09550216                0.11516637               -0.07250220                0.17736791                0.41300666
               1.96891517                2.99359421               53.05963337                0.01000000               -0.06599247               -0.06408815                0.11276277                0.06143240                0.22171351                0.17902236
               2.96818565                2.99149945               53.06154190                0.01000000               -0.10504981               -0.01837215                0.11368228                0.22276674                0.07886135                0.13898717
               3.96681417                2.99051963               53.06347605                0.01197501               -0.17844171                0.06674953                0.11493285                0.35239261                0.05279610                0.12489399
               4.96461681                2.99013789               53.06494549                0.01000000               -0.34795409                0.14261654                0.11662844                0.58425781                0.00283069                0.13571198
               5.95985509                2.99227688               53.06602214                0.01000001               -0.49876966                0.18439381                0.11789935                0.69604373               -0.06463093                0.18828607
               6.95464142                2.99352897               53.06652844                0.01000001               -0.45254894                0.19246055                0.11839751                0.65953209               -0.11215553                0.25444531
               7.95080411                2.99483984               53.06707156                0.01348507               -0.22276754                0.07738928                0.11905159                0.56325570               -0.07533950                0.20768703
               8.95018607                2.99749986               53.06861294                0.01000000               -0.04980274               -0.12337330                0.12379753                0.53887567               -0.01406186                0.19217992
               9.94980806                3.00031400               53.07038836                0.10998002               -0.03780133               -0.41638658                0.12837469                0.60779748               -0.00218540                0.22550691
              -0.02879394                4.00033684               53.06281198                0.12144348               -0.03447716                0.07714337                0.11070668               -0.19728807               -0.00660651                0.54089886
               0.97086129                3.99475396               53.06323264                0.01000000                0.04916821               -0.12781032                0.10745926               -0.02726909               -0.09450599                0.44577658
               1.97218943                3.99257634               53.06185756                0.01000000                0.08028954               -0.14415677                0.11209080                0.22087443               -0.05348118                0.17396218
               2.97246708                3.99111342               53.06347159                0.01197611               -0.03210145               -0.08804072                0.11447489                0.35226587                0.07672286                0.11988093
               3.97154740                3.99040539               53.06491992                0.01000000               -0.13015199               -0.05342307                0.11669212                0.55289158                0.07444192                0.10938235
               4.96986404                3.99125603               53.06667296                0.01000001               -0.20710680                0.07206601                0.12022095                0.80887724                0.09567939                0.17853328
               5.96740526                3.99398292               53.06874651                0.01000001               -0.27490364                0.12880725                0.12435679                1.04794324                0.09481408                0.29762517
               6.96436597                3.99605507               53.07071356                0.01190751               -0.33651158                0.15989273                0.12894884                1.08967732                0.01183235                0.37323084
               7.96067503                3.99658880               53.07139317                0.01059540               -0.30260892                0.11900849                0.12960677                1.00313050               -0.04116620                0.44821571
               8.95831379                3.99540599               53.07261236                0.01000000               -0.07602311               -0.08990628                0.13251302                0.77164680                0.03039951                0.49702126
               9.95915457                3.99237435               53.07485830                0.07453993                0.08407775               -0.54793491                0.13942936                0.64274501                0.08672409                0.48071708
              -0.02293339                5.00063637               53.06424332                0.28970257               -0.03459997                0.00107615                0.11768854               -0.04538301               -0.00491352                0.08434940
               0.97672061                4.99381772               53.06435642                0.01000000               -0.00467041               -0.06786354                0.11254416                0.13970621               -0.03401370                0.03940441
               1.97697321                4.99071107               53.06387749                0.01000001                0.03406484               -0.19880194                0.11231974                0.36182938               -0.01466123                0.09506708
               2.97740191                4.98973863               53.06469156                0.01000000                0.03780901               -0.24866394                0.11559204                0.54374798                0.08048923                0.05897046
               3.97772939                4.98945116               53.06639656                0.01000001               -0.00925369               -0.12863257                0.11929684                0.77965733                0.17088665                0.11178404
               4.97721684                4.99157921               53.06913217                0.01000001               -0.08572310               -0.01026393                0.12560732                1.04484528                0.23648169                0.22747878
               5.97601492                4.99485302               53.07230476                0.01185545               -0.16938773                0.01455673                0.13361027                1.10531581                0.18296178                0.28741301
               6.97382908                4.99672683               53.07414582                0.01005493               -0.22495620                0.03786180                0.13757064                1.05983828                0.11500382                0.37605484
               7.97151580                4.99722001               53.07616599                0.01000000               -0.19978116                0.10484144                0.14127900                1.02241213                0.15301721                0.56914866
               8.96983346                4.99570174               53.07896016                0.01000000               -0.13947817                0.08925572                0.14894625                0.72755158                0.13036226                0.68364110
               9.96872624                4.98935530               53.08065474                0.02932308               -0.11072230               -0.10254519                0.15581013                0.37598594                0.07150876                0.62872234
              -0.01606428                6.00035836               53.06461474                0.77776533               -0.03549973               -0.03202524                0.12105676               -0.00457971               -0.00548314                0.02566490
               0.98358072                5.99339669               53.06453070                0.01000001               -0.02153086               -0.03893653                0.11580869                0.10273815               -0.00554093               -0.01004340
               1.98350510                5.98860030               53.06443982                0.01142981                0.05106157               -0.23140001                0.11392809                0.29775687                0.03676538               -0.02222751
               2.98460195                5.98614014               53.06536507                0.01000001                0.08974371               -0.38306132                0.11525384                0.63568014                0.16472354               -0.03941915
               3.98529997                5.98783274               53.06790071                0.01000001                0.03785700               -0.19177024                0.12203997                0.96517489                0.30394876                0.09023318
               4.98535909                5.99105075               53.07175119                0.01185687               -0.04680055               -0.11131693                0.13232574                1.06456984                0.31866804                0.15629398
               5.98436396                5.99427405               53.07472706                0.01004127               -0.10816688               -0.07578564                0.13966005                1.07129134                0.29775977                0.25096039
               6.98319575                5.99681230               53.07830924                0.01000000               -0.11077997                0.02986060                0.14813083                1.11823302                0.36929383                0.48930567
               7.98214836                5.99868563               53.08285069                0.01000000               -0.12331090                0.15306668                0.16001843                1.04130433                0.37140509                0.74127659
               8.98072953                5.99719110               53.08658434                0.01161784               -0.13905956                0.18031333                0.17448462                0.62914188                0.22287416                0.72923077
               9.97936717                5.99032344               53.08824705                0.01000000               -0.13623631                0.17517163                0.17886771                0.29009793                0.11608771                0.65206202
              -0.00910165                6.99999587               53.06488953                0.99999999               -0.03649170               -0.03685875                0.12421605                0.00023071               -0.00448967                0.02278263
               0.99053344                6.99303899               53.06463968                0.53150694               -0.03567271               -0.03605550                0.11898147               -0.00068460               -0.01817853               -0.01162201
               1.99018490                6.98608307               53.06411283                0.01618748                0.01748173               -0.14319295                0.11344963                0.13280188                0.02648211               -0.04970613
               2.99088307                6.98207741               53.06475352                0.01000001                0.09686827               -0.35512973                0.11323492                0.59192459                0.26127266               -0.13904476
               3.99212227                6.98561576               53.06895175                0.01191094                0.05919272               -0.25579089                0.12475312                0.97878706                0.41337053               -0.01882301
               4.99206693                6.98935287               53.07275442                0.01005659               -0.02215305               -0.17579675                0.13437175                0.98220003                0.43791480                0.07305381
               5.99167920                6.99333731               53.07756493                0.01000000               -0.01423809               -0.07947639                0.14656304                1.05716414                0.56275008                0.31739077
               6.99178216                6.99732404               53.08399530                0.01000000                0.01419409                0.04632823                0.16377269                1.09504570                0.66514125                0.60204068
               7.99196309                7.00028134               53.09094132                0.01168067               -0.05018406                0.08810659                0.18792712                0.89346897                0.47675305                0.65925129
               8.99077848                6.99930801               53.09360235                0.01000002               -0.18497877                0.22597606                0.18637377                0.56045177                0.16036677                0.93010233
               9.98826351                6.99285873               53.09433073                0.11608916               -0.25149724                0.52003424                0.18097812                0.32328059                0.05450740                0.81333844
              -0.00214591                7.99962119               53.06520022                0.99111651               -0.03742698               -0.03799034                0.12733443                0.00044505               -0.00424768                0.02754834
               0.99747982                7.99267558               53.06477748                0.95220303               -0.03656894               -0.03673773                0.12198066               -0.00016236               -0.00838704               -0.00462705
               1.99712271                7.98573644               53.06427121                0.04508504               -0.02860350               -0.03505467                0.11644422                0.01124226               -0.02146616               -0.02448174
               2.99690775                7.97903754               53.06358708                0.01349138                0.02387693               -0.18045521                0.11167610                0.48974040                0.24197383               -0.10676039
               3.99760025                7.98271692               53.06832660                0.01060245                0.01868930               -0.22952012                0.12222700                0.87580898                0.54612254               -0.07628746
               4.99728154                7.98753482               53.07377259                0.01000000               -0.00320884               -0.13974840                0.13573357                0.89030804                0.67979588                0.11874855
               5.99753608                7.99268452               53.08135863                0.01000000                0.04355485               -0.07027563                0.15699994                0.90838680                0.84916933                0.33445019
               6.99815264                7.99773887               53.09035578                0.01168531                0.02488496               -0.01756461                0.18721613                0.80696726                0.73838159                0.42869816
               7.99803377                8.00044776               53.09577705                0.01000002                0.06042727                0.08764991                0.19223487                0.64933733                0.74888379                0.71887575
               8.99936118                8.00171062               53.10507413                0.13074920                0.03487793                0.08857899                0.21050920                0.49217792                0.47155914                0.58370313
               9.99873133                8.00072413               53.10494696                0.61422108               -0.06298477                0.36252860                0.20865645                0.47420664                0.00042786                0.53851651
               0.00479846                8.99923606               53.06556839                0.99990171               -0.03835258               -0.03906854                0.13054299                0.00051527                0.00126498                0.02482207
               1.00441493                8.99230423               53.06502493                0.99999999               -0.03753365               -0.03757222                0.12511618                0.00004910               -0.00043918                0.00093758
               2.00404779                8.98538198               53.06444887                1.00000000               -0.03587686               -0.03594091                0.11964196               -0.00003206               -0.00895153               -0.01427326
               3.00369740                8.97846830               53.06373772                0.01000000               -0.14533098               -0.04579809                0.11400867                0.46661420                0.25092963               -0.02469245
               4.00114117                8.98102536               53.06836283                0.01000000               -0.18959538               -0.02362751                0.12331306                0.64383212                0.64285690                0.02505341
               4.99990549                8.98655790               53.07575318                0.01000000               -0.07491362               -0.06232416                0.14197726                0.59448699                0.83882447                0.11789801
               5.99964289                8.99193180               53.08451964                0.01163907                0.01263909               -0.06892366                0.17115564                0.50136494                0.85872810                0.21191040
               7.00015827                8.99697275               53.09245851                0.01000002                0.06675907               -0.11006210                0.18475032                0.48479418                1.04383240                0.12177586
               8.00097808                9.00203434               53.10505080                0.14354238                0.00937019                0.04782666                0.21087419                0.40015655                0.63717390                0.47380609
               9.00034567                9.00107959               53.10491556                0.98244672               -0.06287219               -0.06282667                0.20919080                0.00119504                0.00009111                0.00141413
               9.99972063                9.00010930               53.10476562                0.99531952               -0.06250426               -0.06170163                0.20731315                0.00092759               -0.00058373               -0.00095866
               0.01172806                9.99883981               53.06582450                1.00000000               -0.03931682               -0.03962455                0.13370537                0.00139199                0.01832644                0.01911433
               1.01133489                9.99192414               53.06527512                0.99814293               -0.03850282               -0.03800923                0.12831952                0.00088577                0.02252490                0.00090461
               2.01095800                9.98501762               53.06481349                0.91015978               -0.03691156               -0.03643537                0.12301568                0.00089332                0.02243867               -0.00515163
               3.01059666                9.97812158               53.06426731                0.14006300               -0.42853514               -0.03467237                0.11764433                0.55126350                0.32016382               -0.00603136
               4.00238730                9.98224437               53.06976662                0.07583095               -0.61659097                0.12190176                0.12935102                0.53295075                0.66489916                0.10047410
               4.99826484                9.98628834               53.07673022                0.02139110               -0.26193838               -0.02695650                0.14803532                0.28901849                0.82425650                0.07178264
               5.99714853                9.99130605               53.08579687                0.08543779               -0.02594298               -0.06257489                0.17565041                0.21302777                0.80885783                0.12042289
               6.99774598                9.99553762               53.09267970                0.09942969                0.23907687               -0.14351227                0.17795912                0.26368287                0.96130276                0.02745065
               8.00193007               10.00140429               53.10486741                0.62264509                0.17820707               -0.06300454                0.20929856                0.34102228                0.61855281                0.00100652
               9.00131012               10.00045409               53.10474038                0.99531848               -0.06198080               -0.06254961                0.20758842                0.00073445                0.00172511                0.00063260
              10.00069045                9.99949010               53.10459045                0.99097248               -0.06196685               -0.06192066                0.20571078                0.00058246                0.00064189               -0.00057732
              -0.04031224                0.00007690               54.05384049                1.00000000               -0.02996545               -0.02978212                0.09688640                0.00149550               -0.01049078                0.01036884
               0.95938810               -0.00286133               54.05561859                0.73725173               -0.03097148               -0.03130488                0.10220035                0.00053800               -0.01391525               -0.00559081
               1.95906833               -0.00579403               54.05733016                0.22093762               -0.03870271               -0.03305441                0.10808277               -0.00815886               -0.01600804               -0.00496115
               2.95861405               -0.00889725               54.05906102                0.05977371               -0.04653235               -0.02970518                0.11384711               -0.12574493               -0.00375908               -0.00527591
               3.95813768               -0.01444598               54.06100413                0.12071279               -0.00981146               -0.00349040                0.10874820               -0.29450159                0.01241750               -0.00209626
               4.95841782               -0.01302707               54.06267523                0.29440296                0.00147566               -0.03167334                0.11125970               -0.05972181                0.00444346               -0.00220893
               5.95816719               -0.01024515               54.06438626                0.78201094               -0.02984249               -0.03427289                0.11546556               -0.00585272                0.00738866               -0.00221070
               6.95782097               -0.00732436               54.06610569                1.00000000               -0.03547668               -0.03572349                0.11990991                0.00038037                0.00868200               -0.00179786
               7.95745766               -0.00439625               54.06784155                0.99116578               -0.03707992               -0.03705786                0.12437665                0.00064231                0.01059987               -0.00174572
               8.95707937               -0.00146855               54.06959903                0.99948065               -0.03856311               -0.03837713                0.12886222                0.00071952                0.00951423                0.00069815
               9.95668640                0.00145493               54.07131336                1.00000000               -0.03929734               -0.03975885                0.13333169                0.00102861                0.00731912                0.00738775
              -0.03735905                0.99977908               54.05396533                0.73763222               -0.03119979               -0.03054519                0.10141464                0.00053867                0.00549922                0.01350933
               0.96232895                0.99682562               54.05574345                0.01000000               -0.03181231               -0.03184990                0.10666985               -0.00071525                0.01015912               -0.01064584
               1.96200470                0.99387543               54.05761939                0.01000000               -0.03231852               -0.03338824                0.11222875               -0.02444710                0.01527818                0.03270273
               2.96168258                0.99080570               54.05950101                0.01000001               -0.23735624               -0.00249009                0.11760951               -0.17450265                0.01461956                0.04870416
               3.95725757                0.98551911               54.06136007                0.01000000               -0.29811973                0.15576510                0.10744266               -0.03187938                0.00915884                0.05260769
               4.95572018                0.98665620               54.06301922                0.01000000               -0.10001309                0.05308546                0.10974720                0.19389091               -0.00522485                0.04840678
               5.95525731                0.98941213               54.06466717                0.01000001               -0.04099293                0.01174405                0.11387215                0.13711589               -0.00596058                0.03380932
               6.95490032                0.99231840               54.06632135                0.52732897               -0.03605661               -0.03551193                0.11822129               -0.00093371               -0.00495658               -0.00756606
               7.95453618                0.99523318               54.06798848                0.98566938               -0.03696718               -0.03673244                0.12256064               -0.00016251               -0.00195146               -0.00342460
               8.95416098                0.99814768               54.06970160                0.99999999               -0.03814886               -0.03809635                0.12700991                0.00003946                0.00039668                0.00054738
               9.95377320                1.00105734               54.07141468                0.99725738               -0.03877774               -0.03947152                0.13149216                0.00032080                0.00042987                0.00954677
              -0.03439455                1.99946600               54.05415731                0.21876740               -0.03280018               -0.03329485                0.10633136               -0.00307005                0.00489189                0.02761255
               0.96527745                1.99650167               54.05576960                0.01000000               -0.05030715               -0.03163840                0.11168790               -0.00471613                0.06854028               -0.00628965
               1.96459931                1.99353821               54.05865451                0.01000001               -0.08985694               -0.03391214                0.11342045                0.01522981                0.11114214                0.12313229
               2.96348031                1.99105295               54.06101624                0.01000000               -0.14748576                0.01384023                0.11336970                0.02442017                0.05984039                0.11473344
               3.96164959                1.98866932               54.06281081                0.01000000               -0.25388431                0.23124142                0.11291726                0.26755642                0.01681577                0.12294248
               4.95840262                1.98803464               54.06437378                0.01000001               -0.32011444                0.15611996                0.11305366                0.44792272               -0.01250445                0.11811761
               5.95524730                1.98998974               54.06566732                0.01142846               -0.32106892                0.13184595                0.11503214                0.35369283               -0.06250338                0.09678878
               6.95198125                1.99196540               54.06642084                0.01618373               -0.18110822                0.05167381                0.11625048                0.14766909               -0.05629706                0.04624067
               7.95162514                1.99486911               54.06810134                0.04875690               -0.03626242               -0.02794231                0.12066373                0.01268855               -0.00885298               -0.00281860
               8.95125600                1.99776952               54.06980099                0.97038602               -0.03758269               -0.03751207                0.12513442               -0.00003055               -0.00483427               -0.00215540
               9.95087349                2.00066550               54.07155938                0.99999999               -0.03825118               -0.03892965                0.12971621                0.00032524               -0.00179246                0.01004814
              -0.03149180                2.99911318               54.05456455                0.06109847               -0.03457837                0.04374279                0.11155926               -0.03558686                0.00546959                0.48710032
               0.96816241                2.99619285               54.05598623                0.01000001               -0.03750899               -0.10386817                0.11675381               -0.03921334                0.17288353                0.40581476
               1.96775802                2.99319718               54.06076191                0.01000000               -0.05612731               -0.06817660                0.11290756                0.09147638                0.21737566                0.17432028
               2.96703987                2.99108250               54.06268001                0.01000000               -0.10655043               -0.01641108                0.11396853                0.25839503                0.07722628                0.13695437
               3.96562701                2.99014394               54.06462705                0.01197640               -0.18408243                0.06809616                0.11532663                0.38660929                0.05151628                0.12577502
               4.96335822                2.98977860               54.06611346                0.01000000               -0.36133010                0.14553865                0.11704962                0.62007222                0.00140699                0.13917133
               5.95840041                2.99204905               54.06720149                0.01000001               -0.51919418                0.19158175                0.11800620                0.73239512               -0.06743322                0.19405280
               6.95297434                2.99335188               54.06771055                0.01000001               -0.47072873                0.20101967                0.11804739                0.68958930               -0.11591121                0.26231085
               7.94898583                2.99467433               54.06825843                0.01355874               -0.23051791                0.08319504                0.11831930                0.58590279               -0.07724200                0.21366197
               8.94836398                2.99739743               54.06984790                0.01000000               -0.04990406               -0.12809159                0.12317959                0.56084899               -0.01400197                0.19728963
               9.94798775                3.00027875               54.07166941                0.11288953               -0.03762260               -0.43067852                0.12782182                0.63243860               -0.00221738                0.23184473
              -0.02926562                4.00034085               54.06390817                0.12080564               -0.03251965                0.07251032                0.10826146               -0.17055488               -0.00683734                0.54170210
               0.97040918                3.99442430               54.06429732                0.01000000                0.04024046               -0.13229781                0.10533278                0.01304496               -0.09023642                0.43908139
               1.97153919                3.99217467               54.06297837                0.01000000                0.06461375               -0.14208857                0.11207102                0.26086478               -0.04874766                0.16952868
               2.97170145                3.99072472               54.06461776                0.01197683               -0.04267508               -0.08561970                0.11487901                0.38852994                0.07867256                0.11822353
               3.97068568                3.99003124               54.06608940                0.01000000               -0.14012450               -0.05370875                0.11733464                0.59071246                0.07616366                0.11012975
               4.96889896                3.99094541               54.06787848                0.01000001               -0.21818810                0.07667714                0.12096661                0.85292485                0.09769324                0.18271731
               5.96632192                3.99382137               54.06999307                0.01000001               -0.28756086                0.13457527                0.12499828                1.09870452                0.09679040                0.30655032
               6.96314775                3.99598579               54.07200451                0.01192241               -0.35121395                0.16721109                0.12923259                1.13899403                0.01146041                0.38467956
               7.95929764                3.99653301               54.07268735                0.01064939               -0.31395931                0.12580355                0.12926601                1.04336302               -0.04303303                0.46149606
               8.95686856                3.99520769               54.07393315                0.01000000               -0.07690050               -0.09202759                0.13180847                0.80195532                0.03175342                0.51071002
               9.95775963                3.99205193               54.07624732                0.07507307                0.08910715               -0.56651044                0.13866009                0.67186183                0.09026436                0.49524018
              -0.02306981                5.00056339               54.06541368                0.28881684               -0.03407018               -0.00322172                0.11624776               -0.03881238               -0.00485420                0.08659883
               0.97658949                4.99354689               54.06547481                0.01000000               -0.01276489               -0.06425403                0.11109414                0.15109616               -0.03115564                0.04052124
               1.97667489                4.99035541               54.06499853                0.01000001                0.01822044               -0.19639413                0.11198078                0.38802962               -0.00961050                0.09269774
               2.97695390                4.98937011               54.06584922                0.01000000                0.02728381               -0.25110758                0.11609824                0.57743120                0.08546611                0.05694510
               3.97722057                4.98906977               54.06759328                0.01000001               -0.01636561               -0.12913072                0.12024857                0.82071551                0.17649016                0.11279100
               4.97662659                4.99131214               54.07039374                0.01000001               -0.09432276               -0.00726437                0.12681551                1.09555291                0.24344056                0.23321052
               5.97533412                4.99474055               54.07364688                0.01186802               -0.17920032                0.01677333                0.13481259                1.15638722                0.18801297                0.29600504
               6.97304258                4.99669610               54.07552571                0.01007650               -0.23514578                0.04003795                0.13841434                1.10652259                0.11731112                0.38740117
               7.97063120                4.99719040               54.07757920                0.01000000               -0.20792086                0.10928648                0.14144516                1.06441332                0.15679180                0.58634942
               8.96888416                4.99555688               54.08044701                0.01000000               -0.14473454                0.09806279                0.14858136                0.75745469                0.13558267                0.70604975
               9.96773651                4.98894854               54.08220938                0.03012880               -0.11476544               -0.10227773                0.15546082                0.39440715                0.07616427                0.64902512
              -0.01600888                6.00027642               54.06582078                0.77417222               -0.03520381               -0.03238933                0.12008635               -0.00375933               -0.00547000                0.02580103
               0.98363908                5.99313922               54.06568421                0.01000001               -0.02572755               -0.03815382                0.11487817                0.10735093               -0.00363382               -0.00981317
               1.98347656                5.98824679               54.06557797                0.01143044                0.04483238               -0.23508081                0.11386512                0.31536025                0.04099407               -0.02450045
               2.98453572                5.98570257               54.06651957                0.01000001                0.08406986               -0.39044698                0.11585698                0.66740571                0.17239630               -0.04326595
               3.98515796                5.98744863               54.06912616                0.01000001                0.03017564               -0.19322623                0.12327931                1.00750345                0.31491971                0.09120098
               4.98513924                5.99080012               54.07308173                0.01186728               -0.05461300               -0.11210111                0.13395076                1.11171708                0.32885751                0.16028548
               5.98406570                5.99415684               54.07613119                0.01006171               -0.11554446               -0.07717344                0.14124841                1.11743742                0.30622409                0.25807868
               6.98282835                5.99678655               54.07979651                0.01000000               -0.11702861                0.03157633                0.14937096                1.16360667                0.37940623                0.50393987
               7.98172513                5.99871874               54.08445455                0.01000000               -0.12844154                0.16151914                0.16072371                1.08426228                0.38434150                0.76661056
               8.98025952                5.99716894               54.08833239                0.01171402               -0.14303328                0.19070915                0.17522718                0.65485696                0.23204514                0.74970080
               9.97886446                5.99000637               54.09003778                0.01000000               -0.13950540                0.18464533                0.17950825                0.30117581                0.12019153                0.66491199
              -0.00887061                6.99991560               54.06612892                0.99999999               -0.03632558               -0.03671691                0.12363097                0.00030095               -0.00450364                0.02283051
               0.99076613                6.99278382               54.06582717                0.52556396               -0.03553196               -0.03591788                0.11852118               -0.00070682               -0.01829692               -0.01159049
               1.99041875                6.98565380               54.06524601                0.01618662                0.01670217               -0.14700465                0.11332365                0.14151155                0.02896372               -0.05183775
               2.99110018                6.98156117               54.06588809                0.01000001                0.09271683               -0.36202415                0.11402077                0.61711597                0.27192005               -0.14378503
               3.99227309                6.98520524               54.07020485                0.01192374                0.05262702               -0.26061891                0.12619484                1.01719141                0.42765092               -0.02074565
               4.99215272                6.98907012               54.07410590                0.01007919               -0.02883263               -0.17904447                0.13614994                1.02173261                0.45152689                0.07401700
               5.99169643                6.99319708               54.07903869                0.01000000               -0.01999516               -0.08016199                0.14834504                1.09701217                0.57924861                0.32639941
               6.99175281                6.99732763               54.08563977                0.01000000                0.01188101                0.05077005                0.16522500                1.13664549                0.68721793                0.62307997
               7.99193405                7.00042078               54.09282848                0.01176893               -0.05295744                0.09359759                0.18959160                0.92456147                0.48929454                0.67758122
               8.99069367                6.99937107               54.09546860                0.01000002               -0.19244442                0.23650439                0.18692029                0.57311940                0.15766226                0.94935179
               9.98808517                6.99264144               54.09613845                0.11774453               -0.26084995                0.54467436                0.18069001                0.32742594                0.04969126                0.82793289
              -0.00173930                7.99954208               54.06647260                0.99114986               -0.03739558               -0.03792522                0.12713465                0.00048785               -0.00434019                0.02767210
               0.99788675                7.99242087               54.06599706                0.95220216               -0.03656277               -0.03675011                0.12195707               -0.00021581               -0.00857966               -0.00470608
               1.99752945                7.98530670               54.06543629                0.04357770               -0.02800731               -0.03513841                0.11664754                0.01255805               -0.02130061               -0.02478693
               2.99732660                7.97846209               54.06470723                0.01356233                0.02316974               -0.18491429                0.11264667                0.50529163                0.25031967               -0.10968456
               3.99799284                7.98223625               54.06955347                0.01065607                0.01277249               -0.23302892                0.12358508                0.90337135                0.56301025               -0.07956956
               4.99758205                7.98721924               54.07513710                0.01000000               -0.01222044               -0.14081373                0.13753030                0.91982126                0.70084355                0.12144574
               5.99774843                7.99255360               54.08293586                0.01000000                0.03777536               -0.06809005                0.15874591                0.93882978                0.87751480                0.34720650
               6.99833756                7.99780195               54.09223727                0.01177168                0.02122456               -0.01458694                0.18926046                0.83126906                0.75796030                0.44076713
               7.99817292                8.00059069               54.09770384                0.01000002                0.05818445                0.09072333                0.19318534                0.66468409                0.76192276                0.73179266
               8.99950125                8.00189903               54.10717807                0.13086878                0.03496504                0.09487806                0.21026324                0.50570429                0.48139097                0.59654080
               9.99887222                8.00089986               54.10703201                0.61467417               -0.06290214                0.38222828                0.20834430                0.48953228                0.00045918                0.55332948
               0.00538157                8.99915710               54.06687461                0.99956811               -0.03843722               -0.03911657                0.13074322                0.00056852                0.00123635                0.02499723
               1.00499720                8.99204881               54.06627783                0.99999999               -0.03764406               -0.03769597                0.12548985                0.00003468               -0.00052303                0.00090915
               2.00462869                8.98495103               54.06564794                1.00000000               -0.03603692               -0.03611690                0.12016459               -0.00005833               -0.00916820               -0.01443165
               3.00427646                8.97786288               54.06488137                0.01000000               -0.15226600               -0.04743654                0.11466947                0.48083602                0.25812575               -0.02554391
               4.00158337                8.98054466               54.06960143                0.01000000               -0.20223328               -0.02005956                0.12481927                0.66110909                0.66127963                0.02615014
               5.00023179                8.98625384               54.07717917                0.01000000               -0.08465288               -0.05970387                0.14366645                0.61063794                0.86612555                0.12302797
               5.99989031                8.99183528               54.08624127                0.01173331                0.00546557               -0.06587381                0.17346030                0.51523143                0.88244341                0.22196185
               7.00034111                8.99703589               54.09431207                0.01000002                0.06201742               -0.11023472                0.18617002                0.49473380                1.06505475                0.11837435
               8.00113066                9.00223525               54.10715880                0.14339618                0.00787372                0.05075535                0.21070565                0.40772297                0.65095814                0.48367982
               9.00049858                9.00126863               54.10700665                0.98278219               -0.06282524               -0.06276995                0.20901888                0.00123808                0.00020346                0.00157310
               9.99987415                9.00028601               54.10683757                0.99561147               -0.06244252               -0.06161646                0.20707381                0.00093672               -0.00057929               -0.00080830
               0.01248863                9.99875975               54.06716421                1.00000000               -0.03951270               -0.03973490                0.13428488                0.00142644                0.01854564                0.01926281
               1.01209351                9.99166695               54.06656204                0.99786801               -0.03872106               -0.03818673                0.12907737                0.00086158                0.02277245                0.00089533
               2.01171421                9.98458436               54.06604848                0.91178178               -0.03719112               -0.03666675                0.12397835                0.00087295                0.02270870               -0.00522185
               3.01134968                9.97751336               54.06544968                0.14607445               -0.44450755               -0.03495223                0.11885942                0.56985736                0.32893356               -0.00610790
               4.00282406                9.98183506               54.07106687                0.07652468               -0.64227475                0.12903948                0.13107229                0.54965925                0.68385749                0.10425426
               4.99850419                9.98602516               54.07821907                0.02169523               -0.27765252               -0.02286836                0.15022038                0.29729277                0.84979442                0.07705664
               5.99727101                9.99123612               54.08756425                0.08556100               -0.03359637               -0.05991593                0.17814562                0.21667512                0.82494220                0.12548640
               6.99783226                9.99559726               54.09446329                0.10005457                0.24118176               -0.14386307                0.17896923                0.26759937                0.97888686                0.02163016
               8.00209465               10.00160580               54.10695963                0.62263476                0.18214924               -0.06294554                0.20913560                0.34871734                0.63503719                0.00103912
               9.00147525               10.00064363               54.10681542                0.99561271               -0.06192280               -0.06249938                0.20741851                0.00075351                0.00182321                0.00063448
              10.00085619                9.99966753               54.10664636                0.99105698               -0.06190566               -0.06184792                0.20547344                0.00059342                0.00064156               -0.00057431
              -0.04222147                0.00003166               55.05481106                1.00000000               -0.02992683               -0.02985483                0.09716059                0.00150906               -0.01031439                0.01016247
               0.95747926               -0.00306510               55.05663999                0.73668469               -0.03086820               -0.03129687                0.10202073                0.00051891               -0.01350947               -0.00554762
               1.95716117               -0.00615421               55.05840440                0.22185707               -0.03835481               -0.03277437                0.10707784               -0.00816773               -0.01538482               -0.00486964
               2.95671217               -0.00941089               55.06019242                0.06168047               -0.03642082               -0.02932241                0.11257279               -0.11137601               -0.00811627               -0.00537565
               3.95643275               -0.01481704               55.06209153                0.12150320                0.00185411               -0.00356890                0.10875981               -0.28525674                0.00709399               -0.00225092
               4.95674925               -0.01338576               55.06378736                0.29424683                0.00356000               -0.03158814                0.11119217               -0.06187447                0.00338057               -0.00223619
               5.95650395               -0.01054035               55.06554053                0.78053444               -0.02955178               -0.03421819                0.11540496               -0.00616778                0.00732573               -0.00223831
               6.95615821               -0.00754971               55.06730465                1.00000000               -0.03544620               -0.03568533                0.11989590                0.00037188                0.00875213               -0.00182427
               7.95579503               -0.00455185               55.06908545                0.99124158               -0.03707952               -0.03703588                0.12441458                0.00064876                0.01068885               -0.00180408
               8.95541662               -0.00155489               55.07088814                0.99914371               -0.03858843               -0.03837126                0.12896230                0.00072853                0.00960330                0.00069545
               9.95502326                0.00143718               55.07264750                1.00000000               -0.03933647               -0.03976908                0.13349130                0.00107725                0.00739832                0.00748772
              -0.03910962                0.99973311               55.05498276                0.73701233               -0.03129925               -0.03062926                0.10197540                0.00067074                0.00539031                0.01344265
               0.96057739                0.99662193               55.05681168                0.01000000               -0.03189981               -0.03197334                0.10683017               -0.00043398                0.01017821               -0.01035438
               1.96025238                0.99351804               55.05873816                0.01000000               -0.03237825               -0.03337784                0.11161107               -0.02123512                0.01545640                0.03124713
               2.95992982                0.99029589               55.06067313                0.01000001               -0.23423813                0.00037105                0.11667195               -0.15526353                0.00704169                0.04482312
               3.95556762                0.98514727               55.06243441                0.01000000               -0.29688313                0.15396597                0.10742927               -0.01567611                0.00082222                0.05579742
               4.95399216                0.98629836               55.06411524                0.01000000               -0.10216860                0.05287922                0.10947139                0.20252463               -0.00655474                0.05092370
               5.95352425                0.98911746               55.06580439                0.01000001               -0.04122386                0.01184205                0.11358161                0.14347370               -0.00621919                0.03525897
               6.95316768                0.99209343               55.06750230                0.52482314               -0.03600725               -0.03544097                0.11797387               -0.00097794               -0.00510006               -0.00774322
               7.95280410                0.99507779               55.06921306                0.98608438               -0.03691457               -0.03667261                0.12235985               -0.00017331               -0.00204577               -0.00352867
               8.95242939                0.99806140               55.07097098                0.99999999               -0.03810723               -0.03805312                0.12686524                0.00003930                0.00037436                0.00053024
               9.95204196                1.00103949               55.07272919                0.99695416               -0.03874319               -0.03944309                0.13140343                0.00035943                0.00042459                0.00967991
              -0.03598570                1.99941907               55.05522152                0.21959359               -0.03286534               -0.03242306                0.10674603               -0.00124927                0.00482055                0.02794938
               0.96368565                1.99629543               55.05688698                0.01000000               -0.04758976               -0.03297207                0.11188091               -0.00262085                0.06657606               -0.00558203
               1.96306251                1.99317823               55.05978970                0.01000001               -0.08539883               -0.03806483                0.11348417                0.03088118                0.10708969                0.11952706
               2.96197767                1.99059653               55.06215042                0.01000000               -0.14728734                0.01705641                0.11339712                0.05096325                0.05493527                0.11021247
               3.96011676                1.98826228               55.06394036                0.01000000               -0.25740637                0.23046343                0.11299151                0.29593591                0.01214494                0.12641475
               4.95682954                1.98767182               55.06550467                0.01000001               -0.32692060                0.15591291                0.11316040                0.47562797               -0.01551894                0.12268098
               5.95357835                1.98969649               55.06681718                0.01143316               -0.33256066                0.13573617                0.11495352                0.37273637               -0.06515773                0.10023430
               6.95017833                1.99174147               55.06758086                0.01618113               -0.18773751                0.05490430                0.11575383                0.15583956               -0.05818491                0.04790340
               7.94982360                1.99471469               55.06930577                0.04907874               -0.03613128               -0.02753606                0.12021978                0.01302032               -0.00900137               -0.00320263
               8.94945570                1.99768405               55.07105039                0.97530841               -0.03746692               -0.03739459                0.12474139               -0.00003556               -0.00489634               -0.00222380
               9.94907426                2.00064832               55.07285489                0.99999999               -0.03814463               -0.03882697                0.12938110                0.00036385               -0.00179451                0.01015894
              -0.03288733                2.99908465               55.05568477                0.06200449               -0.03468608                0.04513428                0.11253840                0.00161991                0.00521717                0.48259492
               0.96676581                2.99596249               55.05715823                0.01000001               -0.02718832               -0.11242137                0.11752614               -0.00135907                0.16808662                0.39711777
               1.96656890                2.99275675               55.06189152                0.01000000               -0.04503850               -0.07239660                0.11294660                0.12530314                0.21252950                0.16912359
               2.96586504                2.99063702               55.06382127                0.01000000               -0.10789281               -0.01439320                0.11430631                0.29758116                0.07546098                0.13489973
               3.96441105                2.98975654               55.06578259                0.01197874               -0.18972669                0.06897407                0.11582398                0.42363949                0.05004362                0.12696113
               4.96207051                2.98941662               55.06728648                0.01000000               -0.37508592                0.14791355                0.11762925                0.65801757               -0.00043422                0.14313543
               5.95690933                2.99183219               55.06838226                0.01000001               -0.54021205                0.19860248                0.11819183                0.77058007               -0.07081885                0.20039224
               6.95126627                2.99319152               55.06888939                0.01000001               -0.48937001                0.20960155                0.11775925                0.72087229               -0.12016716                0.27078103
               7.94712193                2.99452707               55.06943795                0.01363107               -0.23856063                0.08916252                0.11762964                0.60920611               -0.07932812                0.21996815
               8.94649505                2.99731351               55.07107653                0.01000000               -0.05006200               -0.13314872                0.12253804                0.58345334               -0.01392568                0.20256125
               9.94612069                3.00026295               55.07294479                0.11582288               -0.03743631               -0.44545714                0.12724453                0.65780706               -0.00225227                0.23834981
              -0.02970898                4.00032176               55.06497721                0.12032378               -0.03046487                0.06855448                0.10511454               -0.14074617               -0.00703424                0.54097400
               0.96998637                3.99404701               55.06533930                0.01000000                0.03015128               -0.13606173                0.10302612                0.05776908               -0.08503892                0.43060823
               1.97089404                3.99173030               55.06409898                0.01000000                0.04715690               -0.13956630                0.11213021                0.30496745               -0.04303384                0.16459789
               2.97092950                3.99030867               55.06576917                0.01197785               -0.05420454               -0.08306440                0.11551435                0.42814505                0.08060744                0.11658224
               3.96980995                3.98964176               55.06726661                0.01000000               -0.15076307               -0.05431573                0.11824946                0.63125231                0.07766735                0.11120244
               4.96791424                3.99063009               55.06909229                0.01000001               -0.22974533                0.08117751                0.12190373                0.89941602                0.09933060                0.18742158
               5.96521504                3.99366854               55.07124648                0.01000001               -0.30066728                0.14014081                0.12573999                1.15186452                0.09820425                0.31617211
               6.96190090                3.99593350               55.07329821                0.01193821               -0.36646548                0.17456645                0.12954370                1.19030621                0.01030303                0.39692182
               7.95788573                3.99649795               55.07397849                0.01070597               -0.32560056                0.13263643                0.12902718                1.08479902               -0.04562186                0.47561502
               8.95538889                3.99502107               55.07524853                0.01000000               -0.07771132               -0.09450091                0.13132889                0.83305587                0.03277821                0.52484679
               9.95633151                3.99173918               55.07763150                0.07560348                0.09426211               -0.58588074                0.13831836                0.70201509                0.09370310                0.51027301
              -0.02315275                5.00045574               55.06656828                0.28797841               -0.03346010               -0.00813110                0.11434722               -0.03102583               -0.00470169                0.08926227
               0.97651265                4.99324126               55.06657831                0.01000000               -0.02203313               -0.05994669                0.10964953                0.16370841               -0.02759554                0.04197056
               1.97640659                4.98996542               55.06611711                0.01000001                0.00019156               -0.19337443                0.11195423                0.41650286               -0.00385918                0.09003876
               2.97651648                4.98897573               55.06701353                0.01000000                0.01540405               -0.25363586                0.11703692                0.61384917                0.09067500                0.05489897
               3.97671467                4.98867022               55.06880153                0.01000001               -0.02422175               -0.12982825                0.12163269                0.86453426                0.18197759                0.11409028
               4.97603205                4.99104017               55.07166848                0.01000001               -0.10357274               -0.00428961                0.12830107                1.14908781                0.25004048                0.23948705
               5.97464322                4.99463500               55.07500101                0.01187757               -0.18945326                0.01876394                0.13610217                1.21006537                0.19247727                0.30525381
               6.97224298                4.99668285               55.07691411                0.01010337               -0.24564395                0.04217685                0.13927280                1.15522038                0.11871783                0.39945242
               7.96973034                4.99717980               55.07899490                0.01000000               -0.21640220                0.11353104                0.14171645                1.10771062                0.15957670                0.60430331
               8.96791494                4.99542349               55.08193179                0.01000000               -0.15027764                0.10712272                0.14849561                0.78819280                0.14030781                0.72933456
               9.96672478                4.98854534               55.08376396                0.03094317               -0.11901545               -0.10232820                0.15564321                0.41362052                0.08080692                0.67024648
              -0.01590054                6.00015914               55.06701647                0.77058715               -0.03486124               -0.03275374                0.11883240               -0.00288009               -0.00540909                0.02600714
               0.98375085                5.99284807               55.06682826                0.01000001               -0.03049197               -0.03734650                0.11397264                0.11207180               -0.00117109               -0.00934964
               1.98348962                5.98786281               55.06671712                0.01143470                0.03754183               -0.23887116                0.11426618                0.33422765                0.04583004               -0.02696073
               2.98450169                5.98523595               55.06768221                0.01000001                0.07732874               -0.39808447                0.11701326                0.70142671                0.18031866               -0.04740472
               3.98503620                5.98704519               55.07036630                0.01000001                0.02147647               -0.19483436                0.12513824                1.05255734                0.32587932                0.09233890
               4.98493122                5.99054430               55.07443021                0.01187931               -0.06312657               -0.11311611                0.13595369                1.16151001                0.33872269                0.16454130
               5.98377367                5.99404382               55.07755203                0.01008208               -0.12353513               -0.07871906                0.14311102                1.16599139                0.31410774                0.26569023
               6.98246051                5.99677704               55.08129666                0.01000000               -0.12371794                0.03310139                0.15075875                1.21092502                0.38873202                0.51907719
               7.98129931                5.99876857               55.08606516                0.01000000               -0.13366568                0.17019377                0.16149506                1.12881522                0.39674948                0.79284387
               8.97978720                5.99716353               55.09008888                0.01181664               -0.14695448                0.20129408                0.17611792                0.68154340                0.24107198                0.77072087
               9.97836022                5.98969261               55.09183721                0.01000000               -0.14269819                0.19389125                0.18045514                0.31255126                0.12415813                0.67776669
              -0.00858822                6.99980066               55.06736215                0.99999999               -0.03613655               -0.03651002                0.12288053                0.00031128               -0.00448642                0.02294209
               0.99105041                6.99249433               55.06701010                0.51950853               -0.03542584               -0.03586329                0.11811310               -0.00094898               -0.01820261               -0.01139748
               1.99070326                6.98518800               55.06637930                0.01618741                0.01561106               -0.15120213                0.11369976                0.15083098                0.03204195               -0.05421303
               2.99136263                6.98101404               55.06703393                0.01000001                0.08771032               -0.36926926                0.11535412                0.64404064                0.28295900               -0.14853739
               3.99245747                6.98477353               55.07147564                0.01194151                0.04504953               -0.26581217                0.12845163                1.05790982                0.44199002               -0.02295153
               4.99226362                6.98877784               55.07547742                0.01010147               -0.03635793               -0.18269163                0.13851176                1.06359470                0.46484978                0.07488116
               5.99173031                6.99306062               55.08053183                0.01000000               -0.02634456               -0.08088747                0.15055886                1.13897833                0.59513587                0.33566357
               6.99173673                6.99734488               55.08729980                0.01000000                0.00949204                0.05524367                0.16693660                1.18031964                0.70887875                0.64467004
               7.99192015                7.00058367               55.09473315                0.01186547               -0.05574872                0.09923649                0.19130433                0.95683088                0.50118781                0.69619302
               8.99062176                6.99944937               55.09734075                0.01000002               -0.20012562                0.24699319                0.18749887                0.58565618                0.15385789                0.96804627
               9.98791764                6.99242316               55.09794453                0.11945762               -0.27041212                0.56994903                0.18065359                0.33099961                0.04404941                0.84194861
              -0.00128164                7.99942894               55.06774292                0.99118220               -0.03738281               -0.03781326                0.12688371                0.00043603               -0.00439402                0.02792011
               0.99834454                7.99213081               55.06721662                0.95217230               -0.03659176               -0.03684429                0.12202238               -0.00047183               -0.00870708               -0.00472193
               1.99798653                7.98483877               55.06660416                0.04189974               -0.02737861               -0.03534227                0.11715595                0.01386912               -0.02075149               -0.02530619
               2.99779696                7.97785057               55.06584001                0.01363959                0.02220312               -0.18995311                0.11499638                0.52169863                0.25893057               -0.11298269
               3.99843059                7.98172895               55.07079831                0.01071019                0.00595294               -0.23692834                0.12589697                0.93256981                0.57934400               -0.08355407
               4.99791602                7.98689047               55.07652320                0.01000000               -0.02221954               -0.14206745                0.14001105                0.95108256                0.72160878                0.12383865
               5.99798620                7.99242607               55.08453355                0.01000000                0.03139187               -0.06589865                0.16117756                0.97099965                0.90559540                0.36022514
               6.99854386                7.99788191               55.09414099                0.01186482                0.01726169               -0.01153318                0.19159114                0.85661694                0.77678612                0.45295116
               7.99833143                8.00075330               55.09964076                0.01000002                0.05584867                0.09342376                0.19417879                0.68019972                0.77350202                0.74371329
               8.99966083                8.00210339               55.10927940                0.13093163                0.03505956                0.10121604                0.21001170                0.51937543                0.49062101                0.60898440
               9.99903263                8.00109159               55.10911384                0.61516063               -0.06282075                0.40278107                0.20803017                0.50529807                0.00049004                0.56809558
               0.00601676                8.99904440               55.06818325                0.99922715               -0.03856133               -0.03915251                0.13102850                0.00055147                0.00118864                0.02530614
               1.00563114                8.99175744               55.06753473                0.99999999               -0.03779374               -0.03785877                0.12594533               -0.00008604               -0.00068785                0.00086976
               2.00526088                8.98448115               55.06685216                0.99999999               -0.03623597               -0.03633304                0.12069255               -0.00022311               -0.00958071               -0.01479368
               3.00490642                8.97721498               55.06603111                0.01000000               -0.15959602               -0.04938843                0.11516783                0.49568980                0.26565521               -0.02713185
               4.00206896                8.98003497               55.07085921                0.01000000               -0.21591330               -0.01651797                0.12729746                0.67929945                0.68001152                0.02659518
               5.00058816                8.98593649               55.07862651                0.01000000               -0.09550499               -0.05703970                0.14626584                0.62775025                0.89331199                0.12789974
               6.00015886                8.99174265               55.08798885                0.01183041               -0.00231577               -0.06281174                0.17644148                0.52973335                0.90544795                0.23218520
               7.00054184                8.99711421               55.09618191                0.01000002                0.05719004               -0.11070611                0.18800833                0.50469818                1.08456804                0.11444807
               8.00130266                9.00245215               55.10926491                0.14321335                0.00645631                0.05350543                0.21049041                0.41533595                0.66390391                0.49294170
               9.00067097                9.00147369               55.10909593                0.98312362               -0.06277344               -0.06270821                0.20883196                0.00128288                0.00035146                0.00176808
              10.00004719                9.00047878               55.10890710                0.99591215               -0.06237750               -0.06152826                0.20682832                0.00094801               -0.00057486               -0.00062261
               0.01330331                9.99864588               55.06851020                1.00000000               -0.03972501               -0.03985124                0.13493475                0.00142986                0.01879528                0.01952722
               1.01290606                9.99137363               55.06785667                0.99758553               -0.03893907               -0.03838086                0.12985037                0.00080270                0.02303044                0.00086703
               2.01252453                9.98411211               55.06729305                0.91361333               -0.03745575               -0.03690462                0.12488846                0.00082306                0.02298359               -0.00536722
               3.01215694                9.97686280               55.06664449                0.15221071               -0.46147327               -0.03521786                0.12006867                0.58937623                0.33805713               -0.00615267
               4.00329506                9.98139859               55.07238806                0.07723478               -0.66967998                0.13636222                0.13343374                0.56695397                0.70310317                0.10750365
               4.99876334                9.98574968               55.07973463                0.02199416               -0.29459571               -0.01868193                0.15341391                0.30608080                0.87512708                0.08234785
               5.99740315                9.99116983               55.08935978                0.08567839               -0.04175088               -0.05728183                0.18130182                0.22033431                0.83969879                0.13048464
               6.99792833                9.99566779               55.09625909                0.10070692                0.24377643               -0.14464260                0.18057951                0.27132710                0.99455156                0.01523110
               8.00227868               10.00182340               55.10905012                0.62264907                0.18657629               -0.06287417                0.20894780                0.35667345                0.65088578                0.00107698
               9.00165985               10.00084923               55.10888875                0.99591122               -0.06186391               -0.06244627                0.20724541                0.00076968                0.00195344                0.00063630
              10.00104140                9.99986103               55.10869992                0.99115034               -0.06184543               -0.06177547                0.20524176                0.00060068                0.00064165               -0.00057099
              -0.04417639               -0.00006325               56.05578370                1.00000000               -0.02990379               -0.02992790                0.09731098                0.00148943               -0.01002944                0.00996553
               0.95552458               -0.00331566               56.05765901                0.73618979               -0.03077062               -0.03128040                0.10177155                0.00046949               -0.01312264               -0.00540650
               1.95520820               -0.00655894               56.05947172                0.22299646               -0.03799948               -0.03259887                0.10645233               -0.00810862               -0.01468929               -0.00474404
               2.95476459               -0.00996619               56.06131248                0.06390041               -0.02617932               -0.02896557                0.11162044               -0.09463301               -0.01138406               -0.00529575
               3.95468461               -0.01517675               56.06317933                0.12246136                0.01359267               -0.00370168                0.10885439               -0.27333959                0.00240345               -0.00247139
               4.95503644               -0.01372755               56.06489907                0.29414845                0.00559028               -0.03150856                0.11116962               -0.06377815                0.00224332               -0.00226038
               5.95479642               -0.01081764               56.06669436                0.77904120               -0.02926768               -0.03417069                0.11537638               -0.00648381                0.00723811               -0.00226536
               6.95445109               -0.00775614               56.06850360                0.99999999               -0.03542337               -0.03565281                0.11990749                0.00036194                0.00882204               -0.00185075
               7.95408795               -0.00468754               56.07032984                0.99133834               -0.03708464               -0.03701711                0.12447038                0.00065401                0.01078417               -0.00186594
               8.95370939               -0.00162032               56.07217828                0.99879089               -0.03861549               -0.03836534                0.12906790                0.00073677                0.00970056                0.00068973
               9.95331564                0.00144130               56.07398318                1.00000000               -0.03937501               -0.03977607                0.13364463                0.00112563                0.00748512                0.00759096
              -0.04090908                0.99963747               56.05600484                0.73642535               -0.03138042               -0.03068855                0.10239953                0.00077254                0.00531644                0.01322427
               0.95877711                0.99637153               56.05788005                0.01000000               -0.03192715               -0.03204313                0.10684454               -0.00030886                0.01005980               -0.01008098
               1.95845238                0.99311507               56.05985162                0.01000000               -0.03249775               -0.03328378                0.11113110               -0.01789519                0.01545918                0.03005048
               2.95812716                0.98974416               56.06183445                0.01000001               -0.23102365                0.00376183                0.11568626               -0.13325349                0.00021551                0.04141408
               3.95383190                0.98478623               56.06350866                0.01000000               -0.29540277                0.15130923                0.10747673                0.00334117               -0.00719191                0.05900971
               4.95221910                0.98595736               56.06520865                0.01000000               -0.10430143                0.05222889                0.10922521                0.21167021               -0.00807201                0.05375532
               5.95174587                0.98884065               56.06693880                0.01000001               -0.04147249                0.01170968                0.11330960                0.15007592               -0.00651483                0.03693572
               6.95138965                0.99188733               56.06868083                0.52218646               -0.03596440               -0.03537417                0.11774058               -0.00102435               -0.00525001               -0.00792804
               7.95102659                0.99494229               56.07043568                0.98644139               -0.03686574               -0.03661487                0.12216748               -0.00018442               -0.00214277               -0.00363788
               8.95065234                0.99799602               56.07223890                0.99999999               -0.03806566               -0.03800942                0.12671948                0.00004019                0.00035273                0.00050984
               9.95026527                1.00104354               56.07404275                0.99664132               -0.03870668               -0.03941153                0.13130426                0.00039961                0.00042104                0.00981927
              -0.03762906                1.99932297               56.05629223                0.22062498               -0.03301397               -0.03140371                0.10740127                0.00078452                0.00472193                0.02828335
               0.96204080                1.99604347               56.05800721                0.01000000               -0.04466327               -0.03443187                0.11220374               -0.00036572                0.06466746               -0.00482270
               1.96147767                1.99277538               56.06092419                0.01000001               -0.08062222               -0.04223488                0.11341340                0.04793848                0.10305555                0.11597375
               2.96042835                1.99010905               56.06328418                0.01000000               -0.14697173                0.02087935                0.11334345                0.08024583                0.05002467                0.10630142
               3.95853824                1.98784944               56.06507064                0.01000000               -0.26064627                0.22853408                0.11310376                0.32693732                0.00742858                0.13021610
               4.95521543                1.98731702               56.06663699                0.01000001               -0.33351354                0.15481634                0.11333994                0.50489358               -0.01877509                0.12787263
               5.95186797                1.98941655               56.06796639                0.01143289               -0.34432325                0.13934699                0.11492184                0.39273007               -0.06826199                0.10414464
               6.94832896                1.99153638               56.06873592                0.01618447               -0.19461945                0.05814061                0.11526321                0.16446301               -0.06031760                0.04980004
               7.94797558                1.99458016               56.07050573                0.04928665               -0.03600086               -0.02706607                0.11977672                0.01343240               -0.00915775               -0.00356957
               8.94760894                1.99761949               56.07229582                0.98027514               -0.03734896               -0.03727518                0.12434067               -0.00004041               -0.00496341               -0.00229764
               9.94722860                2.00065307               56.07414700                0.99999999               -0.03803473               -0.03872044                0.12903252                0.00040413               -0.00179718                0.01027814
              -0.03433439                2.99900939               56.05681532                0.06323492               -0.03482210                0.04769230                0.11364730                0.04227910                0.00510247                0.47594430
               0.96531739                2.99568289               56.05833675                0.01000001               -0.01600232               -0.12135397                0.11827391                0.04034059                0.16306859                0.38693204
               1.96534557                2.99227037               56.06302084                0.01000000               -0.03296848               -0.07671701                0.11292110                0.16249094                0.20728075                0.16389247
               2.96465802                2.99016175               56.06496613                0.01000000               -0.10914458               -0.01224700                0.11470493                0.34020837                0.07357921                0.13318398
               3.96316268                2.98935692               56.06694353                0.01197812               -0.19540818                0.06934549                0.11643432                0.46348071                0.04828775                0.12864679
               4.96074986                2.98905369               56.06846604                0.01000000               -0.38907776                0.14974069                0.11836944                0.69804779               -0.00285645                0.14774304
               5.95538112                2.99162759               56.06956533                0.01000001               -0.56172778                0.20547575                0.11842113                0.81042888               -0.07493249                0.20735032
               6.94951530                2.99305015               56.07006574                0.01000001               -0.50844974                0.21815659                0.11744257                0.75331049               -0.12500241                0.27987724
               7.94521213                2.99440097               56.07061102                0.01371555               -0.24683408                0.09540983                0.11718489                0.63298405               -0.08153641                0.22664473
               8.94457862                2.99725052               56.07229866                0.01000000               -0.05029694               -0.13850622                0.12187707                0.60651679               -0.01388724                0.20806844
               9.94420619                3.00026913               56.07421430                0.08843906               -0.03724353               -0.46074243                0.12664552                0.68381935               -0.00229118                0.24518134
              -0.03013048                4.00027682               56.06601046                0.12002317               -0.02828864                0.06499893                0.10096525               -0.10851852               -0.00724464                0.53836545
               0.96958663                3.99361639               56.06635785                0.01000000                0.01895613               -0.13927760                0.10079530                0.10677876               -0.07918803                0.42058234
               1.97024864                3.99124104               56.06522097                0.01000000                0.02796730               -0.13661631                0.11244597                0.35323193               -0.03665312                0.15962419
               2.97014598                3.98986411               56.06692805                0.01197890               -0.06663652               -0.08033498                0.11639259                0.47101297                0.08225061                0.11530250
               3.96891591                3.98923635               56.06845439                0.01000000               -0.16201344               -0.05525174                0.11944033                0.67451102                0.07871115                0.11281413
               4.96690571                3.99031184               56.07031656                0.01000001               -0.24179119                0.08551364                0.12308075                0.94838910                0.10028174                0.19281435
               5.96408008                3.99352607               56.07250787                0.01000001               -0.31419558                0.14562426                0.12660636                1.20722948                0.09879243                0.32652517
               6.96062179                3.99589951               56.07459538                0.01195482               -0.38225997                0.18182806                0.12995498                1.24350178                0.00825933                0.40998671
               7.95643488                3.99648836               56.07526789                0.01076494               -0.33753401                0.13944152                0.12884145                1.12713877               -0.04906470                0.49020897
               8.95387111                3.99484936               56.07655972                0.01000000               -0.07835642               -0.09736483                0.13094318                0.86462516                0.03340042                0.53950530
               9.95486776                3.99143822               56.07901369                0.07612287                0.09966415               -0.60606891                0.13813676                0.73299267                0.09711712                0.52607519
              -0.02318390                5.00030937               56.06770062                0.28718352               -0.03273521               -0.01370656                0.11153549               -0.02171101               -0.00447924                0.09260826
               0.97648875                4.99289734               56.06766781                0.01000000               -0.03268051               -0.05479771                0.10841261                0.17785238               -0.02354808                0.04374490
               1.97616249                4.98953805               56.06723761                0.01000001               -0.02028836               -0.18978275                0.11243550                0.44741418                0.00222179                0.08737764
               2.97608298                4.98855505               56.06818996                0.01000000                0.00213403               -0.25650169                0.11840838                0.65303907                0.09563329                0.05316929
               3.97620517                4.98825188               56.07002593                0.01000001               -0.03275298               -0.13075260                0.12351440                0.91102768                0.18677868                0.11601363
               4.97542792                4.99076396               56.07295976                0.01000001               -0.11335660               -0.00149112                0.13012321                1.20552256                0.25580201                0.24646552
               5.97393804                4.99454008               56.07636892                0.01189060               -0.20024364                0.02068772                0.13754375                1.26620365                0.19590441                0.31528371
               6.97142305                4.99668671               56.07831117                0.01012241               -0.25664942                0.04414487                0.14019458                1.20588920                0.11891752                0.41226811
               7.96880505                4.99718980               56.08041353                0.01000000               -0.22508929                0.11744995                0.14200681                1.15247609                0.16142537                0.62302861
               8.96692126                4.99530322               56.08341692                0.01000000               -0.15583642                0.11625185                0.14856877                0.81978731                0.14465128                0.75352050
               9.96568832                4.98814776               56.08532224                0.03176415               -0.12329412               -0.10285434                0.15608161                0.43361366                0.08544741                0.69231652
              -0.01574065                6.00000269               56.06819743                0.76697309               -0.03443518               -0.03306886                0.11686237               -0.00184218               -0.00532677                0.02656110
               0.98391500                5.99252044               56.06796366                0.01000001               -0.03600683               -0.03649190                0.11326468                0.11694401                0.00183425               -0.00869961
               1.98353922                5.98744539               56.06786330                0.01143541                0.02889593               -0.24277747                0.11551163                0.35434541                0.05084375               -0.02933216
               2.98449292                5.98473408               56.06885983                0.01000001                0.06941643               -0.40612163                0.11966062                0.73779712                0.18798137               -0.05138214
               3.98492755                5.98662129               56.07162893                0.01000001                0.01175201               -0.19688384                0.12778447                1.10060854                0.33634208                0.09392516
               4.98472796                5.99028202               56.07580081                0.01188849               -0.07230685               -0.11446056                0.13846333                1.21420682                0.34763315                0.16942802
               5.98348141                5.99393982               56.07899341                0.01010465               -0.13190523               -0.08056220                0.14526282                1.21695654                0.32092659                0.27407750
               6.98208986                5.99678241               56.08281168                0.01000000               -0.13067593                0.03449950                0.15234508                1.26017776                0.39702308                0.53482380
               7.98086789                5.99883736               56.08768445                0.01000000               -0.13904768                0.17896248                0.16250812                1.17518990                0.40852424                0.82014752
               8.97930890                5.99717440               56.09185475                0.01191954               -0.15084633                0.21191257                0.17715039                0.70909841                0.24980486                0.79219932
               9.97785096                5.98938114               56.09364689                0.01000000               -0.14579392                0.20280155                0.18166491                0.32418808                0.12786952                0.69065257
              -0.00825624                6.99964799               56.06858653                0.99999999               -0.03588271               -0.03616568                0.12160518                0.00025376               -0.00440247                0.02342051
               0.99138493                6.99216750               56.06818943                0.51332801               -0.03539988               -0.03593209                0.11790681               -0.00145706               -0.01769360               -0.01103080
               1.99103576                6.98468250               56.06752000                0.01618771                0.01390432               -0.15588360                0.11527573                0.16084588                0.03559038               -0.05679971
               2.99166302                6.98043261               56.06819517                0.01000001                0.08168212               -0.37644096                0.11742288                0.67249263                0.29434901               -0.15491832
               3.99266940                6.98431420               56.07277388                0.01195830                0.03652562               -0.27198485                0.13216169                1.10055623                0.45594016               -0.02484277
               4.99239353                6.98847475               56.07687614                0.01012597               -0.04463131               -0.18675485                0.14163509                1.10828239                0.47716062                0.07602098
               5.99177677                6.99292883               56.08204987                0.01000000               -0.03322315               -0.08193690                0.15335724                1.18315450                0.60977504                0.34551441
               6.99172906                6.99737670               56.08897850                0.01000000                0.00700398                0.05982287                0.16890633                1.22582146                0.72948468                0.66685912
               7.99191685                7.00076905               56.09665457                0.01196302               -0.05848069                0.10479180                0.19299403                0.99007183                0.51195192                0.71495136
               8.99055945                6.99954147               56.09921858                0.01000002               -0.20791227                0.25745693                0.18817439                0.59832063                0.14893179                0.98629226
               9.98775861                6.99220379               56.09975152                0.12123248               -0.28008422                0.59590326                0.18089707                0.33433970                0.03772316                0.85541717
              -0.00077459                7.99927938               56.06901027                0.99121931               -0.03740508               -0.03760285                0.12631933                0.00017354               -0.00428934                0.02865274
               0.99885136                7.99180180               56.06843751                0.95210595               -0.03671921               -0.03706700                0.12235868               -0.00110283               -0.00856610               -0.00466258
               1.99849103                7.98432771               56.06777941                0.04007549               -0.02701467               -0.03581170                0.11851605                0.01541990               -0.01901167               -0.02647305
               2.99831107                7.97720526               56.06700716                0.01371869                0.02027543               -0.19584257                0.12172955                0.53866878                0.26634401               -0.12155352
               3.99889653                7.98118160               56.07207141                0.01076962               -0.00160427               -0.24136973                0.12839593                0.96302304                0.59520930               -0.08748353
               4.99827898                7.98654692               56.07793732                0.01000000               -0.03269920               -0.14371732                0.14380922                0.98471808                0.74147848                0.12627612
               5.99824255                7.99230108               56.08615941                0.01000000                0.02435451               -0.06380394                0.16435587                1.00495218                0.93264648                0.37373118
               6.99876607                7.99797887               56.09606909                0.01195914                0.01310002               -0.00849732                0.19414836                0.88297227                0.79418009                0.46528920
               7.99850455                8.00093319               56.10158742                0.01000002                0.05372533                0.09578371                0.19527861                0.69612657                0.78347584                0.75471437
               8.99984058                8.00232354               56.11137830                0.13093664                0.03542916                0.10765840                0.20976410                0.53349911                0.49927835                0.62102466
               9.99921313                8.00129920               56.11119261                0.61568872               -0.06274433                0.42418470                0.20772052                0.52165249                0.00052519                0.58267815
               0.00670238                8.99889594               56.06949518                0.99888018               -0.03878513               -0.03914892                0.13134325                0.00033216                0.00123075                0.02608337
               1.00631453                8.99142616               56.06879674                0.99999999               -0.03808442               -0.03806920                0.12664014               -0.00048867               -0.00097703                0.00076282
               2.00594070                8.98396626               56.06806179                0.99999999               -0.03660117               -0.03662436                0.12136207               -0.00076849               -0.01055304               -0.01573565
               3.00558251                8.97651576               56.06718473                0.01000000               -0.16762477               -0.05208613                0.11530444                0.51126495                0.27376037               -0.03064570
               4.00258820                8.97948681               56.07214738                0.01000000               -0.23070539               -0.01270822                0.13054216                0.69920475                0.69880859                0.02592016
               5.00096840                8.98560040               56.08010449                0.01000000               -0.10721649               -0.05455254                0.15010422                0.64609885                0.91988860                0.13307326
               6.00044387                8.99165275               56.08977010                0.01193019               -0.01060016               -0.05985702                0.18026816                0.54521644                0.92715487                0.24261802
               7.00075640                8.99720675               56.09807224                0.01000002                0.05254207               -0.11156725                0.19025691                0.51494261                1.10191828                0.11027145
               8.00149471                9.00268472               56.11136861                0.14298378                0.00535135                0.05618627                0.21020948                0.42330224                0.67579508                0.50156688
               9.00086343                9.00169464               56.11118329                0.98348061               -0.06271897               -0.06264027                0.20863008                0.00133469                0.00055054                0.00197758
              10.00024033                9.00068748               56.11097414                0.99622535               -0.06230931               -0.06143726                0.20657579                0.00096058               -0.00057028               -0.00041737
               0.01417160                9.99849640               56.06986290                1.00000000               -0.04003390               -0.03995395                0.13568621                0.00132310                0.01936365                0.02020798
               1.01377126                9.99104041               56.06915904                0.99729127               -0.03927709               -0.03857507                0.13075561                0.00061430                0.02331972                0.00073327
               2.01338606                9.98359523               56.06854625                0.91571023               -0.03777216               -0.03710342                0.12571377                0.00069233                0.02299669               -0.00582532
               3.01301582                9.97616353               56.06785105                0.15848411               -0.47950351               -0.03522265                0.12089676                0.60994098                0.34747910               -0.00621875
               4.00379599                9.98092743               56.07373554                0.07796350               -0.69904023                0.14406225                0.13638397                0.58539537                0.72316104                0.10980258
               4.99903501                9.98545587               56.08128734                0.02228615               -0.31277287               -0.01445353                0.15795448                0.31548667                0.89995579                0.08770254
               5.99754053                9.99110394               56.09119028                0.08579585               -0.05010293               -0.05488107                0.18518707                0.22424866                0.85281192                0.13535709
               6.99803295                9.99574752               56.09807488                0.10139275                0.24710870               -0.14592306                0.18283134                0.27530443                1.00794598                0.00858885
               8.00248270               10.00205692               56.11113859                0.62269418                0.19157791               -0.06278020                0.20870801                0.36495988                0.66569133                0.00111520
               9.00186451               10.00107073               56.11096033                0.99622383               -0.06180176               -0.06239086                0.20706947                0.00078554                0.00212638                0.00063875
              10.00124667               10.00007046               56.11075120                0.99125363               -0.06178435               -0.06170235                0.20501537                0.00060598                0.00064019               -0.00056832
              -0.04617267               -0.00021130               57.05675728                1.00000000               -0.02985356               -0.02996307                0.09733782                0.00149450               -0.00969827                0.00969670
               0.95352879               -0.00361531               57.05867542                0.73573987               -0.03067085               -0.03125810                0.10149494                0.00042196               -0.01264187               -0.00524005
               1.95321391               -0.00700889               57.06053344                0.22440288               -0.03759571               -0.03245300                0.10592752               -0.00794637               -0.01382831               -0.00458232
               2.95277688               -0.01056075               57.06242483                0.06647251               -0.01598427               -0.02867853                0.11093496               -0.07579070               -0.01378680               -0.00513313
               3.95289423               -0.01552513               57.06426862                0.12363340                0.02511027               -0.00387240                0.10904392               -0.25893356               -0.00179271               -0.00276903
               4.95327908               -0.01405013               57.06601076                0.29410742                0.00749772               -0.03143255                0.11118754               -0.06532184                0.00099841               -0.00227782
               5.95304418               -0.01107455               57.06784805                0.77751702               -0.02899581               -0.03413075                0.11537715               -0.00679334                0.00712633               -0.00229050
               6.95269917               -0.00794118               57.06970280                0.99999999               -0.03540720               -0.03562588                0.11994175                0.00034926                0.00889378               -0.00187754
               7.95233604               -0.00480084               57.07157486                0.99142809               -0.03709368               -0.03700214                0.12454141                0.00065575                0.01088689               -0.00192789
               8.95195729               -0.00166234               57.07346949                0.99843230               -0.03864421               -0.03836059                0.12918079                0.00074228                0.00980954                0.00068481
               9.95156315                0.00146986               57.07532039                1.00000000               -0.03941422               -0.03978067                0.13379397                0.00117339                0.00758388                0.00769889
              -0.04275372                0.99948907               57.05703075                0.73584593               -0.03144786               -0.03072211                0.10274481                0.00087626                0.00519194                0.01294411
               0.95693180                0.99607211               57.05894857                0.01000000               -0.03195588               -0.03212050                0.10687585               -0.00021188                0.00984596               -0.00975243
               1.95660716                0.99266658               57.06096078                0.01000000               -0.03273557               -0.03313181                0.11076970               -0.01434506                0.01525201                0.02904167
               2.95627709                0.98915247               57.06298685                0.01000001               -0.22787920                0.00758143                0.11489947               -0.10878010               -0.00615494                0.03856045
               3.95204958                0.98443615               57.06458394                0.01000000               -0.29382593                0.14784279                0.10765259                0.02506875               -0.01498472                0.06220889
               4.95040057                0.98563555               57.06629975                0.01000000               -0.10639042                0.05110076                0.10902253                0.22136047               -0.00981185                0.05693277
               5.94992177                0.98858415               57.06807058                0.01000001               -0.04173842                0.01136971                0.11306179                0.15685079               -0.00684372                0.03887144
               6.94956581                0.99170256               57.06985711                0.51940128               -0.03592984               -0.03531290                0.11752488               -0.00107678               -0.00540041               -0.00811746
               7.94920318                0.99482914               57.07165641                0.98676282               -0.03682189               -0.03656024                0.12198532               -0.00020055               -0.00224039               -0.00374846
               8.94882937                0.99795405               57.07350537                0.99999999               -0.03802479               -0.03796572                0.12657344                0.00003915                0.00033120                0.00048646
               9.94844268                1.00107206               57.07535527                0.99631973               -0.03866878               -0.03937612                0.13119300                0.00044051                0.00041772                0.00996467
              -0.03932123                1.99917426               57.05736955                0.22190304               -0.03317347               -0.03018833                0.10804654                0.00308123                0.00459581                0.02866507
               0.96034704                1.99574228               57.05913106                0.01000000               -0.04160617               -0.03608048                0.11262049                0.00220390                0.06269999               -0.00397394
               1.95984665                1.99232848               57.06205796                0.01000001               -0.07576625               -0.04643863                0.11339705                0.06632890                0.09891443                0.11249950
               2.95883171                1.98959088               57.06441729                0.01000000               -0.14670633                0.02521825                0.11333061                0.11200498                0.04510392                0.10313704
               3.95691252                1.98743173               57.06620244                0.01000000               -0.26367095                0.22547882                0.11331457                0.36041593                0.00265922                0.13439636
               4.95355829                1.98697189               57.06777147                0.01000001               -0.33991709                0.15281825                0.11360168                0.53560600               -0.02233371                0.13374960
               5.95011418                1.98915285               57.06911562                0.01143639               -0.35628285                0.14267859                0.11496294                0.41349432               -0.07188005                0.10852771
               6.94643264                1.99135256               57.06988612                0.01618820               -0.20168220                0.06135189                0.11479353                0.17349170               -0.06271538                0.05186354
               7.94608054                1.99446796               57.07170130                0.04933838               -0.03587362               -0.02656698                0.11934117                0.01404434               -0.00932371               -0.00371745
               8.94571516                1.99757834               57.07353721                0.98528339               -0.03722923               -0.03715385                0.12393116               -0.00004774               -0.00504177               -0.00238229
               9.94533595                2.00068234               57.07543554                0.99999999               -0.03792120               -0.03860803                0.12866570                0.00044515               -0.00180428                0.01040542
              -0.03582814                2.99888530               57.05795771                0.06486628               -0.03502019                0.05147565                0.11482055                0.08514897                0.00499018                0.46632134
               0.96382166                2.99535050               57.05952371                0.01000001               -0.00433612               -0.13073400                0.11921813                0.08487843                0.15779701                0.37513152
               1.96408514                2.99173781               57.06414994                0.01000000               -0.02038586               -0.08112310                0.11297152                0.20252331                0.20137605                0.15897656
               2.96341394                2.98965683               57.06611537                0.01000000               -0.11041222               -0.00999952                0.11521369                0.38586511                0.07142152                0.13204743
               3.96187689                2.98894572               57.06811127                0.01197696               -0.20111850                0.06919537                0.11717169                0.50591097                0.04615750                0.13100716
               4.95939157                2.98869191               57.06965387                0.01000000               -0.40329555                0.15103864                0.11923580                0.74000520               -0.00597597                0.15304048
               5.95381098                2.99143772               57.07075068                0.01000001               -0.58355216                0.21213001                0.11881178                0.85177861               -0.08001557                0.21494661
               6.94772053                2.99292960               57.07123824                0.01000001               -0.52763501                0.22676217                0.11678072                0.78667533               -0.13063794                0.28967910
               7.94325828                2.99429780               57.07178165                0.01379601               -0.25532486                0.10158264                0.11780232                0.65704682               -0.08464906                0.23348106
               8.94261403                2.99721097               57.07351407                0.01000000               -0.05073482               -0.14427139                0.12119623                0.62990126               -0.01409707                0.21385204
               9.94224359                3.00029989               57.07547770                0.09260797               -0.03704451               -0.47648028                0.12602411                0.71039064               -0.00233207                0.25237208
              -0.03054864                4.00020377               57.06699651                0.11995666               -0.02592620                0.06178168                0.09560452               -0.07504528               -0.00754456                0.53303409
               0.96919210                3.99312760               57.06735520                0.01000000                0.00697113               -0.14200804                0.09883322                0.15926430               -0.07340909                0.40903891
               1.96959078                3.99070602               57.06634790                0.01000000                0.00745035               -0.13335804                0.11313300                0.40535123               -0.03039645                0.15499722
               2.96934110                3.98939089               57.06809702                0.01197953               -0.07975581               -0.07747517                0.11746284                0.51682519                0.08303396                0.11451400
               3.96799566                3.98881563               57.06965541                0.01000000               -0.17373498               -0.05648836                0.12085176                0.72026577                0.07883295                0.11524459
               4.96586640                3.98999266               57.07155390                0.01000001               -0.25417994                0.08966565                0.12445514                0.99966689                0.10023220                0.19888268
               5.96291206                3.99339545               57.07377861                0.01000001               -0.32801716                0.15087096                0.12753474                1.26470315                0.09834659                0.33767146
               6.95930606                3.99588781               57.07589731                0.01197275               -0.39859827                0.18911556                0.13044408                1.29801783                0.00524959                0.42399348
               7.95494010                3.99649961               57.07655532                0.01082050               -0.34974811                0.14630031                0.12837637                1.16999561               -0.05294632                0.50553564
               8.95231110                3.99469291               57.07786740                0.01000000               -0.07870887               -0.10060514                0.13054662                0.89691716                0.03387804                0.55487558
               9.95336592                3.99115273               57.08039424                0.07664132                0.10548247               -0.62707129                0.13797467                0.76495711                0.10054084                0.54271695
              -0.02317670                5.00012093               57.06879899                0.28643589               -0.03185981               -0.01996613                0.10738567               -0.01060424               -0.00426768                0.09671444
               0.97650470                4.99251034               57.06874656                0.01000000               -0.04472131               -0.04875741                0.10754877                0.19396456               -0.01974304                0.04569430
               1.97592887                4.98907065               57.06836582                0.01000001               -0.04319356               -0.18561204                0.11347054                0.48082722                0.00753770                0.08504923
               2.97564083                4.98810733               57.06938170                0.01000000               -0.01242142               -0.25938952                0.12021093                0.69499449                0.09966042                0.05271181
               3.97568044                4.98781596               57.07127182                0.01000001               -0.04178655               -0.13199434                0.12578120                0.96021477                0.19044340                0.11888543
               4.97480510                4.99048522               57.07427095                0.01000001               -0.12352704                0.00119133                0.13217405                1.26460901                0.26013209                0.25427671
               5.97320990                4.99445514               57.07775188                0.01189818               -0.21141865                0.02244879                0.13910519                1.32479718                0.19806953                0.32614662
               6.97057672                4.99671191               57.07971800                0.01014692               -0.26784065                0.04591844                0.14120131                1.25862721                0.11794697                0.42596970
               7.96785309                4.99722381               57.08183503                0.01000000               -0.23387350                0.12154360                0.14230984                1.19867936                0.16229332                0.64272535
               8.96589925                4.99519887               57.08490317                0.01000000               -0.16149993                0.12564726                0.14868465                0.85222117                0.14868390                0.77877922
               9.96462309                4.98775847               57.08688559                0.03258889               -0.12761641               -0.10381733                0.15666581                0.45433066                0.09013468                0.71540679
              -0.01553953                5.99980445               57.06935372                0.76332223               -0.03387969               -0.03323510                0.11359862               -0.00046831               -0.00530275                0.02770567
               0.98412167                5.99215245               57.06909355                0.01000001               -0.04250678               -0.03552368                0.11294486                0.12238499                0.00502927               -0.00804823
               1.98361033                5.98699377               57.06902735                0.01143656                0.01870079               -0.24673797                0.11758927                0.37655580                0.05618069               -0.03094669
               2.98449569                5.98420310               57.07007542                0.01000001                0.06058664               -0.41694932                0.12308622                0.77684415                0.19446102               -0.05441428
               3.98482206                5.98617575               57.07292199                0.01000001                0.00118579               -0.19908819                0.13133394                1.15141225                0.34463267                0.09706336
               4.98451940                5.99001649               57.07719947                0.01190027               -0.08203709               -0.11617370                0.14132250                1.26972160                0.35486945                0.17531885
               5.98318132                5.99384442               57.08045729                0.01012797               -0.14047343               -0.08251167                0.14758098                1.27016161                0.32607927                0.28333824
               6.98170993                5.99680617               57.08434356                0.01000000               -0.13772978                0.03563704                0.15399018                1.31155311                0.40377836                0.55141902
               7.98042673                5.99893048               57.08931532                0.01000000               -0.14445362                0.18779595                0.16355110                1.22328558                0.41932591                0.84837720
               8.97882086                5.99720586               57.09363189                0.01202921               -0.15466942                0.22263981                0.17831134                0.73750447                0.25815770                0.81424556
               9.97733334                5.98907639               57.09547051                0.01000000               -0.14875224                0.21136547                0.18308564                0.33620901                0.13143899                0.70358653
              -0.00788208                6.99945623               57.06979425                0.99999999               -0.03548530               -0.03555540                0.11916622                0.00024509               -0.00423240                0.02460809
               0.99176307                6.99179986               57.06936824                0.50704295               -0.03542936               -0.03610979                0.11813262               -0.00189675               -0.01664293               -0.01054654
               1.99140933                6.98413589               57.06868481                0.01618843                0.01163340               -0.16131300                0.11878569                0.16973960                0.03894886               -0.05908650
               2.99199574                6.97976834               57.06938239                0.01000001                0.07429832               -0.38865806                0.12551341                0.70172287                0.30510424               -0.15626781
               3.99289530                6.98383419               57.07411888                0.01197766                0.02675573               -0.27849849                0.13651596                1.14879806                0.46850794               -0.02664602
               4.99253085                6.98816175               57.07831012                0.01014633               -0.05359281               -0.19144204                0.14579217                1.15544516                0.48704938                0.07859180
               5.99182344                6.99280490               57.08359897                0.01000000               -0.04045625               -0.08319864                0.15652350                1.22944682                0.62246708                0.35604230
               6.99172173                6.99742465               57.09067792                0.01000000                0.00478351                0.06438933                0.17104691                1.27321727                0.74859377                0.68981578
               7.99191911                7.00097973               57.09859303                0.01206351               -0.06091438                0.11015295                0.19474671                1.02460168                0.52161148                0.73404899
               8.99050344                6.99965167               57.10110424                0.01000002               -0.21564512                0.26766584                0.18896309                0.61131977                0.14299457                1.00403308
               9.98760621                6.99198578               57.10156247                0.12307024               -0.28972262                0.62230754                0.18129205                0.33746926                0.03076072                0.86795896
              -0.00022189                7.99909334               57.07026930                0.99126154               -0.03740303               -0.03713979                0.12474788               -0.00029108               -0.00379797                0.03037386
               0.99940408                7.99143025               57.06966380                0.95202295               -0.03707313               -0.03743512                0.12320796               -0.00219501               -0.00780588               -0.00440692
               1.99903664                7.98376751               57.06897448                0.04110302               -0.02861172               -0.03681465                0.12217044                0.01260907               -0.01333126               -0.02876620
               2.99883184                7.97642994               57.06827460                0.01380112                0.01839874               -0.20050868                0.12221376                0.55692858                0.27404164               -0.13113795
               3.99940462                7.98060578               57.07336622                0.01083180               -0.00871241               -0.24724747                0.13456742                0.99938896                0.60706687               -0.09111459
               4.99865759                7.98618765               57.07939938                0.01000000               -0.04486302               -0.14569068                0.14894198                1.02035147                0.76019865                0.12951706
               5.99850736                7.99218045               57.08782067                0.01000000                0.01709311               -0.06203821                0.16825411                1.04085393                0.95736515                0.38795456
               6.99899946                7.99809396               57.09802395                0.01205677                0.00921936               -0.00553978                0.19684167                0.91065354                0.80981050                0.47797069
               7.99869174                8.00113354               57.10354633                0.01000002                0.05208752                0.09762926                0.19649833                0.71268071                0.79176144                0.76495748
               9.00004121                8.00255918               57.11347468                0.13087647                0.03613775                0.11397718                0.20948976                0.54810014                0.50723916                0.63251944
               9.99941450                8.00152254               57.11326826                0.61627084               -0.06267056                0.44630364                0.20744152                0.53872966                0.00056905                0.59691106
               0.00743827                8.99871344               57.07081012                0.99851608               -0.03932764               -0.03893647                0.13100326               -0.00021790                0.00167958                0.02783202
               1.00704499                8.99105116               57.07006753                0.99999999               -0.03882191               -0.03832872                0.12817102               -0.00144055               -0.00120289                0.00065003
               2.00666183                8.98339960               57.06927940                0.99999999               -0.03744732               -0.03704156                0.12255479               -0.00185917               -0.01283144               -0.01822563
               3.00629605                8.97575817               57.06833720                0.01000000               -0.17682277               -0.05120864                0.11354089                0.52875211                0.28255873               -0.04068945
               4.00312537                8.97888924               57.07347006                0.01000000               -0.24664191               -0.00937288                0.13554213                0.72035722                0.71985893                0.02669521
               5.00136321                8.98524794               57.08162859                0.01000000               -0.11955834               -0.05248179                0.15631469                0.66625114                0.94449330                0.13858551
               6.00073421                8.99156414               57.09159421                0.01203306               -0.01907504               -0.05719184                0.18467761                0.56152058                0.94644233                0.25334679
               7.00098171                8.99731386               57.09998705                0.01000002                0.04866534               -0.11298416                0.19276968                0.52538289                1.11643310                0.10605302
               8.00170751                9.00293231               57.11346910                0.14268370                0.00473698                0.05860988                0.20987573                0.43163312                0.68641606                0.50936278
               9.00107645                9.00193121               57.11326853                0.98383590               -0.06267169               -0.06256314                0.20841778                0.00140522                0.00083103                0.00219952
              10.00045408                9.00091185               57.11303861                0.99655436               -0.06223651               -0.06134973                0.20631830                0.00096241               -0.00056742               -0.00020045
               0.01509830                9.99831461               57.07122392                1.00000000               -0.04091961               -0.03988277                0.13620998                0.00091016                0.02094082                0.02197435
               1.01468910                9.99066368               57.07047178                0.99698675               -0.04029239               -0.03874812                0.13276096                0.00001485                0.02382270                0.00026402
               2.01429245                9.98302668               57.06980733                0.91812530               -0.03859324               -0.03729144                0.12634163                0.00016646                0.02180101               -0.00680943
               3.01391724                9.97540577               57.06906243                0.16484986               -0.49852278               -0.03524025                0.11931587                0.63170111                0.35790356               -0.00483028
               4.00432200                9.98041832               57.07511574                0.07871602               -0.73047594                0.15290770                0.14161921                0.60627420                0.74482052                0.11134216
               4.99930772                9.98513801               57.08289372                0.02257405               -0.33250723               -0.01099269                0.16491381                0.32536591                0.92298213                0.09379744
               5.99767185                9.99103661               57.09306352                0.08591232               -0.05843893               -0.05275255                0.18962337                0.22857768                0.86310788                0.13988186
               6.99813894                9.99583428               57.09991571                0.10211316                0.25176012               -0.14795776                0.18543409                0.27917966                1.01823077                0.00184666
               8.00270705               10.00230574               57.11322428                0.62276549                0.19754157               -0.06265729                0.20833061                0.37363557                0.67919896                0.00115207
               9.00208977               10.00130791               57.11303013                0.99655478               -0.06172934               -0.06232973                0.20689427                0.00082277                0.00236712                0.00063758
              10.00147247               10.00029554               57.11280023                0.99136999               -0.06173056               -0.06163074                0.20479287                0.00060163                0.00064787               -0.00056319
              -0.04820663               -0.00041626               58.05773046                1.00000000               -0.02977960               -0.02996557                0.09723751                0.00152558               -0.00929713                0.00936281
               0.95149557               -0.00396676               58.05968891                0.73535477               -0.03055712               -0.03123956                0.10118739                0.00039351               -0.01206430               -0.00503454
               1.95118223               -0.00750526               58.06159027                0.22611487               -0.03709509               -0.03233593                0.10546570               -0.00761654               -0.01278083               -0.00438561
               2.95075367               -0.01119290               58.06353118                0.06945266               -0.00596979               -0.02841905                0.11040272               -0.05515299               -0.01541008               -0.00493020
               3.95106283               -0.01586277               58.06536020                0.12506530                0.03616524               -0.00406315                0.10929001               -0.24226126               -0.00553841               -0.00315466
               4.95147698               -0.01435109               58.06712282                0.29413941                0.00920350               -0.03136068                0.11123618               -0.06636197               -0.00036229               -0.00228744
               5.95124690               -0.01130851               58.06900190                0.77597145               -0.02874107               -0.03409722                0.11539348               -0.00708683                0.00699176               -0.00231356
               6.95090215               -0.00810230               58.07090244                0.99999999               -0.03539515               -0.03560314                0.11998729                0.00033237                0.00897483               -0.00190226
               7.95053900               -0.00488919               58.07282067                0.99152549               -0.03710501               -0.03699260                0.12462182                0.00064904                0.01100799               -0.00198920
               8.95016005               -0.00167837               58.07476189                0.99808191               -0.03867339               -0.03835901                0.12930050                0.00074009                0.00993737                0.00067894
               9.94976553                0.00152552               58.07665906                1.00000000               -0.03945245               -0.03978336                0.13393708                0.00121702                0.00769875                0.00781955
              -0.04464088                0.99928408               58.05805973                0.73529261               -0.03151190               -0.03072112                0.10301728                0.00099894                0.00502021                0.01258477
               0.95504401                0.99572084               58.06001757                0.01000000               -0.03199971               -0.03221923                0.10693745               -0.00009460                0.00953828               -0.00934723
               1.95471913                0.99217138               58.06206701                0.01000000               -0.03315542               -0.03292667                0.11053419               -0.01052130                0.01487577                0.02814112
               2.95438090                0.98852291               58.06413244                0.01000001               -0.22499082                0.01180878                0.11431430               -0.08212482               -0.01216094                0.03617458
               3.95021931                0.98409660               58.06566171                0.01000000               -0.29223353                0.14364017                0.10798996                0.04933981               -0.02264710                0.06533858
               4.94853623                0.98533530               58.06738910                0.01000000               -0.10838380                0.04944949                0.10888804                0.23162572               -0.01182846                0.06046713
               5.94805164                0.98835052               58.06920004                0.01000001               -0.04202031                0.01077581                0.11284531                0.16375892               -0.00721360                0.04109185
               6.94769582                0.99154167               58.07103133                0.51645326               -0.03590580               -0.03525882                0.11733146               -0.00114115               -0.00554805               -0.00830171
               7.94733352                0.99474088               58.07287538                0.98703067               -0.03678600               -0.03651150                0.12182009               -0.00023034               -0.00233691               -0.00385841
               8.94696010                0.99793804               58.07477037                0.99999999               -0.03798536               -0.03792476                0.12643206                0.00003072                0.00030813                0.00045555
               9.94657381                1.00112768               58.07666661                0.99597224               -0.03862859               -0.03933824                0.13107048                0.00047963                0.00041161                0.01011805
              -0.04106017                1.99896931               58.05845316                0.22345583               -0.03334479               -0.02876130                0.10866149                0.00566889                0.00443611                0.02907428
               0.95860638                1.99538885               58.06025962                0.01000000               -0.03850469               -0.03797290                0.11313890                0.00519962                0.06056375               -0.00294272
               1.95816973                1.99183621               58.06319213                0.01000001               -0.07102102               -0.05057070                0.11350220                0.08583600                0.09451101                0.10908740
               2.95718596                1.98904327               58.06555079                0.01000000               -0.14662495                0.03000270                0.11343883                0.14590264                0.04005121                0.10069390
               3.95523723                1.98701003               58.06733693                0.01000000               -0.26651936                0.22137410                0.11364742                0.39613195               -0.00226445                0.13888646
               4.95185557                1.98663790               58.06890902                0.01000001               -0.34607601                0.14983821                0.11395302                0.56758374               -0.02626042                0.14027308
               5.94831571                1.98890701               58.07026565                0.01143751               -0.36833009                0.14565088                0.11509793                0.43497113               -0.07599467                0.11353045
               6.94448897                1.99119252               58.07103179                0.01618372               -0.20888488                0.06454365                0.11436889                0.18246654               -0.06539698                0.05380980
               7.94413802                1.99438058               58.07289255                0.05026023               -0.03575516               -0.02621551                0.11893176                0.01402012               -0.00951277               -0.00278870
               8.94377387                1.99756313               58.07477445                0.99036169               -0.03710891               -0.03703347                0.12351314               -0.00006493               -0.00514072               -0.00248817
               9.94339584                2.00073875               58.07672032                0.99999999               -0.03780280               -0.03849006                0.12827372                0.00048530               -0.00181861                0.01053646
              -0.03736657                2.99870885               58.05911173                0.06691452               -0.03523226                0.05634580                0.11597462                0.12832383                0.00483659                0.45299586
               0.96228110                2.99496138               58.06072111                0.01000001                0.00740009               -0.14072650                0.12035818                0.13058979                0.15210361                0.36182449
               1.96278143                2.99115997               58.06528027                0.01000000               -0.00779893               -0.08555492                0.11317213                0.24453695                0.19442302                0.15460094
               2.96212512                2.98912296               58.06727041                0.01000000               -0.11170490               -0.00776052                0.11584078                0.43386464                0.06868589                0.13150273
               3.96054733                2.98852408               58.06928696                0.01197812               -0.20670981                0.06853290                0.11797505                0.55037746                0.04344769                0.13400269
               4.95799093                2.98833206               58.07085076                0.01000000               -0.41754464                0.15172567                0.12019304                0.78355215               -0.00975009                0.15891734
               5.95219644                2.99126353               58.07194157                0.01000001               -0.60596736                0.21856459                0.11922002                0.89441840               -0.08631675                0.22306497
               6.94587158                2.99283254               58.07240135                0.01000001               -0.54765635                0.23535500                0.11693408                0.82070682               -0.13587111                0.30014448
               7.94124331                2.99421657               58.07296707                0.01388364               -0.26354776                0.10825552                0.11525779                0.68163442               -0.08747508                0.24054405
               8.94060063                2.99719737               58.07472258                0.01000000               -0.05055109               -0.15026770                0.12048242                0.65386018               -0.01542943                0.21986968
               9.94023229                3.00035788               58.07673478                0.09694661               -0.03683381               -0.49270373                0.12536729                0.73750367               -0.00237354                0.25993463
              -0.03099875                4.00009623               58.06792255                0.12012588               -0.02341857                0.05888016                0.08926947               -0.04208204               -0.00796274                0.52396075
               0.96876706                3.99257432               58.06833451                0.01000000               -0.00511768               -0.14442522                0.09717747                0.21374147               -0.06852746                0.39614816
               1.96889889                3.99012511               58.06748363                0.01000000               -0.01339609               -0.13001963                0.11413156                0.46052097               -0.02526019                0.15090313
               2.96849914                3.98888806               58.06927730                0.01197806               -0.09316062               -0.07460401                0.11866171                0.56503236                0.08236373                0.11434028
               3.96703568                3.98838069               58.07087142                0.01000000               -0.18559899               -0.05805319                0.12235585                0.76809021                0.07772056                0.11839378
               4.96478716                3.98967241               58.07280566                0.01000001               -0.26660362                0.09359299                0.12586862                1.05285880                0.09887037                0.20545462
               5.96170361                3.99327830               58.07505856                0.01000001               -0.34185440                0.15603973                0.12848342                1.32415750                0.09673626                0.34936020
               6.95795007                3.99589962               58.07720426                0.01199361               -0.41488677                0.19636591                0.13060957                1.35473211                0.00093229                0.43890912
               7.95340587                3.99654569               58.07783542                0.01088755               -0.36201566                0.15338668                0.12826258                1.21402984               -0.05766976                0.52080750
               8.95070976                3.99455778               58.07917066                0.01000000               -0.07904910               -0.10415289                0.13006405                0.92913746                0.03461805                0.57081629
               9.95182489                3.99088468               58.08177318                0.07714694                0.11151326               -0.64891325                0.13791711                0.79738380                0.10410486                0.56031213
              -0.02316440                4.99988646               58.06984833                0.28574068               -0.03085482               -0.02673446                0.10187226                0.00226114               -0.00416711                0.10124979
               0.97652705                4.99207288               58.06981878                0.01000000               -0.05787480               -0.04182615                0.10705680                0.21240036               -0.01723937                0.04764363
               1.97567810                4.98855957               58.06950702                0.01000001               -0.06784311               -0.18088249                0.11484508                0.51700379                0.01081864                0.08285954
               2.97517019                4.98763088               58.07059418                0.01000000               -0.02766588               -0.26214817                0.12215002                0.73959052                0.10183766                0.05287330
               3.97512479                4.98736302               58.07254156                0.01000001               -0.05098462               -0.13325938                0.12821205                1.01167532                0.19227313                0.12285453
               4.97415050                4.99020392               58.07560324                0.01000001               -0.13362052                0.00384048                0.13419852                1.32621037                0.26267667                0.26268094
               5.97245238                4.99438433               58.07915103                0.01191609               -0.22258314                0.02405993                0.14051435                1.38556184                0.19875514                0.33765894
               6.96969883                4.99675986               58.08113519                0.01016885               -0.27933151                0.04756222                0.14220732                1.31286443                0.11575389                0.44030739
               7.96686575                4.99728430               58.08325973                0.01000000               -0.24272250                0.12506084                0.14255941                1.24573290                0.16216808                0.66340632
               8.96484438                4.99511431               58.08639061                0.01000000               -0.16697868                0.13502289                0.14872353                0.88512113                0.15229945                0.80480993
               9.96352617                4.98737962               58.08845556                0.03342851               -0.13182122               -0.10543440                0.15737731                0.47541085                0.09489758                0.73956669
              -0.01532637                5.99956154               58.07046940                0.75954774               -0.03316780               -0.03309439                0.10878016                0.00140269               -0.00538099                0.02917027
               0.98434195                5.99173780               58.07022256                0.01000001               -0.04963313               -0.03432740                0.11302417                0.12901870                0.00734280               -0.00765907
               1.98368097                5.98650746               58.07021508                0.01143809                0.00727793               -0.25029682                0.11996262                0.40148904                0.05990013               -0.03145056
               2.98448751                5.98364510               58.07132156                0.01000001                0.05075893               -0.42614045                0.12690711                0.81844465                0.19892343               -0.05195575
               3.98469614                5.98571550               58.07425561                0.01000001               -0.00987274               -0.20129843                0.13494388                1.20455811                0.35037937                0.10112762
               4.98429005                5.98974922               58.07862726                0.01191493               -0.09186156               -0.11786235                0.14414200                1.32739570                0.35953518                0.18234858
               5.98285891                5.99375950               58.08194503                0.01014791               -0.14913335               -0.08490163                0.14988826                1.32537913                0.32918276                0.29340562
               6.98130739                5.99685086               58.08589149                0.01000000               -0.14464190                0.03663796                0.15548796                1.36477258                0.40859455                0.56881393
               7.97996607                5.99904690               58.09095547                0.01000000               -0.14952594                0.19673592                0.16434127                1.27321968                0.42899585                0.87726563
               8.97831687                5.99725824               58.09542098                0.01214131               -0.15817868                0.23325164                0.17952810                0.76673049                0.26615776                0.83675271
               9.97680250                5.98877599               58.09730860                0.01000000               -0.15143667                0.21928034                0.18467139                0.34833486                0.13476624                0.71641219
              -0.00748886                6.99922457               58.07096986                0.99999999               -0.03496309               -0.03452762                0.11504572                0.00051800               -0.00401093                0.02623084
               0.99216151                6.99138633               58.07055209                0.50063471               -0.03552771               -0.03617184                0.11892820               -0.00114084               -0.01543753               -0.01011837
               1.99180058                6.98355364               58.06989572                0.01618524                0.00847664               -0.16748272                0.12337824                0.18271855                0.04512715               -0.06028968
               2.99233104                6.97910807               58.07070544                0.01000000                0.06556228               -0.40087053                0.13280825                0.73480287                0.31209753               -0.15877784
               3.99311183                6.98333705               58.07550420                0.01199583                0.01616898               -0.28536896                0.14195560                1.19777770                0.47365887               -0.02499773
               4.99265442                6.98784668               58.07979198                0.01017550               -0.06267573               -0.19652164                0.15027869                1.20438534                0.49416790                0.08248550
               5.99185831                6.99268630               58.08518034                0.01000000               -0.04737695               -0.08472784                0.15971980                1.27761538                0.63227100                0.36748835
               6.99170688                6.99749262               58.09239944                0.01000000                0.00322260                0.06891458                0.17306380                1.32309784                0.76603722                0.71347182
               7.99192277                7.00121902               58.10054950                0.01216992               -0.06284854                0.11546866                0.19639314                1.06048539                0.53000087                0.75348062
               8.99044991                6.99977935               58.10299784                0.01000002               -0.22326979                0.27756975                0.18968522                0.62463843                0.13582800                1.02105568
               9.98745737                6.99176522               58.10337736                0.12497643               -0.29925386                0.64926453                0.18173506                0.34033109                0.02301334                0.87950961
               0.00036047                7.99887099               58.07150523                0.99130042               -0.03704033               -0.03633054                0.12140197               -0.00016235               -0.00300281                0.03278228
               0.99999006                7.99101436               58.07090167                0.95191548               -0.03734365               -0.03775750                0.12450205               -0.00267486               -0.00620903               -0.00349587
               1.99961359                7.98315780               58.07022282                0.03959163               -0.02949531               -0.03923679                0.12941025                0.01135739               -0.01605345               -0.03115672
               2.99940016                7.97562769               58.06945144                0.01388872                0.01497496               -0.20969632                0.13472449                0.57811545                0.28228903               -0.13560252
               3.99991309                7.98000812               58.07476276                0.01089636               -0.01858231               -0.25329260                0.14242204                1.03866274                0.62128313               -0.09333224
               4.99902851                7.98581879               58.08091616                0.01000000               -0.05739054               -0.14844515                0.15551962                1.05682565                0.77263301                0.13464450
               5.99876528                7.99206494               58.08952450                0.01000000                0.01040539               -0.06047312                0.17208467                1.07831599                0.97891478                0.40264520
               6.99923662                7.99822916               58.10000593                0.01215809                0.00618854               -0.00282820                0.19949717                0.93973124                0.82322622                0.49104017
               7.99888905                8.00135628               58.10551739                0.01000002                0.05134080                0.09875029                0.19754126                0.72996281                0.79812472                0.77434180
               9.00026343                8.00280963               58.11556809                0.13075990                0.03741576                0.12019171                0.20909595                0.56328157                0.51442594                0.64352628
               9.99963737                8.00176128               58.11534144                0.61691425               -0.06260668                0.46931371                0.20728939                0.55673758                0.00064401                0.61074859
               0.00822114                8.99849796               58.07211525                0.99815481               -0.03999510               -0.03813574                0.12816796                0.00003388                0.00268057                0.03052505
               1.00782119                8.99063118               58.07136016                0.99999999               -0.04033698               -0.03885807                0.13098812               -0.00274045               -0.00121036                0.00115659
               2.00741440                8.98276890               58.07051289                0.99999999               -0.03890812               -0.03773107                0.12655895               -0.00495990               -0.01705592               -0.02191373
               3.00704303                8.97491415               58.06945554                0.01000000               -0.18602087               -0.05056115                0.10765615                0.54838057                0.29521335               -0.04299213
               4.00369399                8.97827120               58.07485822                0.01000000               -0.26544563               -0.00726101                0.14986344                0.74558217                0.73977130                0.02754749
               5.00173412                8.98487777               58.08323078                0.01000000               -0.13398605               -0.05086144                0.16322185                0.68620020                0.96463116                0.14544097
               6.00101426                8.99147683               58.09346366                0.01213796               -0.02619744               -0.05509933                0.18932323                0.57868453                0.96169425                0.26402483
               7.00121017                8.99743605               58.10192763                0.01000002                0.04636402               -0.11510203                0.19511399                0.53586935                1.12790577                0.10193164
               8.00194154                9.00319403               58.11556612                0.14229253                0.00501848                0.06066648                0.20955395                0.44051697                0.69560617                0.51645433
               9.00131054                9.00218318               58.11535164                0.98421304               -0.06263568               -0.06246747                0.20818842                0.00149703                0.00118309                0.00240453
              10.00068883                9.00115150               58.11510051                0.99689314               -0.06217060               -0.06126617                0.20604607                0.00093522               -0.00055839               -0.00001483
               0.01609470                9.99810827               58.07258710                1.00000000               -0.04303918               -0.03896857                0.13418160                0.00024862                0.02326771                0.02460805
               1.01566431                9.99023720               58.07181426                0.99666844               -0.04316360               -0.03939798                0.13734894               -0.00094265                0.02500895               -0.00035651
               2.01523143                9.98240318               58.07107309                0.92090113               -0.03994168               -0.03657194                0.12777509                0.00066597                0.01968232               -0.01152300
               3.01486548                9.97461647               58.07023737                0.17109896               -0.51851610               -0.02976794                0.11514801                0.65523068                0.36987309               -0.00782023
               4.00486111                9.97986290               58.07656793                0.07948515               -0.76592999                0.15917082                0.15527177                0.62596679                0.76429595                0.11376787
               4.99954688                9.98480156               58.08458562                0.02284685               -0.35402061               -0.00762159                0.17308721                0.33627839                0.94120229                0.09995521
               5.99778070                9.99096295               58.09498275                0.08603025               -0.06550317               -0.05138817                0.19432545                0.23292094                0.86893642                0.14409942
               6.99823681                9.99592712               58.10178356                0.10286946                0.25857845               -0.15089358                0.18796958                0.28299714                1.02507454               -0.00481119
               8.00295226               10.00256961               58.11530520                0.62287683                0.20495464               -0.06244217                0.20754697                0.38273035                0.69137933                0.00121462
               9.00233591               10.00156028               58.11509822                0.99689869               -0.06164134               -0.06228952                0.20672009                0.00085432                0.00281990                0.00065792
              10.00171944               10.00053596               58.11484706                0.99149867               -0.06164681               -0.06155413                0.20458832                0.00062774                0.00060967               -0.00057060
              -0.05027551               -0.00068260               59.05870203                1.00000000               -0.02967918               -0.02993433                0.09701957                0.00158084               -0.00882219                0.00895374
               0.94942770               -0.00437332               59.06069916                0.73506090               -0.03042314               -0.03122320                0.10084589                0.00038566               -0.01138575               -0.00478462
               1.94911602               -0.00805008               59.06264276                0.22816319               -0.03644766               -0.03223755                0.10505182               -0.00704957               -0.01155818               -0.00415641
               2.94869874               -0.01186188               59.06463288                0.07291175                0.00378940               -0.02817800                0.11000773               -0.03301392               -0.01634435               -0.00469608
               3.94919181               -0.01619123               59.06645442                0.12678900                0.04657002               -0.00425824                0.10957151               -0.22351153               -0.00885840               -0.00363287
               4.94963014               -0.01462844               59.06823548                0.29427023                0.01062932               -0.03128757                0.11128861               -0.06673969               -0.00183206               -0.00229034
               5.94940440               -0.01151709               59.07015592                0.77438381               -0.02851248               -0.03406768                0.11539870               -0.00734075                0.00683959               -0.00233512
               6.94905989               -0.00823700               59.07210255                0.99999999               -0.03538287               -0.03558181                0.12002029                0.00031284                0.00908166               -0.00192329
               7.94869674               -0.00495004               59.07406730                0.99164675               -0.03711211               -0.03698684                0.12468704                0.00062943                0.01116571               -0.00203983
               8.94831765               -0.00166572               59.07605550                0.99770663               -0.03869752               -0.03836706                0.12941075                0.00072460                0.01010034                0.00068354
               9.94792279                0.00161115               59.07799913                0.99992337               -0.03948596               -0.03979926                0.13407246                0.00125121                0.00784807                0.00797387
              -0.04656898                0.99901806               59.05909110                0.73478151               -0.03157269               -0.03068307                0.10322274                0.00114280                0.00479866                0.01213156
               0.95311529                0.99531445               59.06108732                0.01000000               -0.03206068               -0.03234011                0.10701950                0.00005667                0.00913536               -0.00885052
               1.95278981                0.99162755               59.06317146                0.01000000               -0.03380582               -0.03264802                0.11039875               -0.00642146                0.01432723                0.02732581
               2.95243918                0.98785634               59.06527314                0.01000001               -0.22249147                0.01643355                0.11390688               -0.05360811               -0.01785267                0.03417493
               3.94833998                0.98376619               59.06674374                0.01000000               -0.29067504                0.13877149                0.10853091                0.07597678               -0.03026834                0.06828274
               4.94662568                0.98505869               59.06847751                0.01000000               -0.11023513                0.04720650                0.10883857                0.24251357               -0.01420345                0.06433561
               5.94613527                0.98814224               59.07032749                0.01000001               -0.04230890                0.00995067                0.11266992                0.17078077               -0.00764432                0.04362031
               6.94577950                0.99140718               59.07220374                0.51328583               -0.03589400               -0.03521315                0.11717136               -0.00121239               -0.00568848               -0.00847270
               7.94541739                0.99468009               59.07409281                0.98727080               -0.03675992               -0.03647292                0.12168059               -0.00028442               -0.00242569               -0.00395244
               8.94504430                0.99795061               59.07603401                0.99999999               -0.03794819               -0.03789557                0.12631298                0.00000027                0.00028309                0.00041748
               9.94465843                1.00121316               59.07797668                0.99561378               -0.03858691               -0.03931249                0.13096496                0.00050725                0.00039320                0.01028281
              -0.04284543                1.99870374               59.05954278                0.22529416               -0.03352262               -0.02711182                0.10925061                0.00855401                0.00423464                0.02946475
               0.95681934                1.99497988               59.06139384                0.01000000               -0.03544354               -0.04011737                0.11373957                0.00865575                0.05820904               -0.00168506
               1.95644570                1.99129696               59.06432801                0.01000001               -0.06657042               -0.05446103                0.11373929                0.10607092                0.08973337                0.10572314
               2.95548793                1.98846679               59.06668606                0.01000000               -0.14683476                0.03520176                0.11367140                0.18145201                0.03474501                0.09885026
               3.95350900                1.98658420               59.06847538                0.01000000               -0.26917827                0.21625470                0.11409443                0.43372096               -0.00744907                0.14347914
               4.95010437                1.98631569               59.07005053                0.01000001               -0.35187402                0.14574677                0.11440139                0.60070048               -0.03059264                0.14735599
               5.94647152                1.98868193               59.07141758                0.01144301               -0.38032895                0.14819352                0.11528110                0.45709095               -0.08060379                0.11900582
               6.94249779                1.99105873               59.07217350                0.01618354               -0.21619500                0.06764162                0.11404138                0.19183423               -0.06836922                0.05669854
               7.94214762                1.99432050               59.07407994                0.05002587               -0.03566019               -0.02571350                0.11860067                0.01438964               -0.00973832               -0.00482522
               8.94178459                1.99757637               59.07600747                0.99549698               -0.03698940               -0.03692266                0.12309411               -0.00010830               -0.00529267               -0.00264805
               9.94140784                2.00082490               59.07800102                0.99999999               -0.03767514               -0.03837180                0.12784487                0.00051795               -0.00185915                0.01064819
              -0.03895017                2.99847582               59.06027721                0.06946998               -0.03546412                0.06213200                0.11713777                0.16930857                0.00461942                0.43555066
               0.96069519                2.99451210               59.06193087                0.01000001                0.01872382               -0.15134915                0.12168304                0.17518116                0.14583428                0.34711612
               1.96142431                2.99053833               59.06641339                0.01000000                0.00428926               -0.08998152                0.11350572                0.28726825                0.18607734                0.15083006
               2.96078097                2.98856038               59.06843219                0.01000000               -0.11294050               -0.00564354                0.11655133                0.48328058                0.06509590                0.13146906
               3.95916550                2.98809129               59.07047077                0.01198147               -0.21195057                0.06723554                0.11876725                0.59629799                0.04002068                0.13739921
               4.95654196                2.98797362               59.07205773                0.01000000               -0.43157220                0.15167857                0.12118263                0.82835630               -0.01445918                0.16520497
               5.95053405                2.99110611               59.07313508                0.01000001               -0.62821777                0.22456335                0.11965937                0.93815242               -0.09291080                0.23159927
               6.94397761                2.99276001               59.07357692                0.01000000               -0.56732501                0.24367069                0.11711681                0.85548858               -0.14368142                0.31081028
               7.93918755                2.99416582               59.07408680                0.01397624               -0.27199383                0.11512988                0.11291839                0.70624167               -0.09017650                0.24865113
               8.93853773                2.99721216               59.07592372                0.01000000               -0.05079157               -0.15675816                0.11970237                0.67805057               -0.01388827                0.22607549
               9.93817172                3.00044572               59.07798505                0.10147359               -0.03660098               -0.50933539                0.12463659                0.76511343               -0.00240355                0.26798388
              -0.03153181                3.99994638               59.06878190                0.12058674               -0.02077237                0.05616275                0.08271889               -0.01188740               -0.00855412                0.51019650
               0.96826047                3.99195289               59.06929875                0.01000000               -0.01627022               -0.14684701                0.09571750                0.26784904               -0.06512581                0.38211652
               1.96814278                3.98949733               59.06863053                0.01000000               -0.03299392               -0.12709666                0.11524823                0.51732837               -0.02193398                0.14726755
               2.96760059                3.98835392               59.07047025                0.01198128               -0.10605329               -0.07199183                0.11985725                0.61468273                0.07978934                0.11438065
               3.96602172                3.98792891               59.07210253                0.01000000               -0.19719562               -0.06012097                0.12382888                0.81733418                0.07511429                0.12203893
               4.96365667                3.98934927               59.07407128                0.01000001               -0.27867677                0.09718102                0.12718986                1.10757366                0.09608828                0.21226285
               5.96044818                3.99317319               59.07634827                0.01000001               -0.35544135                0.16078726                0.12931691                1.38509424                0.09364080                0.36125281
               6.95654785                3.99593215               59.07850950                0.01201014               -0.43139356                0.20354115                0.13065601                1.41276979               -0.00418164                0.45360531
               7.95182031                3.99662310               59.07912057                0.01095562               -0.37410766                0.16030307                0.12797903                1.25812652               -0.06320536                0.53898143
               8.94906569                3.99444121               59.08046868                0.01000000               -0.07886719               -0.10837045                0.12963418                0.96133888                0.03477441                0.58728379
               9.95024297                3.99063819               59.08315258                0.07765417                0.11772740               -0.67156697                0.13809730                0.83067042                0.10788244                0.57895505
              -0.02320094                4.99959908               59.07083643                0.28508888               -0.02978372               -0.03400271                0.09566450                0.01652543               -0.00420147                0.10550492
               0.97650122                4.99157516               59.07088770                0.01000000               -0.07146073               -0.03434663                0.10674309                0.23298472               -0.01695276                0.04939204
               1.97536984                4.98799639               59.07066272                0.01000001               -0.09290880               -0.17606312                0.11629667                0.55559684                0.01084235                0.08029823
               2.97464305                4.98712054               59.07182470                0.01000000               -0.04265027               -0.26505983                0.12402777                0.78627592                0.10160664                0.05382946
               3.97451684                4.98688887               59.07383606                0.01000001               -0.05969438               -0.13466285                0.13050751                1.06494661                0.19198661                0.12702367
               4.97344916                4.98991724               59.07695492                0.01000001               -0.14318920                0.00627270                0.13597908                1.38984984                0.26308360                0.27124991
               5.97165306                4.99432185               59.08056217                0.01192532               -0.23330299                0.02550181                0.14155336                1.44830771                0.19777466                0.34936492
               6.96878310                4.99683084               59.08256215                0.01020635               -0.29060144                0.04930274                0.14285161                1.36867807                0.11203873                0.45517795
               7.96584103                4.99737188               59.08468622                0.01000000               -0.25168432                0.12814639                0.14270943                1.29353767                0.16088047                0.68402354
               8.96374941                4.99504475               59.08787764                0.01000000               -0.17249376                0.14462418                0.14877774                0.91838478                0.15559632                0.83175946
               9.96239115                4.98701438               59.09003313                0.03427027               -0.13582610               -0.10776832                0.15822753                0.49748631                0.09990497                0.76473536
              -0.01515346                5.99926633               59.07152932                0.75559077               -0.03236894               -0.03270283                0.10299893                0.00367243               -0.00553356                0.03006654
               0.98452285                5.99126596               59.07135404                0.01000001               -0.05685987               -0.03283861                0.11335226                0.13684878                0.00762529               -0.00771770
               1.98370934                5.98597607               59.07142661                0.01144461               -0.00446074               -0.25370156                0.12204895                0.42877244                0.06078781               -0.03224081
               2.98443363                5.98305273               59.07261356                0.01000001                0.04073054               -0.43288187                0.13031354                0.86228738                0.20001060               -0.05152609
               3.98452395                5.98523566               59.07562087                0.01000001               -0.02064731               -0.20308918                0.13809804                1.25935433                0.35267021                0.10609616
               4.98402069                5.98947472               59.08008231                0.01192616               -0.10116013               -0.11973432                0.14649186                1.38682434                0.36199395                0.18964137
               5.98250075                5.99368323               59.08345505                0.01017677               -0.15746536               -0.08733246                0.15184008                1.38259167                0.33045522                0.30405107
               6.98087138                5.99691820               59.08745332                0.01000000               -0.15117966                0.03744072                0.15667973                1.41965024                0.41177430                0.58625429
               7.97947715                5.99918603               59.09260215                0.01000000               -0.15402455                0.20577719                0.16481691                1.32475975                0.43773502                0.90665830
               8.97779089                5.99733369               59.09722245                0.01226435               -0.16118668                0.24404583                0.18063693                0.79697635                0.27397570                0.85958871
               9.97625342                5.98848283               59.09916394                0.01000000               -0.15374675                0.22643705                0.18630694                0.36072805                0.13798421                0.72901468
              -0.00712676                6.99894502               59.07209517                0.99999999               -0.03447836               -0.03313689                0.10980611                0.00126849               -0.00388386                0.02699307
               0.99252846                6.99091839               59.07174680                0.49409589               -0.03573567               -0.03568468                0.11994811                0.00083989               -0.01568238               -0.01030806
               1.99215853                6.98292236               59.07115238                0.01618719                0.00503738               -0.17244308                0.12871630                0.20004924                0.04509921               -0.06002351
               2.99262920                6.97846291               59.07203855                0.01000000                0.05617030               -0.40424726                0.13710436                0.77043843                0.31497603               -0.15150258
               3.99328193                6.98282708               59.07695799                0.01201309                0.00544342               -0.29252739                0.14710831                1.24506301                0.47739066               -0.02379822
               4.99273807                6.98752256               59.08131569                0.01019893               -0.07102643               -0.20164904                0.15439962                1.25379773                0.49746065                0.08773989
               5.99186140                6.99257520               59.08679337                0.01000000               -0.05323836               -0.08665970                0.16249699                1.32761159                0.63938465                0.37919487
               6.99167331                6.99757965               59.09413920                0.01000000                0.00296653                0.07341865                0.17449842                1.37559670                0.78146467                0.73736411
               7.99192074                7.00148743               59.10252090                0.01228167               -0.06405849                0.12088659                0.19759254                1.09804660                0.53700835                0.77299221
               8.99039214                6.99992566               59.10489794                0.01000002               -0.23066512                0.28711047                0.19012736                0.63852392                0.12743246                1.03710145
               9.98730743                6.99154313               59.10519717                0.12694936               -0.30847033                0.67657688                0.18207025                0.34310918                0.01446743                0.88994263
               0.00092518                7.99860359               59.07269734                0.99134950               -0.03628694               -0.03514780                0.11643970                0.00130899               -0.00314817                0.03372879
               1.00056231                7.99055227               59.07215384                0.95178171               -0.03796846               -0.03783451                0.12644160                0.00091508               -0.00487911               -0.00288471
               2.00016581                7.98252721               59.07156269                0.03859035               -0.03123132               -0.04056516                0.13565508                0.02411549               -0.00881813               -0.03394164
               2.99993768                7.97496778               59.07096909                0.01397946                0.00998756               -0.21752572                0.14982085                0.60418383                0.28304071               -0.14847611
               4.00036556                7.97938511               59.07621466                0.01095604               -0.02945795               -0.25960260                0.15303714                1.06687944                0.61828861               -0.08924427
               4.99934852                7.98544174               59.08250978                0.01000000               -0.06848350               -0.15176307                0.16155723                1.09386250                0.78136568                0.13949162
               5.99899589                7.99195003               59.09126236                0.01000000                0.00612842               -0.05944103                0.17529188                1.11773371                0.99664136                0.41754769
               6.99947109                7.99838658               59.10201390                0.01226811                0.00480921               -0.00023983                0.20164059                0.97088870                0.83474643                0.50428046
               7.99909207                8.00160376               59.10749715                0.01000002                0.05172884                0.09930788                0.19805156                0.74821065                0.80233218                0.78298205
               9.00050567                8.00307590               59.11765660                0.13061224                0.03943044                0.12617575                0.20829349                0.57920970                0.52048495                0.65432784
               9.99988068                8.00201437               59.11741404                0.61771758               -0.06249858                0.49314084                0.20720126                0.57573435                0.00064387                0.62390494
               0.00900207                8.99824207               59.07337348                0.99778045               -0.03789231               -0.03702630                0.12314898                0.00117085                0.00429889                0.03148053
               1.00862314                8.99016170               59.07268730                0.99999999               -0.03883714               -0.04019664                0.13286364                0.00049915               -0.00359010                0.00277133
               2.00822532                8.98211106               59.07181058                0.78581311               -0.03840817               -0.04256865                0.14443019                0.00239375               -0.03617771               -0.02987684
               3.00785498                8.97411239               59.07049032                0.01000000               -0.20398785               -0.06410380                0.15332727                0.57030762                0.29960239               -0.06526937
               4.00414557                8.97763503               59.07646733                0.01000000               -0.29022908               -0.00554179                0.16202307                0.76345077                0.75952169                0.03331825
               5.00205040                8.98448730               59.08489303                0.01000000               -0.14371621               -0.05071530                0.17034678                0.70598853                0.97405956                0.15117590
               6.00127124                8.99138638               59.09538067                0.01225399               -0.03065202               -0.05348104                0.19329139                0.59721531                0.97377319                0.27471097
               7.00143736                8.99757485               59.10388933                0.01000002                0.04621925               -0.11801926                0.19680105                0.54670462                1.13613503                0.09776890
               8.00219563                9.00347358               59.11766018                0.14175029                0.00641825                0.06240554                0.20893863                0.45011200                0.70320332                0.52334892
               9.00156572                9.00244918               59.11743230                0.98459326               -0.06252208               -0.06239881                0.20799088                0.00155045                0.00166096                0.00290053
              10.00094518                9.00140594               59.11715953                0.99724299               -0.06205374               -0.06116680                0.20577136                0.00099130               -0.00056407                0.00004431
               0.01710933                9.99786306               59.07390756                0.99993814               -0.04060326               -0.03790020                0.12992794               -0.00074652                0.02727507                0.02532908
               1.01670330                9.98974834               59.07321876                0.99633731               -0.04231711               -0.04133625                0.14008131               -0.00134607                0.02127646                0.00118825
               2.01626299                9.98167583               59.07236283                0.92410123               -0.04417190               -0.04352242                0.14994144                0.00063503                0.00527951               -0.02221173
               3.01581986                9.97368571               59.07136539                0.17740518               -0.55016605               -0.04266845                0.16325589                0.67641001                0.38026841               -0.01693925
               4.00525967                9.97927427               59.07822118                0.08026808               -0.80514599                0.16392433                0.16899441                0.64849641                0.78365681                0.11283943
               4.99971694                9.98442743               59.08635547                0.02311608               -0.37035150               -0.00598637                0.18106113                0.34696123                0.94931358                0.10626960
               5.99785264                9.99088041               59.09695003                0.08614638               -0.06994801               -0.05059674                0.19861927                0.23807745                0.87048639                0.14784985
               6.99831798                9.99602619               59.10367511                0.10366797                0.26836742               -0.15486616                0.18996496                0.28663494                1.02777698               -0.01128157
               8.00321999               10.00285187               59.11737522                0.62300165                0.21431680               -0.06217146                0.20629207                0.39252241                0.70271728                0.00154294
               9.00260432               10.00182792               59.11716454                0.99724362               -0.06165032               -0.06212567                0.20654196                0.00081740                0.00354321                0.00055409
              10.00198698               10.00079103               59.11689200                0.99163963               -0.06173367               -0.06149124                0.20432559                0.00049018                0.00082049               -0.00051595
              -0.05237735               -0.00101533               60.05967085                1.00000000               -0.02955221               -0.02987128                0.09669232                0.00165744               -0.00827060                0.00846282
               0.94732713               -0.00483876               60.06170583                0.73482704               -0.03026516               -0.03120852                0.10046891                0.00039810               -0.01060522               -0.00448733
               1.94701735               -0.00864580               60.06369131                0.23059404               -0.03560050               -0.03215557                0.10467927               -0.00617869               -0.01014866               -0.00389235
               2.94661512               -0.01256734               60.06573133                0.07689756                0.01328580               -0.02794362                0.10974036               -0.00976890               -0.01665273               -0.00443432
               3.94728306               -0.01651407               60.06755163                0.12886067                0.05618575               -0.00446428                0.10989601               -0.20302951               -0.01177629               -0.00421838
               4.94773883               -0.01488096               60.06934860                0.29452799                0.01167802               -0.03120831                0.11131702               -0.06625640               -0.00342260               -0.00228619
               5.94751662               -0.01169835               60.07130987                0.77276632               -0.02832099               -0.03403831                0.11535864               -0.00752000                0.00667061               -0.00235753
               6.94717241               -0.00834315               60.07330285                0.99999999               -0.03536347               -0.03555899                0.12000468                0.00029784                0.00921964               -0.00193668
               7.94680935               -0.00498102               60.07531441                0.99174592               -0.03710938               -0.03697895                0.12470276                0.00061074                0.01137133               -0.00207279
               8.94643023               -0.00162170               60.07735011                0.99733735               -0.03870588               -0.03838716                0.12946459                0.00071202                0.01031864                0.00070973
               9.94603524                0.00172989               60.07934051                0.99957285               -0.03949893               -0.03984402                0.13415026                0.00126878                0.00805287                0.00817410
              -0.04853734                0.99868596               60.06012419                0.73429250               -0.03163116               -0.03060884                0.10336739                0.00130688                0.00452384                0.01157305
               0.95114635                0.99484916               60.06215796                0.01000000               -0.03214029               -0.03248248                0.10711462                0.00024422                0.00862916               -0.00825679
               1.95081985                0.99103265               60.06427499                0.01000000               -0.03473909               -0.03227278                0.11034616               -0.00205524                0.01359835                0.02659666
               2.95045156                0.98715322               60.06641058                0.01000000               -0.22051373                0.02142858                0.11363938               -0.02364960               -0.02325165                0.03252505
               3.94640958                0.98344129               60.06783233                0.01000000               -0.28915774                0.13333252                0.10927969                0.10472276               -0.03798811                0.07085438
               4.94466841                0.98480696               60.06956587                0.01000000               -0.11185283                0.04428773                0.10888753                0.25413370               -0.01703715                0.06849210
               5.94417252                0.98796127               60.07145343                0.01000001               -0.04258401                0.00889364                0.11254472                0.17791731               -0.00816195                0.04638562
               6.94381673                0.99130126               60.07337476                0.50992631               -0.03588909               -0.03517699                0.11705548               -0.00126350               -0.00582740               -0.00861573
               7.94345474                0.99464919               60.07530899                0.98743994               -0.03674192               -0.03644511                0.12157888               -0.00034552               -0.00249620               -0.00400962
               8.94308189                0.99799442               60.07729663                0.99999999               -0.03792053               -0.03789183                0.12624541               -0.00005172                0.00027357                0.00036682
               9.94269633                1.00133145               60.07928591                0.99523708               -0.03855625               -0.03932717                0.13092366                0.00051889                0.00037295                0.01045085
              -0.04467760                1.99837250               60.06063817                0.22747844               -0.03370697               -0.02526102                0.10982520                0.01170060                0.00398992                0.02982807
               0.95498533                1.99451159               60.06253441                0.01000000               -0.03251110               -0.04251831                0.11440709                0.01257557                0.05561658               -0.00016555
               1.95467218                1.99070875               60.06546692                0.01000001               -0.06259228               -0.05793001                0.11412205                0.12657243                0.08450656                0.10237876
               2.95373348                1.98786123               60.06782422                0.01000000               -0.14741964                0.04074643                0.11402599                0.21809641                0.02910289                0.09748504
               3.95172378                1.98615258               60.06961882                0.01000000               -0.27159777                0.21018129                0.11463715                0.47280948               -0.01294027                0.14789518
               4.94830153                1.98600480               60.07119705                0.01000001               -0.35715563                0.14042298                0.11492350                0.63479837               -0.03539459                0.15487440
               5.94458067                1.98847953               60.07257127                0.01144867               -0.39211516                0.15017751                0.11549237                0.47975095               -0.08566616                0.12479951
               6.94045922                1.99095331               60.07331261                0.01618382               -0.22356955                0.07057405                0.11382733                0.20200280               -0.07155729                0.05938006
               7.94010928                1.99429008               60.07526457                0.04958337               -0.03561465               -0.02501177                0.11841815                0.01526945               -0.01001563               -0.00566545
               8.93974693                1.99762046               60.07723633                1.00000000               -0.03688603               -0.03683758                0.12275552               -0.00020022               -0.00553029               -0.00292391
               9.93937156                2.00094335               60.07927722                0.87865288               -0.03753720               -0.03827279                0.12744788                0.00055080               -0.00200933                0.01069807
              -0.04058152                2.99818074               60.06145449                0.07256297               -0.03568715                0.06842172                0.11833059                0.20550836                0.00432113                0.41402954
               0.95906161                2.99399879               60.06315477                0.01000000                0.02915907               -0.16258819                0.12313952                0.21619465                0.13888457                0.33098772
               1.96000166                2.98987405               60.06755039                0.01000000                0.01540234               -0.09438115                0.11394101                0.32929491                0.17621164                0.14754739
               2.95936966                2.98796815               60.06960143                0.01000000               -0.11397300               -0.00390338                0.11729014                0.53301562                0.06054430                0.13172958
               3.95772220                2.98764492               60.07166231                0.01198537               -0.21661110                0.06517995                0.11950641                0.64302126                0.03576409                0.14092349
               4.95503743                2.98761542               60.07327441                0.01000000               -0.44515869                0.15078396                0.12211345                0.87407803               -0.02004407                0.17174222
               5.94881903                2.99096482               60.07433475                0.01000001               -0.64955998                0.22983707                0.12017566                0.98274242               -0.10054617                0.24020243
               6.94204623                2.99271274               60.07474369                0.01000000               -0.58630247                0.25165961                0.11671955                0.89095251               -0.15114127                0.32179775
               7.93709298                2.99414896               60.07522543                0.01407045               -0.28108089                0.12179086                0.11406640                0.73091218               -0.09292650                0.25660653
               8.93642462                2.99725767               60.07711663                0.01000000               -0.05157069               -0.16354595                0.11895138                0.70216741               -0.01363606                0.23249905
               9.93606156                3.00056600               60.07922751                0.10623088               -0.03630516               -0.52638289                0.12393499                0.79299117               -0.00252387                0.27658618
              -0.03220353                3.99974093               60.06957693                0.12138219               -0.01805499                0.05341984                0.07697233                0.01341789               -0.00925466                0.49135982
               0.96761592                3.99125983               60.07024886                0.01000000               -0.02538769               -0.14966783                0.09427149                0.31901450               -0.06312937                0.36705437
               1.96728871                3.98882112               60.06978860                0.01000000               -0.04964957               -0.12522915                0.11625361                0.57398115               -0.02049860                0.14396463
               2.96662293                3.98778316               60.07167445                0.01197989               -0.11758853               -0.07019954                0.12096434                0.66471948                0.07528513                0.11454702
               3.96493694                3.98745618               60.07334800                0.01000000               -0.20798711               -0.06298804                0.12518823                0.86747049                0.07107266                0.12585646
               4.96246318                3.98902048               60.07534946                0.01000001               -0.28993722                0.10012327                0.12836313                1.16343561                0.09180494                0.21909972
               5.95913820                3.99307627               60.07764490                0.01000001               -0.36845214                0.16500149                0.12988733                1.44738200                0.08913463                0.37295581
               6.95509414                3.99598650               60.07981738                0.01203200               -0.44778033                0.21034311                0.13069277                1.47094750               -0.01072113                0.46881746
               7.95018259                3.99672590               60.08039500                0.01102391               -0.38604507                0.16671210                0.12721073                1.30189614               -0.06934538                0.55649171
               8.94737324                3.99434954               60.08176334                0.01000000               -0.07839281               -0.11309731                0.12944399                0.99372892                0.03514045                0.60473165
               9.94861473                3.99041569               60.08453513                0.07815028                0.12414961               -0.69515168                0.13858429                0.86420090                0.11180716                0.59871909
              -0.02335096                4.99924914               60.07176162                0.28448412               -0.02873375               -0.04183972                0.08990746                0.03148250               -0.00441253                0.10904069
               0.97636171                4.99100543               60.07195364                0.01000000               -0.08455477               -0.02677446                0.10635929                0.25507885               -0.01905033                0.05092719
               1.97495795                4.98736946               60.07183296                0.01000001               -0.11663607               -0.17240689                0.11758447                0.59536056                0.00757602                0.07698110
               2.97402899                4.98656416               60.07307473                0.01000000               -0.05618252               -0.26912210                0.12576265                0.83431146                0.09883210                0.05425391
               3.97383430                4.98638516               60.07515171                0.01000001               -0.06714629               -0.13703425                0.13254575                1.11987876                0.18938270                0.13120147
               4.97268606                4.98961788               60.07832283                0.01000001               -0.15168282                0.00803976                0.13739329                1.45561304                0.26135189                0.27941425
               5.97080064                4.99426485               60.08198209                0.01194033               -0.24352515                0.02665247                0.14221885                1.51302680                0.19509998                0.36116080
               6.96781556                4.99691960               60.08399222                0.01022580               -0.30163899                0.05061979                0.14302757                1.42599905                0.10692458                0.47008684
               7.96476786                4.99748320               60.08611392                0.01000000               -0.26030790                0.13097493                0.14256437                1.34225852                0.15854303                0.70554065
               8.96260940                4.99499573               60.08936617                0.01000000               -0.17772913                0.15400831                0.14890052                0.95205578                0.15869241                0.85985308
               9.96121328                4.98666296               60.09162011                0.03510367               -0.13961189               -0.11117216                0.15935294                0.51994745                0.10514806                0.79086230
              -0.01508648                5.99890414               60.07252938                0.75139619               -0.03163561               -0.03263655                0.09767495                0.00607747               -0.00558294                0.02999276
               0.98459717                5.99072434               60.07248961                0.01000001               -0.06381640               -0.03125334                0.11359224                0.14488929                0.00538596               -0.00838335
               1.98363720                5.98537299               60.07265606                0.01144902               -0.01518531               -0.25761874                0.12400242                0.45646234                0.05714669               -0.03303289
               2.98429346                5.98240072               60.07392783                0.01000001                0.03217991               -0.44208366                0.13325121                0.90692389                0.19758057               -0.05084648
               3.98428079                5.98471550               60.07701757                0.01000001               -0.02988570               -0.20589359                0.14087546                1.31643764                0.35234999                0.10972426
               4.98369575                5.98918127               60.08155709                0.01193971               -0.10918894               -0.12219349                0.14822234                1.44880058                0.36215069                0.19681656
               5.98209702                5.99360932               60.08498183                0.01020153               -0.16499866               -0.09009835                0.15313594                1.44197429                0.33000612                0.31473007
               6.98039577                5.99699890               60.08902508                0.01000000               -0.15726889                0.03798568                0.15741963                1.47645825                0.41347341                0.60361273
               7.97895164                5.99934539               60.09425181                0.01000000               -0.15805927                0.21503308                0.16515775                1.37835665                0.44585029                0.93685157
               8.97723459                5.99742971               60.09903372                0.01238880               -0.16362135                0.25457503                0.18169024                0.82798704                0.28169773                0.88248501
               9.97567921                5.98819225               60.10103474                0.01000000               -0.15553785                0.23255050                0.18812597                0.37300378                0.14102971                0.74128250
              -0.00686981                6.99859641               60.07316598                0.99999999               -0.03395457               -0.03184427                0.10501231                0.00194559               -0.00431257                0.02604149
               0.99279064                6.99038037               60.07295105                0.48737298               -0.03596885               -0.03540843                0.12088745                0.00253250               -0.01714208               -0.01097322
               1.99241081                6.98221709               60.07247004                0.01618489                0.00171534               -0.17761070                0.13369690                0.21634498                0.04182112               -0.06132147
               2.99282495                6.97772249               60.07344752                0.01000000                0.04858444               -0.40971612                0.14278037                0.80828636                0.31186063               -0.15520458
               3.99338250                6.98226728               60.07844637                0.01203184               -0.00283502               -0.30007983                0.15105787                1.29544572                0.47702676               -0.02019312
               4.99276825                6.98717401               60.08287997                0.01023122               -0.07799999               -0.20749937                0.15770407                1.30539909                0.49859299                0.09225684
               5.99182250                6.99246288               60.08843028                0.01000000               -0.05798028               -0.08903646                0.16449573                1.38011362                0.64383052                0.39048868
               6.99160865                6.99767932               60.09588941                0.01000000                0.00408422                0.07828707                0.17522761                1.43109767                0.79512044                0.76119970
               7.99190419                7.00178386               60.10450135                0.01239718               -0.06431798                0.12656189                0.19820890                1.13746332                0.54275865                0.79238149
               8.99032229                7.00008723               60.10680039                0.01000002               -0.23779574                0.29660632                0.19027236                0.65258846                0.11796100                1.05201636
               9.98714827                6.99131397               60.10701877                0.12896585               -0.31740140                0.70423828                0.18227709                0.34548208                0.00515769                0.89945583
               0.00138452                7.99826725               60.07383402                0.99139783               -0.03573785               -0.03395250                0.11198252                0.00235634               -0.00349270                0.03239493
               1.00102714                7.99001617               60.07343050                0.95162636               -0.03812703               -0.03793419                0.12824302                0.00375803               -0.00772004               -0.00476533
               2.00062197                7.98182077               60.07293592                0.03839307               -0.03090716               -0.04229328                0.14166638                0.03336194               -0.01281769               -0.03031233
               3.00040899                7.97420640               60.07244785                0.01407261                0.00581041               -0.22550135                0.15917632                0.62232547                0.27978406               -0.13924725
               4.00073818                7.97871390               60.07782351                0.01102505               -0.04004322               -0.26681180                0.16381908                1.09620468                0.61716294               -0.09019723
               4.99960813                7.98503128               60.08414730                0.01000000               -0.07720982               -0.15592064                0.16602451                1.13241985                0.78297788                0.14376696
               5.99919399                7.99182859               60.09303033                0.01000000                0.00443119               -0.05897507                0.17753217                1.16021426                1.01198206                0.43169616
               6.99969675                7.99856464               60.10403874                0.01238466                0.00495035                0.00254526                0.20268810                1.00463791                0.84416429                0.51729206
               7.99929299                8.00187663               60.10947842                0.01000002                0.05297461                0.09995409                0.19777933                0.76778203                0.80428590                0.79072989
               9.00075624                8.00336183               60.11973396                0.13052265                0.04211836                0.13230138                0.20666271                0.59612500                0.52523224                0.66482055
              10.00013536                8.00227701               60.11948547                0.61891997               -0.06208844                0.51802287                0.20662709                0.59525902                0.00050727                0.63641397
               0.00967948                8.99791736               60.07457823                0.99740208               -0.03671943               -0.03602780                0.11856072                0.00209658                0.00176902                0.03025756
               1.00931229                8.98962168               60.07401743                0.99999999               -0.03958283               -0.04090663                0.13501742                0.00306460               -0.00099180                0.00086582
               2.00888782                8.98137122               60.07340149                0.79604959               -0.04669771               -0.04831622                0.16039103                0.00795961               -0.01919295               -0.02260265
               3.00837833                8.97321246               60.07252209                0.01000000               -0.22030561               -0.08394278                0.19924471                0.58816644                0.28359193               -0.04857699
               4.00448171                8.97693105               60.07809868                0.01000000               -0.30381855               -0.00509566                0.17123298                0.78245628                0.73606319                0.02983133
               5.00230196                8.98405560               60.08663771                0.01000000               -0.14941394               -0.05146028                0.17613821                0.72742499                0.98296842                0.15634796
               6.00149343                8.99128338               60.09732948                0.01237373               -0.03243000               -0.05236779                0.19606720                0.61757078                0.98162599                0.28465697
               7.00165336                8.99773022               60.10586365                0.01000002                0.04846006               -0.12173583                0.19747575                0.55849849                1.14159162                0.09315324
               8.00246263                9.00378294               60.11974489                0.14096536                0.00955222                0.06468778                0.20718871                0.46136097                0.70978089                0.53070260
               9.00184440                9.00273325               60.11951146                0.98498051               -0.06197717               -0.06274670                0.20728688                0.00126182                0.00148611                0.00456767
              10.00122309                9.00167443               60.11921593                0.99760372               -0.06213143               -0.06081520                0.20557071                0.00139591               -0.00139355               -0.00083541
               0.01801779                9.99754670               60.07518566                0.99957306               -0.03832306               -0.03706607                0.12614864               -0.00103445                0.02308549                0.02424206
               1.01763456                9.98919804               60.07461589                0.99598216               -0.04137023               -0.04236454                0.14251444               -0.00238473                0.02445392                0.00065654
               2.01719039                9.98085445               60.07407191                0.92780100               -0.05110329               -0.05167753                0.17148166               -0.00326815                0.02286174               -0.01547843
               3.01661250                9.97252754               60.07350249                0.18582575               -0.58231105               -0.06849173                0.20697753                0.71129361                0.36734652               -0.01060086
               4.00554417                9.97861199               60.07994781                0.08107548               -0.84041016                0.16809402                0.18117959                0.67997238                0.76280076                0.11334420
               4.99980429                9.98400208               60.08820684                0.02336298               -0.38366928               -0.00535235                0.18769032                0.35869560                0.95528670                0.11110750
               5.99787078                9.99078123               60.09895514                0.08626602               -0.07185648               -0.05021498                0.20200244                0.24412718                0.86768458                0.15119157
               6.99836716                9.99612992               60.10558286                0.10453133                0.28231986               -0.16002990                0.19121567                0.29083815                1.02683292               -0.01777558
               8.00351718               10.00317039               60.11943104                0.62304466                0.22614141               -0.06125532                0.20475893                0.40430339                0.71333588                0.00233017
               9.00288999               10.00210690               60.11922906                0.99760317               -0.06181259               -0.06263559                0.20629913               -0.00092513                0.00645842                0.00182551
              10.00228093               10.00106071               60.11893357                0.99179088               -0.06090647               -0.06137206                0.20456388                0.00116484                0.00169159               -0.00159648
              -0.05451088               -0.00142002               61.06063587                1.00000000               -0.02939888               -0.02977847                0.09626664                0.00175231               -0.00763681                0.00788885
               0.94519514               -0.00536733               61.06270854                0.73469143               -0.03007896               -0.03119476                0.10005453                0.00043121               -0.00971374               -0.00414168
               1.94488754               -0.00929528               61.06473634                0.23346988               -0.03448878               -0.03208480                0.10433456               -0.00492547               -0.00853889               -0.00359452
               2.94450536               -0.01330905               61.06682769                0.08147011                0.02257396               -0.02769900                0.10956790                0.01405983               -0.01637207               -0.00414853
               3.94533902               -0.01683697               61.06865234                0.13136269                0.06490460               -0.00469325                0.11024588               -0.18139361               -0.01438300               -0.00492386
               4.94580345               -0.01510872               61.07046182                0.29493280                0.01222685               -0.03112087                0.11131234               -0.06468179               -0.00517607               -0.00227962
               5.94558356               -0.01185136               61.07246310                0.77108505               -0.02818519               -0.03400907                0.11525375               -0.00758268                0.00646389               -0.00238158
               6.94523975               -0.00841956               61.07450264                0.99999999               -0.03533282               -0.03553483                0.11991550                0.00029919                0.00937544               -0.00194582
               7.94487690               -0.00498066               61.07656135                0.99186693               -0.03709116               -0.03695986                0.12463400                0.00061839                0.01159676               -0.00210580
               8.94449792               -0.00154457               61.07864480                0.99697040               -0.03869302               -0.03837034                0.12941423                0.00071758                0.01055266                0.00076868
               9.94410304                0.00188383               61.08068214                0.99920535               -0.03948802               -0.03983616                0.13412010                0.00126887                0.00826967                0.00844271
              -0.05054604                0.99828220               61.06115844                0.73384501               -0.03168796               -0.03049894                0.10345749                0.00149044                0.00419496                0.01090906
               0.94913708                0.99432072               61.06322961                0.01000000               -0.03224038               -0.03264608                0.10721482                0.00047336                0.00801931               -0.00756218
               1.94880915                0.99038387               61.06537839                0.01000000               -0.03601382               -0.03177925                0.11035709                0.00258557                0.01267097                0.02597687
               2.94841680                0.98641396               61.06754593                0.01000000               -0.21921165                0.02673479                0.11346339                0.00724758               -0.02839395                0.03122943
               3.94442492                0.98311609               61.06892933                0.01000000               -0.28764895                0.12745510                0.11018939                0.13522314               -0.04579142                0.07292282
               4.94266382                0.98458007               61.07065526                0.01000000               -0.11308827                0.04066817                0.10904829                0.26665181               -0.02041839                0.07282788
               5.94216315                0.98780855               61.07257838                0.01000001               -0.04282172                0.00739763                0.11247834                0.18520481               -0.00880521                0.04933576
               6.94180739                0.99122510               61.07454485                0.50630574               -0.03587794               -0.03515203                0.11698930               -0.00126055               -0.00597702               -0.00877123
               7.94144560                0.99464974               61.07652439                0.98755710               -0.03672686               -0.03642947                0.12152883               -0.00033377               -0.00255025               -0.00403750
               8.94107285                0.99807173               61.07855892                0.99999999               -0.03791330               -0.03787686                0.12621400               -0.00004301                0.00029084                0.00027740
               9.94068733                1.00148547               61.08059516                0.99484786               -0.03855242               -0.03932843                0.13091664                0.00051602                0.00036789                0.01056177
              -0.04655812                1.99797000               61.06173928                0.23005474               -0.03389527               -0.02322715                0.11039069                0.01506040                0.00369941                0.03015757
               0.95310293                1.99397975               61.06368198                0.01000000               -0.02979307               -0.04516573                0.11512461                0.01695134                0.05279994                0.00160652
               1.95284602                1.99006913               61.06661045                0.01000001               -0.05924220               -0.06081397                0.11486200                0.14693113                0.07879147                0.09901112
               2.95191809                1.98722564               61.06896658                0.01000000               -0.14843274                0.04653947                0.11445915                0.25530679                0.02303535                0.09648541
               3.94987737                1.98571213               61.07076813                0.01000000               -0.27370297                0.20322405                0.11523633                0.51309436               -0.01870400                0.15191732
               4.94644403                1.98570465               61.07234900                0.01000001               -0.36173660                0.13379950                0.11550831                0.66946379               -0.04073154                0.16260337
               5.94264264                1.98829660               61.07372742                0.01144369               -0.40353410                0.15139873                0.11579626                0.50317267               -0.09132046                0.13083545
               6.93837335                1.99087740               61.07445005                0.01618283               -0.23095193                0.07330510                0.11373762                0.21254345               -0.07492430                0.06219598
               7.93802360                1.99429075               61.07644830                0.04886978               -0.03560065               -0.02411105                0.11837420                0.01654892               -0.01032736               -0.00620155
               8.93766133                1.99769789               61.07846258                1.00000000               -0.03688621               -0.03683009                0.12276990               -0.00017023               -0.00589177               -0.00341982
               9.93728587                2.00109727               61.08054998                0.87996906               -0.03754600               -0.03829687                0.12748538                0.00054483               -0.00230916                0.01058256
              -0.04226432                2.99781766               61.06264382                0.07627236               -0.03587000                0.07482192                0.11955265                0.23484293                0.00393973                0.38908237
               0.95737698                2.99341741               61.06439366                0.01000000                0.03831012               -0.17423177                0.12465392                0.25166062                0.13122006                0.31332586
               1.95850188                2.98916759               61.06869221                0.01000000                0.02514826               -0.09875376                0.11441084                0.36942700                0.16496936                0.14437272
               2.95787994                2.98734475               61.07077799                0.01000000               -0.11470402               -0.00270396                0.11799471                0.58208911                0.05515405                0.13218618
               3.95620780                2.98718057               61.07286090                0.01198452               -0.22056560                0.06222575                0.12026703                0.69010572                0.03071494                0.14440228
               4.95346863                2.98725606               61.07450000                0.01000000               -0.45769754                0.14890988                0.12296912                0.92039008               -0.02661282                0.17836524
               5.94705385                2.99083653               61.07553860                0.01000001               -0.67022647                0.23441869                0.12055916                1.02777216               -0.10908652                0.24874900
               6.94006410                2.99269120               61.07591131                0.01000000               -0.60488837                0.25912795                0.11691343                0.92704864               -0.15913044                0.33273193
               7.93495608                2.99416752               61.07636813                0.01417612               -0.29005846                0.12868484                0.11424647                0.75538898               -0.09610165                0.26447486
               8.93426293                2.99733513               61.07830275                0.01000000               -0.05283011               -0.17057981                0.11902250                0.72595275               -0.01386576                0.23906961
               9.93389948                3.00071954               61.08046375                0.11123880               -0.03634530               -0.54386445                0.12404431                0.82092414               -0.00272499                0.28574627
              -0.03306076                3.99946644               61.07032135                0.12255892               -0.01530279                0.05048929                0.07293071                0.03242155               -0.01003291                0.46796483
               0.96678621                3.99049511               61.07118418                0.01000000               -0.03160061               -0.15322247                0.09276271                0.36497587               -0.06187026                0.35107711
               1.96630723                3.98809406               61.07095560                0.01000000               -0.06196618               -0.12495196                0.11692046                0.62874200               -0.02024973                0.14081267
               2.96554689                3.98717156               61.07288954                0.01198415               -0.12695312               -0.06962518                0.12192108                0.71417885                0.06927654                0.11474758
               3.96376816                3.98695664               61.07460630                0.01000000               -0.21755047               -0.06686217                0.12639993                0.91799410                0.06583077                0.12971043
               4.96119588                3.98868284               61.07663854                0.01000001               -0.30026086                0.10209128                0.12943124                1.22027510                0.08600653                0.22579883
               5.95776295                3.99298497               61.07894602                0.01000001               -0.38062761                0.16858059                0.13025806                1.51044614                0.08298407                0.38435113
               6.95358332                3.99605996               61.08112336                0.01205181               -0.46377485                0.21668383                0.13027695                1.53025711               -0.01863583                0.48381458
               7.94848745                3.99686445               61.08166479                0.01109414               -0.39774754                0.17291814                0.12645222                1.34540967               -0.07625924                0.57406217
               8.94562837                3.99428630               61.08305756                0.01000000               -0.07759567               -0.11818467                0.12921147                1.02548315                0.03556086                0.62283977
               9.94693554                3.99021998               61.08592427                0.07864524                0.13071620               -0.71937577                0.13929180                0.89770545                0.11572750                0.62016341
              -0.02367323                4.99882744               61.07263458                0.28396421               -0.02778867               -0.05023076                0.08561520                0.04631147               -0.00472508                0.11201587
               0.97604888                4.99035296               61.07301488                0.01000000               -0.09632484               -0.01971130                0.10567377                0.27793925               -0.02289092                0.05231586
               1.97440027                4.98666855               61.07301441                0.01000001               -0.13739732               -0.17078671                0.11855006                0.63530542                0.00183389                0.07350340
               2.97330094                4.98595224               61.07433995                0.01000000               -0.06719356               -0.27542774                0.12721896                0.88258157                0.09398523                0.05524832
               3.97305640                4.98584333               61.07648697                0.01000001               -0.07275644               -0.14105795                0.13425093                1.17595825                0.18463029                0.13517851
               4.97184581                4.98929789               61.07970278                0.01000001               -0.15853730                0.00855287                0.13845071                1.52341851                0.25733944                0.28709998
               5.96988566                4.99420814               61.08340655                0.01195500               -0.25280208                0.02723404                0.14242902                1.57984592                0.19057911                0.37254606
               6.96678977                4.99702487               61.08542270                0.01025899               -0.31238572                0.05166549                0.14281180                1.48526424                0.10036358                0.48530915
               7.96363794                4.99762588               61.08753751                0.01000000               -0.26863491                0.13355885                0.14188017                1.39223166                0.15524106                0.72787995
               8.96141707                4.99497143               61.09085565                0.01000000               -0.18258551                0.16314379                0.14865262                0.98598375                0.16152908                0.88934014
               9.95998623                4.98633202               61.09322019                0.03591389               -0.14308369               -0.11550775                0.16068643                0.54288052                0.11068943                0.81879838
              -0.01518557                5.99846183               61.07348282                0.74695530               -0.03105467               -0.03331155                0.09403895                0.00840982               -0.00573123                0.02954039
               0.98450389                5.99010089               61.07362588                0.01000001               -0.07001907               -0.02974652                0.11346106                0.15245812                0.00163186               -0.00936908
               1.98341405                5.98467832               61.07390666                0.01145028               -0.02400737               -0.26262391                0.12585629                0.48301609                0.05125431               -0.03378073
               2.98402374                5.98166301               61.07527859                0.01000001                0.02638146               -0.45567279                0.13631992                0.95231591                0.19201329               -0.05029019
               3.98394168                5.98413548               61.07843837                0.01000001               -0.03621497               -0.21130243                0.14311756                1.37622552                0.34861312                0.11330605
               4.98329944                5.98885390               61.08304676                0.01195341               -0.11543999               -0.12602028                0.14939474                1.51371910                0.35991240                0.20348484
               5.98163288                5.99352965               61.08651777                0.01023282               -0.17142875               -0.09358341                0.15375727                1.50411469                0.32763998                0.32502412
               6.97987086                5.99709327               61.09060171                0.01000000               -0.16236779                0.03825569                0.15757989                1.53604242                0.41332203                0.62110390
               7.97838553                5.99953562               61.09590530                0.01000000               -0.16144756                0.22412820                0.16509754                1.43414463                0.45306764                0.96750609
               8.97664191                5.99754917               61.10085626                0.01252013               -0.16567772                0.26471558                0.18324896                0.85955343                0.28957456                0.90627318
               9.97507197                5.98790982               61.10292646                0.01000000               -0.15699423                0.23747455                0.19085239                0.38544455                0.14429726                0.75406236
              -0.00678315                6.99816121               61.07419541                0.99999999               -0.03352963               -0.03112946                0.10201472                0.00207869               -0.00459416                0.02461633
               0.99288155                6.98975803               61.07416455                0.48046960               -0.03591863               -0.03551527                0.12142103                0.00284918               -0.01962442               -0.01206855
               1.99249847                6.98141607               61.07382632                0.01618630                0.00042718               -0.18444071                0.13736063                0.22794023                0.03506873               -0.06077903
               2.99289009                6.97683879               61.07489416                0.01000000                0.04457718               -0.42773678                0.14853020                0.84116236                0.30497527               -0.15100491
               3.99339002                6.98161728               61.07997915                0.01205358               -0.00820356               -0.31033189                0.15434028                1.35031911                0.47332094               -0.01678054
               4.99272602                6.98677748               61.08446978                0.01025769               -0.08307195               -0.21472819                0.15965582                1.36104998                0.49653585                0.09651161
               5.99172858                6.99233647               61.09008328                0.01000000               -0.06106921               -0.09224501                0.16562008                1.43618585                0.64573370                0.40093421
               6.99150464                6.99778999               61.09764375                0.01000000                0.00681767                0.08324524                0.17530259                1.49037018                0.80705572                0.78443007
               7.99186493                7.00210845               61.10648507                0.01252247               -0.06353497                0.13195941                0.19845549                1.17863966                0.54737523                0.81093438
               8.99023394                7.00026574               61.10870339                0.01000002               -0.24455539                0.30560315                0.19027986                0.66672040                0.10753458                1.06522485
               9.98697383                6.99108151               61.10884271                0.13102840               -0.32601150                0.73178288                0.18263562                0.34736892               -0.00462850                0.90778567
               0.00166237                7.99783924               61.07493699                0.99144599               -0.03563630               -0.03328142                0.10974859                0.00224428               -0.00452993                0.02985724
               1.00130601                7.98939058               61.07471870                0.95142194               -0.03851361               -0.03822018                0.12922933                0.00243795               -0.00977635               -0.00588963
               2.00089210                7.98098951               61.07439601                0.03891594               -0.03301154               -0.04465302                0.14778245                0.02780088               -0.01166127               -0.02762767
               3.00064578                7.97310827               61.07415262                0.01417718                0.00586330               -0.23762859                0.17216232                0.64394346                0.26921962               -0.13326094
               4.00100936                7.97792885               61.07949105                0.01110036               -0.04222634               -0.27549668                0.16809966                1.14061257                0.60392711               -0.08820237
               4.99980125                7.98455934               61.08583027                0.01000000               -0.08326351               -0.16113834                0.16911669                1.17544236                0.78066431                0.14634659
               5.99934409                7.99168475               61.09481300                0.01000000                0.00525200               -0.05908763                0.17847790                1.20740420                1.02423329                0.44474811
               6.99990629                7.99875818               61.10606766                0.01250707                0.00692341                0.00519033                0.20258683                1.04196024                0.85153587                0.52911315
               7.99948256                8.00217481               61.11145274                0.01000002                0.05484838                0.10132804                0.19665887                0.78907814                0.80384646                0.79634333
               9.00100326                8.00366124               61.12178985                0.13052081                0.04526259                0.13898488                0.20392610                0.61305654                0.52867272                0.67370554
              10.00038781                8.00254548               61.12154658                0.62062530               -0.06154436                0.54298123                0.20506645                0.61515142                0.00039223                0.64778654
               0.01015905                8.99749558               61.07574469                0.99702092               -0.03790056               -0.03530984                0.11675687                0.00221483                0.00098812                0.02744229
               1.00978004                8.98899363               61.07538764                0.99999999               -0.04111217               -0.04130188                0.13771937                0.00137718               -0.00045302                0.00024853
               2.00933680                8.98052301               61.07501840                0.80687188               -0.04752066               -0.04820418                0.16110514                0.00170560               -0.01087079               -0.01824845
               3.00882963                8.97208621               61.07447522                0.01000000               -0.22927991               -0.07976920                0.19061412                0.61147245                0.27843792               -0.04436234
               4.00475120                8.97610735               61.07989198                0.01000000               -0.31753302               -0.00429731                0.18104285                0.81352342                0.71585435                0.03000029
               5.00247897                8.98355472               61.08841579                0.01000000               -0.15366899               -0.05240052                0.17887267                0.75307353                0.98388609                0.15950622
               6.00167782                8.99115472               61.09930202                0.01250259               -0.03125932               -0.05159042                0.19736051                0.64126460                0.98746561                0.29374372
               7.00185378                8.99789379               61.10783884                0.01000002                0.05328058               -0.12629582                0.19709429                0.57263655                1.14386859                0.08764239
               8.00274344                9.00413501               61.12180395                0.13987708                0.01353121                0.06756787                0.20386372                0.47547961                0.71456129                0.53667056
               9.00212440                9.00304544               61.12157804                0.98537338               -0.06175348               -0.06159978                0.20547763                0.00169141                0.00140719                0.00620346
              10.00150837                9.00194114               61.12127095                0.99797300               -0.06160379               -0.06108248                0.20549355                0.00076794               -0.00222132               -0.00174397
               0.01871058                9.99713304               61.07643053                0.99920724               -0.04044604               -0.03625401                0.12500234               -0.00169616                0.02076330                0.02166353
               1.01830612                9.98856454               61.07606905                0.99562639               -0.04384804               -0.04290801                0.14638094               -0.00277276                0.02358430                0.00061983
               2.01783362                9.98002543               61.07579246                0.93207961               -0.05076157               -0.04975872                0.17085680               -0.00290098                0.02579208               -0.00950825
               3.01729089                9.97151289               61.07550494                0.19624661               -0.60111458               -0.05733260                0.19582808                0.73700000                0.35862077               -0.00303035
               4.00581133                9.97784290               61.08184477                0.08190141               -0.87377694                0.17355512                0.19145223                0.70593446                0.74943374                0.11446442
               4.99981535                9.98351133               61.09010927                0.02360365               -0.39905099               -0.00433903                0.19214560                0.37414052                0.95378967                0.11571689
               5.99783031                9.99065294               61.10099008                0.08638876               -0.07183106               -0.05017766                0.20407504                0.25129514                0.86235251                0.15372990
               6.99837873                9.99623226               61.10749942                0.10546792                0.30050993               -0.16615344                0.19171012                0.29615645                1.02278430               -0.02451053
               8.00384051               10.00352617               61.12147040                0.62290091                0.24261146               -0.06088381                0.20308134                0.41955621                0.72225624                0.00308218
               9.00323096               10.00242924               61.12129052                0.99797459               -0.06143618               -0.06162008                0.20593225                0.00053843                0.00948492                0.00309627
              10.00261178               10.00132383               61.12098327                0.99195644               -0.06191747               -0.06173057                0.20595109               -0.00019926                0.00256266               -0.00267545
              -0.05667542               -0.00190269               62.06159618                1.00000000               -0.02921909               -0.02965768                0.09575558                0.00186168               -0.00692090                0.00723088
               0.94303239               -0.00596372               62.06370692                0.73466276               -0.02985756               -0.03118018                0.09959964                0.00048605               -0.00871011               -0.00374855
               1.94272743               -0.01000177               62.06577800                0.23683188               -0.03303543               -0.03201486                0.10399581               -0.00320055               -0.00671970               -0.00326339
               2.94237168               -0.01408679               62.06792269                0.08673848                0.03169230               -0.02742946                0.10945908                0.03786805               -0.01553947               -0.00384760
               3.94336127               -0.01716653               62.06975655                0.13431897                0.07264408               -0.00495082                0.11064043               -0.15901752               -0.01676990               -0.00571954
               4.94382456               -0.01531343               62.07157484                0.29553899                0.01219042               -0.03102378                0.11129108               -0.06185778               -0.00711179               -0.00227543
               5.94360508               -0.01197655               62.07361495                0.76937298               -0.02814463               -0.03397872                0.11509010               -0.00747796                0.00618462               -0.00240567
               6.94326167               -0.00846648               62.07570116                0.99999999               -0.03529728               -0.03550895                0.11975839                0.00031903                0.00950631               -0.00196103
               7.94289913               -0.00494921               62.07780709                0.99199634               -0.03705859               -0.03692981                0.12448185                0.00064882                0.01179125               -0.00214397
               8.94252049               -0.00143457               62.07993839                0.99657412               -0.03865925               -0.03832435                0.12926243                0.00074047                0.01075807                0.00078785
               9.94212595                0.00207271               62.08202291                0.99882922               -0.03945453               -0.03978610                0.13399340                0.00125343                0.00846323                0.00864047
              -0.05259577                0.99780074               62.06219334                0.73344134               -0.03174377               -0.03035190                0.10349757                0.00169466                0.00380990                0.01014004
               0.94708679                0.99372448               62.06430225                0.01000000               -0.03236373               -0.03283055                0.10730833                0.00075569                0.00730242               -0.00676807
               1.94675695                0.98967808               62.06648213                0.01000000               -0.03770274               -0.03115386                0.11040416                0.00752090                0.01152302                0.02570297
               2.94633274                0.98563892               62.06867985                0.01000000               -0.21862684                0.03228325                0.11334708                0.03853598               -0.03330987                0.03025741
               3.94238442                0.98278396               62.07003611                0.01000000               -0.28608712                0.12129468                0.11123740                0.16717143               -0.05362391                0.07439110
               4.94061099                0.98437633               62.07174684                0.01000000               -0.11387947                0.03627772                0.10931965                0.28013696               -0.02440493                0.07724752
               5.94010683                0.98768366               62.07370300                0.01000001               -0.04299045                0.00562878                0.11246630                0.19251162               -0.00961687                0.05243021
               6.93975118                0.99117843               62.07571454                0.50239920               -0.03585803               -0.03513769                0.11697334               -0.00119853               -0.00615588               -0.00896279
               7.93938967                0.99468149               62.07773957                0.98761255               -0.03671218               -0.03642437                0.12152640               -0.00025890               -0.00264027               -0.00411365
               8.93901694                0.99818219               62.07982091                1.00000000               -0.03792303               -0.03786016                0.12622106                0.00001397                0.00027397                0.00024012
               9.93863121                1.00167485               62.08190424                0.99445586               -0.03857348               -0.03931510                0.13094971                0.00049783                0.00034932                0.01074248
              -0.04848901                1.99749027               62.06284599                0.23305563               -0.03408298               -0.02102079                0.11094552                0.01860704                0.00336216                0.03046124
               0.95117016                1.99337967               62.06483691                0.01000000               -0.02737929               -0.04806853                0.11587003                0.02178521                0.04999542                0.00360560
               1.95096340                1.98937515               62.06776416                0.01000001               -0.05668236               -0.06308651                0.11677965                0.16694899                0.07291616                0.09575289
               2.95003651                1.98655888               62.07011340                0.01000000               -0.14980597                0.05250007                0.11459368                0.29277607                0.01689450                0.09571884
               3.94796728                1.98525936               62.07192355                0.01000000               -0.27544555                0.19554152                0.11603386                0.55416626               -0.02468775                0.15549356
               4.94452760                1.98541213               62.07350722                0.01000001               -0.36570331                0.12584259                0.11619429                0.70465731               -0.04657239                0.17029325
               5.94065322                1.98813602               62.07488720                0.01145229               -0.41438697                0.15187720                0.11619033                0.52688970               -0.09757638                0.13710175
               6.93623986                1.99083077               62.07558737                0.01617695               -0.23815096                0.07578183                0.11378190                0.22345946               -0.07851309                0.06509494
               7.93589020                1.99432230               62.07763205                0.04781741               -0.03562211               -0.02297644                0.11847311                0.01836518               -0.01056190               -0.00685348
               8.93552742                1.99780823               62.07969173                1.00000000               -0.03698066               -0.03690504                0.12309867               -0.00005766               -0.00610750               -0.00365143
               9.93515059                2.00128641               62.08182692                0.88167393               -0.03768343               -0.03841086                0.12790912                0.00051101               -0.00245655                0.01070129
              -0.04400242                2.99738032               62.06384554                0.08065255               -0.03599621                0.08095947                0.12081590                0.25623635                0.00347790                0.36173359
               0.95563762                2.99276311               62.06564785                0.01000000                0.04595702               -0.18597576                0.12618329                0.28050624                0.12281772                0.29401435
               1.95691672                2.98841635               62.06983861                0.01000000                0.03332101               -0.10299883                0.11449283                0.40703850                0.15256174                0.14122582
               2.95630404                2.98668892               62.07196133                0.01000000               -0.11511156               -0.00213622                0.11873016                0.62998482                0.04926380                0.13258003
               3.95461449                2.98669479               62.07406765                0.01198424               -0.22382802                0.05824771                0.12112572                0.73707704                0.02515411                0.14793275
               4.95182748                2.98689319               62.07573379                0.01000000               -0.46942550                0.14607693                0.12388382                0.96711996               -0.03397217                0.18485797
               5.94522598                2.99072120               62.07674594                0.01000001               -0.68966949                0.23796599                0.12099521                1.07303613               -0.11884228                0.25707106
               6.93803409                2.99269407               62.07708196                0.01000000               -0.62232376                0.26603211                0.11725241                0.96317786               -0.16725802                0.34313133
               7.93277951                2.99422197               62.07751036                0.01428256               -0.29912035                0.13577282                0.11440906                0.77915151               -0.09891211                0.27182828
               8.93205168                2.99744409               62.07949708                0.01000000               -0.05472197               -0.17773963                0.11981693                0.74911120               -0.01379147                0.24519354
               9.93168507                3.00090663               62.08170840                0.11651056               -0.03666165               -0.56119468                0.12484303                0.84851855               -0.00282767                0.29501029
              -0.03412986                3.99910946               62.07103555                0.12414972               -0.01258865                0.04738329                0.07101135                0.04488685               -0.01079294                0.44110068
               0.96574426                3.98966015               62.07210411                0.01000000               -0.03458918               -0.15765272                0.09132291                0.40460725               -0.06039789                0.33410593
               1.96517836                3.98731517               62.07212701                0.01000000               -0.06932475               -0.12639339                0.11737391                0.68044172               -0.02017141                0.13761676
               2.96435776                3.98651615               62.07411287                0.01199007               -0.13369016               -0.07044186                0.12270124                0.76206163                0.06238725                0.11492380
               3.96250456                3.98642432               62.07587600                0.01000000               -0.22570865               -0.07190728                0.12750429                0.96835459                0.05944152                0.13365051
               4.95984359                3.98833367               62.07793808                0.01000001               -0.30957486                0.10292379                0.13043787                1.27784099                0.07872471                0.23211779
               5.95631306                3.99289534               62.08025006                0.01000001               -0.39204661                0.17114101                0.13055531                1.57420361                0.07497833                0.39517051
               6.95200266                3.99615141               62.08242292                0.01207172               -0.47949263                0.22266846                0.12942186                1.59000966               -0.02871408                0.49837793
               7.94672321                3.99703776               62.08292404                0.01116916               -0.40888400                0.17891575                0.12466213                1.38811264               -0.08464003                0.59127820
               8.94382498                3.99425344               62.08434757                0.01000000               -0.07636696               -0.12301297                0.12816236                1.05651828                0.03528940                0.64089418
               9.94519587                3.99006251               62.08732096                0.07913314                0.13708910               -0.74349478                0.13940478                0.93155340                0.11905845                0.64295488
              -0.02420606                4.99832799               62.07347393                0.28355497               -0.02698848               -0.05876744                0.08316619                0.06033817               -0.00510771                0.11474149
               0.97552406                4.98961005               62.07406712                0.01000000               -0.10621931               -0.01364313                0.10458871                0.30111020               -0.02718540                0.05370362
               1.97366956                4.98588848               62.07420396                0.01000001               -0.15439657               -0.17148532                0.11906290                0.67506237               -0.00460756                0.07034153
               2.97243613                4.98528008               62.07561911                0.01000000               -0.07527429               -0.28377226                0.12839143                0.93062071                0.08795496                0.05655474
               3.97216407                4.98525665               62.07783672                0.01000001               -0.07614253               -0.14674351                0.13554298                1.23259518                0.17827641                0.13924158
               4.97091328                4.98895166               62.08109184                0.01000001               -0.16358799                0.00751558                0.13926546                1.59291944                0.25122716                0.29415206
               5.96889231                4.99414402               62.08483067                0.01196767               -0.26107056                0.02688608                0.14239546                1.64887908                0.18383664                0.38352052
               6.96569187                4.99714744               62.08684846                0.01029044               -0.32262901                0.05242566                0.14206685                1.54641403                0.09148494                0.50083683
               7.96243973                4.99780028               62.08895152                0.01000000               -0.27672844                0.13550951                0.14045946                1.44358130                0.14959469                0.75125311
               8.96015730                4.99498383               62.09233922                0.01000000               -0.18708760                0.17269952                0.14659938                1.02082012                0.16285066                0.92255911
               9.95869798                4.98603674               62.09483384                0.03667922               -0.14593171               -0.12057679                0.16033100                0.56673502                0.11574092                0.85154815
              -0.01548722                5.99793412               62.07441016                0.74234466               -0.03068071               -0.03467137                0.09231070                0.01062188               -0.00589540                0.02949101
               0.98420597                5.98938729               62.07475883                0.01000001               -0.07515989               -0.02819361                0.11288169                0.15972705               -0.00230829               -0.01042322
               1.98300958                5.98388546               62.07517319                0.01145059               -0.03019801               -0.26881652                0.12707821                0.50832178                0.04492123               -0.03334910
               2.98360201                5.98084071               62.07665422                0.01000001                0.02376514               -0.47258629                0.13839740                0.99697422                0.18493163               -0.04638204
               3.98348488                5.98348945               62.07987992                0.01000001               -0.03937034               -0.21888229                0.14467915                1.43762523                0.34219710                0.11689543
               4.98281460                5.98848398               62.08454499                0.01196970               -0.11950063               -0.13154596                0.14996332                1.58125847                0.35530664                0.20960564
               5.98109487                5.99343306               62.08805697                0.01026099               -0.17699601               -0.09788449                0.15395383                1.56934164                0.32335634                0.33494802
               6.97927468                5.99719992               62.09217668                0.01000000               -0.16682135                0.03772653                0.15741189                1.59854954                0.41107985                0.63857529
               7.97775844                5.99974795               62.09755376                0.01000000               -0.16348788                0.23274144                0.16449410                1.49299121                0.45967912                0.99918678
               8.97600492                5.99770743               62.10269870                0.01266084               -0.16668442                0.27371496                0.18578422                0.89305362                0.29844158                0.93342520
               9.97442475                5.98765098               62.10485179                0.01000000               -0.15801711                0.24064126                0.19539868                0.39830949                0.14852191                0.77016836
              -0.00689997                6.99763456               62.07520627                0.99999999               -0.03327819               -0.03094987                0.10095432                0.00204878               -0.00475644                0.02373703
               0.99276725                6.98904618               62.07537947                0.47333535               -0.03587283               -0.03560037                0.12128885                0.00221049               -0.02134977               -0.01298143
               1.99238258                6.98051215               62.07521726                0.01618480                0.00021893               -0.19046649                0.13944150                0.23637128                0.03004030               -0.05900304
               2.99277163                6.97582836               62.07641813                0.01000000                0.04453658               -0.44402906                0.15349791                0.87315995                0.29474711               -0.14250699
               3.99327331                6.98087900               62.08153317                0.01207646               -0.00883993               -0.32262169                0.15535245                1.40732927                0.46395895               -0.01320849
               4.99259483                6.98632074               62.08607309                0.01029043               -0.08550532               -0.22358899                0.16025345                1.41960945                0.49182095                0.10016880
               5.99156320                6.99218633               62.09174268                0.01000000               -0.06234308               -0.09641232                0.16589763                1.49638064                0.64545603                0.41016607
               6.99134797                6.99790197               62.09939546                0.01000000                0.01144248                0.08759457                0.17491427                1.55409134                0.81751469                0.80673251
               7.99179205                7.00245511               62.10847046                0.01265192               -0.06163134                0.13683335                0.19878056                1.22227238                0.55114856                0.82865354
               8.99011534                7.00045813               62.11060598                0.01000002               -0.25074922                0.31269342                0.19136910                0.68126921                0.09673046                1.07682780
               9.98677707                6.99084956               62.11067148                0.13312296               -0.33382760                0.75767646                0.18495693                0.34939305               -0.01441528                0.91557016
               0.00173051                7.99731512               62.07602900                0.99148736               -0.03579204               -0.03309452                0.10936228                0.00168156               -0.00500124                0.02822148
               1.00137259                7.98867528               62.07601509                0.95120406               -0.03878409               -0.03849383                0.12966417                0.00116412               -0.01061102               -0.00637804
               2.00095483                7.98007614               62.07589157                0.03974216               -0.03371172               -0.04511719                0.14948810                0.02425525               -0.01006371               -0.02505101
               3.00069835                7.97196013               62.07589110                0.01428509                0.00921260               -0.24277313                0.17115830                0.66313776                0.26058410               -0.12143342
               4.00113908                7.97703701               62.08118550                0.01117110               -0.03994481               -0.28508354                0.16825917                1.18184918                0.58752031               -0.08527132
               4.99989946                7.98401220               62.08752964                0.01000000               -0.08489109               -0.16770117                0.16954268                1.22213115                0.77538662                0.14741829
               5.99944126                7.99150482               62.09659989                0.01000000                0.00941374               -0.06025765                0.17808795                1.25980563                1.03471152                0.45564091
               7.00008773                7.99895181               62.10809047                0.01263233                0.01032351                0.00746715                0.20205089                1.08303131                0.85706587                0.53930958
               7.99964773                8.00248462               62.11341159                0.01000002                0.05740613                0.10217934                0.19529260                0.81160459                0.80101496                0.79882649
               9.00123586                8.00396129               62.12381249                0.13051918                0.04910090                0.14492661                0.20018510                0.63050521                0.53076758                0.67965133
              10.00062975                8.00280451               62.12358680                0.62267401               -0.06061102                0.56766503                0.20284734                0.63511056                0.00042731                0.65743475
               0.01041333                8.99697267               62.07691337                0.99663865               -0.03838188               -0.03534130                0.11744537                0.00163895                0.00069435                0.02566554
               1.01002952                8.98827630               62.07677182                0.99999999               -0.04152488               -0.04138278                0.13847210                0.00044302                0.00001794                0.00029321
               2.00958284                8.97960980               62.07662360                0.81825464               -0.04780050               -0.04799900                0.15987993                0.00060507               -0.00747369               -0.01533853
               3.00907351                8.97097289               62.07633437                0.01000000               -0.23623081               -0.07763197                0.18357410                0.63008895                0.26935757               -0.03823634
               4.00485822                8.97517733               62.08171954                0.01000000               -0.32519275               -0.00206533                0.18098250                0.83916291                0.69655845                0.03120728
               5.00256965                8.98296672               62.09021517                0.01000000               -0.15192611               -0.05413687                0.17769057                0.78195843                0.98383830                0.16067683
               6.00181970                8.99098118               62.10127669                0.01263776               -0.02704281               -0.05125563                0.19707365                0.66855086                0.99218287                0.30106729
               7.00202879                8.99805131               62.10980554                0.01000002                0.05974807               -0.13166297                0.19627075                0.58861574                1.14320039                0.08112898
               8.00301466                9.00449870               62.12382217                0.13851363                0.01883813                0.07072640                0.19956297                0.49144139                0.71666496                0.53942669
               9.00240556                9.00335666               62.12362101                0.98577223               -0.06109039               -0.06087141                0.20316523                0.00175626                0.00212005                0.00668108
              10.00179285                9.00220286               62.12332580                0.99834961               -0.06127051               -0.06109807                0.20548818                0.00046655               -0.00222427               -0.00169964
               0.01915602                9.99660829               62.07768571                0.99881563               -0.04117056               -0.03643764                0.12625126               -0.00179808                0.01929929                0.01980202
               1.01874431                9.98784763               62.07754351                0.99525887               -0.04428401               -0.04286761                0.14747704               -0.00312708                0.02322272                0.00106821
               2.01827034                9.97911616               62.07748905                0.93702806               -0.05058528               -0.04936491                0.16893456               -0.00325683                0.02683034               -0.00824645
               3.01773261                9.97040749               62.07741905                0.20690042               -0.61709134               -0.05654063                0.18990650                0.75988779                0.34800469               -0.00509305
               4.00592851                9.97699571               62.08377686                0.08273899               -0.89989153                0.18183769                0.19145533                0.73312774                0.73491546                0.11487455
               4.99973478                9.98292946               62.09204975                0.02381739               -0.41004133               -0.00372597                0.19126860                0.39071246                0.95307660                0.11867198
               5.99772768                9.99047970               62.10303664                0.08651438               -0.06961219               -0.05014762                0.20498863                0.26025332                0.85527587                0.15553354
               6.99834253                9.99631855               62.10941706                0.10646905                0.32217602               -0.17327563                0.19161544                0.30234595                1.01641577               -0.03172885
               8.00417120               10.00389915               62.12349267                0.62266226                0.26121409               -0.05995496                0.20133363                0.43692023                0.72850020                0.00335996
               9.00356681               10.00274387               62.12334770                0.99834955               -0.06122667               -0.06127927                0.20550278                0.00029578                0.01046180                0.00299095
              10.00294667               10.00158255               62.12305259                0.99214032               -0.06201430               -0.06203157                0.20783586               -0.00075005                0.00277262               -0.00261832
              -0.05887076               -0.00246971               63.06255099                1.00000000               -0.02901205               -0.02950943                0.09517143                0.00198244               -0.00612541                0.00649290
               0.94083912               -0.00663297               63.06470054                0.73473333               -0.02959312               -0.03116544                0.09910463                0.00056722               -0.00759536               -0.00331000
               1.94053738               -0.01076881               63.06681626                0.24074059               -0.03115515               -0.03194209                0.10365181               -0.00090280               -0.00468118               -0.00290133
               2.94021602               -0.01490032               63.06901687                0.09273748                0.04070490               -0.02712927                0.10939133                0.06097658               -0.01413155               -0.00353534
               3.94135147               -0.01751049               63.07086515                0.13784529                0.07934018               -0.00525936                0.11110478               -0.13649788               -0.01897844               -0.00659259
               4.94180282               -0.01549822               63.07268764                0.29637705                0.01147327               -0.03091300                0.11129266               -0.05765240               -0.00928912               -0.00227572
               5.94158094               -0.01207557               63.07476490                0.76757730               -0.02825443               -0.03395165                0.11490787               -0.00714897                0.00580037               -0.00242805
               6.94123773               -0.00848555               63.07689781                0.99999999               -0.03527244               -0.03548232                0.11956847                0.00035122                0.00959606               -0.00198059
               7.94087549               -0.00488849               63.07905099                0.99210658               -0.03702330               -0.03689964                0.12428931                0.00067798                0.01192643               -0.00220114
               8.94049726               -0.00129385               63.08123004                0.99620309               -0.03861108               -0.03829554                0.12905728                0.00076322                0.01090670                0.00079088
               9.94010327                0.00229398               63.08336200                0.99842970               -0.03939948               -0.03976693                0.13380670                0.00122087                0.00861017                0.00879287
              -0.05468767                0.99723520               63.06322839                0.73312173               -0.03179877               -0.03016314                0.10348887                0.00191994                0.00336843                0.00927448
               0.94499434                0.99305537               63.06537577                0.01117549               -0.03251540               -0.03303820                0.10738396                0.00110632                0.00647867               -0.00587694
               1.94466202                0.98891177               63.06758647                0.01000000               -0.03988599               -0.03017399                0.11047049                0.01317455                0.01014568                0.02664495
               2.94419662                0.98482839               63.06981287                0.01000000               -0.21882861                0.03794275                0.11326313                0.07028600               -0.03799344                0.02926536
               3.94028545                0.98243692               63.07115408                0.01000000               -0.28438909                0.11504763                0.11234935                0.20012923               -0.06148816                0.07535511
               4.93850884                0.98419265               63.07284165                0.01000000               -0.11411666                0.03108901                0.10968405                0.29470520               -0.02905335                0.08170238
               5.93800311                0.98758491               63.07482771                0.01000001               -0.04305678                0.00356334                0.11249963                0.19984986               -0.01062674                0.05563008
               6.93764770                0.99115963               63.07688431                0.49815226               -0.03583472               -0.03512822                0.11699974               -0.00109517               -0.00636777               -0.00921228
               7.93728642                0.99474251               63.07895492                0.98760413               -0.03670223               -0.03643084                0.12156130               -0.00019603               -0.00275651               -0.00422761
               8.93691366                0.99832320               63.08108334                1.00000000               -0.03793855               -0.03787275                0.12627871                0.00004258                0.00024764                0.00021300
               9.93652765                1.00189631               63.08321415                0.99403328               -0.03860091               -0.03934211                0.13104037                0.00046543                0.00034115                0.01090387
              -0.05047271                1.99692703               63.06395819                0.23656986               -0.03426166               -0.01862138                0.11148159                0.02233767                0.00298056                0.03076461
               0.94918467                1.99270626               63.06599938                0.01000000               -0.02497195               -0.05124419                0.11661408                0.02733062                0.04808251                0.00580087
               1.94902785                1.98862771               63.06894604                0.01000001               -0.05440422               -0.06412582                0.11292871                0.18649498                0.06460157                0.09107611
               2.94809659                1.98585854               63.07125846                0.01000000               -0.15190240                0.05842458                0.11554295                0.33011573                0.00935627                0.09524846
               3.94598980                1.98479047               63.07308880                0.01000000               -0.27738268                0.18749279                0.11687468                0.59589960               -0.03045705                0.15854279
               4.94254893                1.98512356               63.07467289                0.01000001               -0.36894208                0.11648561                0.11704117                0.74036430               -0.05286012                0.17802614
               5.93861096                1.98799569               63.07605123                0.01145838               -0.42453526                0.15150870                0.11670177                0.55070262               -0.10416594                0.14319222
               6.93405823                1.99081189               63.07672568                0.01617475               -0.24514789                0.07793201                0.11393994                0.23470050               -0.08226738                0.06798622
               7.93370800                1.99438289               63.07881776                0.04635617               -0.03569576               -0.02152065                0.11872227                0.02065556               -0.01072429               -0.00754824
               8.93334431                1.99794870               63.08092455                1.00000000               -0.03708265               -0.03700222                0.12347224               -0.00001678               -0.00624483               -0.00378496
               9.93296635                2.00150714               63.08310816                0.88385969               -0.03779645               -0.03853059                0.12832531                0.00047631               -0.00251747                0.01084380
              -0.04579939                2.99686277               63.06506014                0.08578668               -0.03603444                0.08665215                0.12208163                0.26971963                0.00292986                0.33309973
               0.95384027                2.99203049               63.06691733                0.01000000                0.05195148               -0.19741473                0.12766319                0.30343022                0.11332499                0.27307280
               1.95523964                2.98762925               63.07098206                0.01000000                0.03979559               -0.10733348                0.11545891                0.44167950                0.13965704                0.13644289
               2.95463618                2.98599688               63.07315259                0.01000000               -0.11506122               -0.00231433                0.11928559                0.67532869                0.04350164                0.13297111
               3.95293842                2.98618678               63.07528342                0.01198798               -0.22626418                0.05350538                0.12213506                0.78337308                0.01932743                0.15120650
               4.95011090                2.98652236               63.07697767                0.01000000               -0.48047893                0.14217965                0.12492242                1.01378441               -0.04187390                0.19115094
               5.94332884                2.99061508               63.07795850                0.01000001               -0.70781900                0.24039746                0.12173527                1.11813085               -0.12883905                0.26484545
               6.93595452                2.99271827               63.07825636                0.01000000               -0.63830599                0.27245656                0.11778898                0.99869223               -0.17574178                0.35262978
               7.93056272                2.99431210               63.07865631                0.01438892               -0.30827229                0.14329826                0.11495185                0.80134435               -0.10125073                0.27790871
               8.92978907                2.99758315               63.08069909                0.01000001               -0.05712142               -0.18433304                0.12055938                0.77032667               -0.01357174                0.25009283
               9.92942029                3.00112570               63.08296061                0.12208358               -0.03687798               -0.57767539                0.12556758                0.87443320               -0.00285275                0.30356371
              -0.03541376                3.99866007               63.07174158                0.12626604               -0.00994520                0.04424435                0.07108631                0.05167069               -0.01143795                0.41185189
               0.96448679                3.98875797               63.07301064                0.01000000               -0.03455989               -0.16290839                0.09023220                0.43779240               -0.05771066                0.31593159
               1.96389504                3.98648104               63.07330308                0.01000000               -0.07205753               -0.13000262                0.11760604                0.72853839               -0.01925799                0.13433417
               2.96304564                3.98581225               63.07534356                0.01198780               -0.13816307               -0.07274505                0.12353442                0.80853090                0.05529304                0.11486863
               3.96113178                3.98586057               63.07715638                0.01000000               -0.23246632               -0.07812654                0.12858340                1.01828431                0.05247541                0.13756078
               4.95839631                3.98796715               63.07924730                0.01000001               -0.31770566                0.10258302                0.13146935                1.33542865                0.07040955                0.23791118
               5.95477767                3.99280364               63.08155713                0.01000001               -0.40306265                0.17282760                0.13103234                1.63853965                0.06488704                0.40533070
               6.95033506                3.99626102               63.08371180                0.01209549               -0.49538332                0.22847930                0.12852896                1.64946562               -0.04214982                0.51208970
               7.94487000                3.99724885               63.08415803                0.01124653               -0.41989092                0.18545663                0.12169935                1.42886864               -0.09725201                0.60721111
               8.94193724                3.99426204               63.08562080                0.01000000               -0.07500434               -0.12558327                0.12451380                1.08537356                0.02796495                0.66450990
               9.94336992                3.98995363               63.08871236                0.07961513                0.14326750               -0.76467701                0.13021367                0.96373573                0.11354517                0.67800939
              -0.02496177                4.99774766               63.07429791                0.28333935               -0.02630882               -0.06703839                0.08224707                0.07311416               -0.00543218                0.11715196
               0.97477515                4.98877232               63.07510666                0.01000000               -0.11410539               -0.00889480                0.10320590                0.32447250               -0.03077395                0.05503526
               1.97275613                4.98502920               63.07539567                0.01000001               -0.16739392               -0.17414999                0.11913020                0.71458477               -0.01018649                0.06741611
               2.97142727                4.98454198               63.07690778                0.01000000               -0.08034612               -0.29379498                0.12928833                0.97825225                0.08199912                0.05807682
               3.97114920                4.98462424               63.07919783                0.01000001               -0.07754331               -0.15418138                0.13664195                1.28975579                0.17120852                0.14317882
               4.96987640                4.98857402               63.08248809                0.01000001               -0.16717179                0.00488053                0.14010542                1.66397980                0.24358020                0.30044677
               5.96780577                4.99407164               63.08625446                0.01198529               -0.26888915                0.02564830                0.14262294                1.72022393                0.17487300                0.39420808
               6.96449862                4.99728785               63.08826403                0.01032706               -0.33333473                0.05283791                0.14126244                1.61051034                0.07937028                0.51660215
               7.96113907                4.99802123               63.09034670                0.01000000               -0.28534269                0.13757841                0.13850561                1.49853610                0.13844424                0.77735667
               8.95879176                4.99507149               63.09378764                0.01000000               -0.19136284                0.18444394                0.14200557                1.05932046                0.15873734                0.96431549
               9.95731182                4.98583216               63.09642681                0.03735690               -0.14799478               -0.12390418                0.15788204                0.59438290                0.11856366                0.89448018
              -0.01600080                5.99731930               63.07532903                0.73761945               -0.03045023               -0.03652693                0.09196135                0.01293134               -0.00603833                0.02990008
               0.98369469                5.98858007               63.07588351                0.01000001               -0.07910590               -0.02650899                0.11193312                0.16735830               -0.00534207               -0.01127849
               1.98241708                5.98299804               63.07644822                0.01145615               -0.03395262               -0.27557860                0.12734363                0.53303886                0.03967963               -0.03231627
               2.98301564                5.97993635               63.07804653                0.01000001                0.02388897               -0.48951051                0.13913442                1.04103787                0.17731290               -0.04158829
               3.98289486                5.98277695               63.08133196                0.01000001               -0.03935619               -0.22883562                0.14546566                1.49967209                0.33397166                0.11975036
               4.98222852                5.98806476               63.08604603                0.01198908               -0.12132707               -0.13889054                0.15034748                1.65080992                0.34894064                0.21444548
               5.98046832                5.99331661               63.08959685                0.01029734               -0.18164220               -0.10373811                0.15419665                1.63812868                0.31711914                0.34459103
               6.97859567                5.99731778               63.09374995                0.01000000               -0.17056122                0.03614949                0.15729577                1.66561724                0.40666277                0.65591619
               7.97705709                6.00000042               63.09919519                0.01000000               -0.16414775                0.24012278                0.16394449                1.55857248                0.46614058                1.03357026
               8.97531272                5.99795092               63.10457194                0.01281810               -0.16604317                0.28085108                0.18851026                0.93254462                0.30956565                0.96766161
               9.97373623                5.98747555               63.10683443                0.01000000               -0.15764901                0.24128704                0.19975185                0.41459876                0.15461653                0.79372296
              -0.00722468                6.99701712               63.07621450                0.99999999               -0.03317512               -0.03113637                0.10106493                0.00205082               -0.00477939                0.02345048
               0.99244357                6.98824214               63.07659033                0.46591174               -0.03573508               -0.03546976                0.12073774                0.00185160               -0.02225553               -0.01363445
               1.99206062                6.97951763               63.07661515                0.01617809                0.00127742               -0.19579476                0.13919664                0.24536818                0.02670983               -0.05704479
               2.99246912                6.97475177               63.07796412                0.01000000                0.04768061               -0.45864960                0.15367991                0.90388960                0.28418034               -0.13450111
               3.99301423                6.98004753               63.08308619                0.01209305               -0.00580921               -0.33699486                0.15481829                1.46354074                0.45288767               -0.01221546
               4.99235294                6.98579621               63.08767484                0.01032684               -0.08494529               -0.23495683                0.15990926                1.48077068                0.48593103                0.10165614
               5.99131533                6.99199687               63.09340124                0.01000000               -0.06128938               -0.10265290                0.16590232                1.56119024                0.64385339                0.41764958
               6.99112715                6.99801084               63.10114204                0.01000000                0.01810270                0.09082587                0.17452259                1.62335207                0.82687693                0.82809061
               7.99167738                7.00282368               63.11046069                0.01279389               -0.05798096                0.13996071                0.19942826                1.27007119                0.55533481                0.84554038
               8.98996753                7.00068851               63.11253077                0.01003478               -0.25614277                0.31441590                0.19572918                0.69824519                0.08852985                1.08931234
               9.98655453                6.99065790               63.11254185                0.13526144               -0.34130030                0.77821508                0.19420111                0.35251457               -0.02179756                0.92842610
               0.00159017                7.99669658               63.07712424                0.99152535               -0.03589530               -0.03324670                0.10992160                0.00144551               -0.00509310                0.02743962
               1.00123121                7.98787068               63.07731198                0.95091967               -0.03876776               -0.03855362                0.12950818                0.00060831               -0.01087303               -0.00667004
               2.00081481                7.97908215               63.07738578                0.04043296               -0.03338409               -0.04494340                0.14876722                0.02284172               -0.01054257               -0.02365255
               3.00056353                7.97076336               63.07757579                0.01438921                0.01532107               -0.24791177                0.16705852                0.68033071                0.25070939               -0.11320152
               4.00112123                7.97603705               63.08285623                0.01124853               -0.03344706               -0.29536992                0.16515840                1.21948044                0.57102094               -0.08716164
               4.99989459                7.98336563               63.08922112                0.01000000               -0.08218719               -0.17740364                0.16796637                1.27360725                0.77152272                0.14224028
               5.99947749                7.99126355               63.09837476                0.01000000                0.01706570               -0.06287779                0.17712229                1.31922254                1.04519780                0.46415951
               7.00023590                7.99913429               63.11010868                0.01277775                0.01516808                0.00894707                0.20183521                1.12906255                0.86150538                0.54801219
               7.99978085                8.00279964               63.11535859                0.01000002                0.06037506                0.10093911                0.19446811                0.83444093                0.79461193                0.79789576
               9.00144341                8.00423923               63.12579356                0.13043460                0.05334427                0.14776697                0.19589606                0.64679263                0.53072161                0.68122527
              10.00084774                8.00303985               63.12560353                0.62485620               -0.05956697                0.58917251                0.20055199                0.65505007                0.00050732                0.66338294
               0.01045603                8.99635218               63.07809360                0.99623637               -0.03858653               -0.03560875                0.11859342                0.00142849                0.00070529                0.02479738
               1.01007017                8.98747107               63.07815709                0.99999999               -0.04156303               -0.04140754                0.13844511                0.00012991                0.00030598                0.00032056
               2.00962477                8.97861876               63.07821600                0.83014333               -0.04746670               -0.04762786                0.15844506                0.00011704               -0.00614104               -0.01403215
               3.00912083                8.96979354               63.07814670                0.01000725               -0.24115977               -0.07608462                0.17937247                0.64605081                0.25976642               -0.03532856
               4.00480158                8.97414013               63.08351163                0.01000000               -0.32611267               -0.00056458                0.17461162                0.86061533                0.69095046                0.02164366
               5.00259858                8.98224814               63.09196961                0.01000000               -0.14352321               -0.05750159                0.17270926                0.81608494                0.99112804                0.15377123
               6.00193111                8.99073932               63.10324349                0.01278351               -0.02131328               -0.05099119                0.19662301                0.70163381                0.99937543                0.30741855
               7.00217232                8.99818979               63.11176426                0.01000002                0.06650738               -0.13798313                0.19572828                0.60591284                1.13930524                0.07328307
               8.00326126                9.00484247               63.12579521                0.13696569                0.02454271                0.07263640                0.19505765                0.50765441                0.71623494                0.53913634
               9.00266317                9.00364385               63.12564135                0.98618264               -0.06034817               -0.06017759                0.20089156                0.00178777                0.00274697                0.00698722
              10.00205430                9.00244135               63.12538071                0.99872130               -0.06088720               -0.06109794                0.20548171                0.00023640               -0.00221347               -0.00141538
               0.01938097                9.99598440               63.07895555                0.99844038               -0.04137336               -0.03677822                0.12762008               -0.00169426                0.01868390                0.01907532
               1.01896723                9.98704253               63.07901859                0.99488690               -0.04431410               -0.04285425                0.14747683               -0.00303411                0.02296620                0.00116637
               2.01849468                9.97812959               63.07917116                0.94275075               -0.05020283               -0.04891722                0.16750528               -0.00305176                0.02658964               -0.00732820
               3.01796318                9.96924167               63.07930307                0.21814988               -0.63078739               -0.05518677                0.18701786                0.77904254                0.33811762               -0.00490850
               4.00587894                9.97602576               63.08567388                0.01000000               -0.91730354                0.18856233                0.17341530                0.75643222                0.75014028                0.09961954
               4.99961711                9.98221559               63.09393464                0.02399053               -0.41552091               -0.00325437                0.18763239                0.41275092                0.96186919                0.11809234
               5.99756852                9.99024373               63.10508985                0.08663272               -0.06830465               -0.04955911                0.20556591                0.27169227                0.85086268                0.15726857
               6.99825101                9.99637463               63.11133173                0.10749331                0.34556787               -0.18151547                0.19166644                0.30830159                1.00779585               -0.03985045
               8.00447988               10.00425236               63.12549707                0.62242091                0.28146318               -0.05901024                0.19921488                0.45491404                0.73200738                0.00340937
               9.00388028               10.00303568               63.12540057                0.99872982               -0.06112088               -0.06081663                0.20507415               -0.00001299                0.01119110                0.00300954
              10.00325746               10.00181789               63.12513999                0.99233195               -0.06228180               -0.06234604                0.20966190               -0.00146307                0.00273268               -0.00262368
              -0.06109703               -0.00312765               64.06349961                1.00000000               -0.02877625               -0.02933326                0.09452609                0.00211169               -0.00525452                0.00567942
               0.93861521               -0.00738040               64.06568901                0.73493630               -0.02927498               -0.03115076                0.09856902                0.00067967               -0.00637166               -0.00283367
               1.93831747               -0.01160022               64.06785103                0.24526427               -0.02875261               -0.03185864                0.10328792                0.00207584               -0.00241457               -0.00251264
               2.93804015               -0.01574949               64.07011052                0.09957738                0.04967309               -0.02678701                0.10933084                0.08270857               -0.01212902               -0.00323385
               3.93931093               -0.01787625               64.07197865                0.14198577                0.08494378               -0.00563431                0.11163398               -0.11437970               -0.02107057               -0.00749132
               4.93973903               -0.01566696               64.07380070                0.29748714                0.00999944               -0.03079017                0.11137591               -0.05199765               -0.01171153               -0.00227398
               5.93951092               -0.01215074               64.07591311                0.76573012               -0.02857668               -0.03393320                0.11475740               -0.00653610                0.00528643               -0.00244526
               6.93916750               -0.00847910               64.07809252                0.99999999               -0.03527464               -0.03545868                0.11938824                0.00039524                0.00963364               -0.00200028
               7.93880543               -0.00480109               64.08029288                0.99222184               -0.03699417               -0.03687454                0.12409040                0.00069732                0.01200405               -0.00227008
               8.93842761               -0.00112533               64.08251954                0.99580755               -0.03855968               -0.03827271                0.12883890                0.00077290                0.01100239                0.00078646
               9.93803423                0.00254428               64.08469905                0.99803058               -0.03933795               -0.03975049                0.13359479                0.00117802                0.00870920                0.00892064
              -0.05682316                0.99657902               64.06426312                0.73286410               -0.03185473               -0.02992633                0.10343274                0.00217001                0.00287454                0.00832039
               0.94285829                0.99230809               64.06644993                0.01111396               -0.03270316               -0.03327353                0.10743024                0.00154621                0.00555669               -0.00490326
               1.94252277                0.98808119               64.06869154                0.01000000               -0.04265189               -0.02993513                0.11053417                0.01767171                0.00852897                0.02211446
               2.94200525                0.98398264               64.07094511                0.01000000               -0.21984522                0.04368072                0.11317605                0.10134697               -0.04250200                0.02936057
               3.93812587                0.98206741               64.07228310                0.01000000               -0.28244764                0.10885666                0.11342391                0.23376384               -0.06925103                0.07577371
               4.93635630                0.98402514               64.07394052                0.01000000               -0.11371202                0.02517955                0.11012150                0.31057312               -0.03432890                0.08624556
               5.93585163                0.98750993               64.07595299                0.01000001               -0.04298387                0.00099066                0.11256379                0.20736783               -0.01184056                0.05898770
               6.93549662                0.99116631               64.07805454                0.49352974               -0.03580573               -0.03512254                0.11705536               -0.00096375               -0.00660030               -0.00949786
               7.93513551                0.99483017               64.08017080                0.98751933               -0.03669809               -0.03644854                0.12162608               -0.00014767               -0.00288070               -0.00435808
               8.93476266                0.99849194               64.08234649                1.00000000               -0.03795561               -0.03789445                0.12635493                0.00005585                0.00022101                0.00019624
               9.93437640                1.00214677               64.08452505                0.99360821               -0.03862578               -0.03937266                0.13113475                0.00042299                0.00034011                0.01106015
              -0.05251178                1.99627383               64.06507562                0.24061352               -0.03442638               -0.01600452                0.11199400                0.02627825                0.00255667                0.03106493
               0.94714396                1.99195413               64.06716919                0.01000000               -0.02459317               -0.05473953                0.11733249                0.03255767                0.04040326                0.00812765
               1.94699636                1.98780108               64.07002273                0.01000001               -0.05315417               -0.06465134                0.11146618                0.20609098                0.05793794                0.08771606
               2.94608088                1.98512412               64.07242426                0.01000000               -0.15263242                0.06402975                0.11613648                0.36836401                0.00666131                0.09468275
               3.94394371                1.98430089               64.07426104                0.01000000               -0.27864507                0.17919669                0.11776120                0.63812978               -0.03676597                0.16127352
               4.94050797                1.98483663               64.07584804                0.01000001               -0.37133041                0.10583303                0.11800682                0.77634026               -0.05918674                0.18579327
               5.93651710                1.98786907               64.07722123                0.01145371               -0.43399960                0.15011427                0.11746732                0.57503513               -0.11106066                0.14944635
               6.93182798                1.99081845               64.07786617                0.01617094               -0.25201297                0.07971204                0.11418976                0.24628458               -0.08618716                0.07096703
               7.93147684                1.99446994               64.08000650                0.04442690               -0.03579277               -0.01951491                0.11905263                0.02372909               -0.01080919               -0.00817568
               8.93111213                1.99811678               64.08216117                1.00000000               -0.03719080               -0.03711234                0.12385615                0.00000870               -0.00632225               -0.00386502
               9.93073303                2.00175682               64.08439343                0.88662463               -0.03790994               -0.03865354                0.12872579                0.00043318               -0.00255750                0.01100203
              -0.04765821                2.99625893               64.06628717                0.09171977               -0.03596000                0.09174529                0.12332008                0.27618914                0.00231148                0.30411397
               0.95198219                2.99121330               64.06820112                0.01000000                0.05664041               -0.20823366                0.12904837                0.32069082                0.10408363                0.25071594
               1.95347460                2.98678817               64.07214778                0.01000000                0.04452639               -0.11064140                0.11625363                0.47569237                0.12612438                0.13566724
               2.95287272                2.98526323               64.07434704                0.01000000               -0.11493210               -0.00328925                0.12003021                0.71963131                0.03738581                0.13266687
               3.95117596                2.98565134               64.07651035                0.01198420               -0.22789021                0.04801140                0.12332309                0.82925923                0.01389482                0.15444947
               4.94831492                2.98614180               64.07823224                0.01000000               -0.49027225                0.13724202                0.12612801                1.06019663               -0.04973702                0.19724544
               5.94137051                2.99051221               64.07918064                0.01000001               -0.72467361                0.24184636                0.12293233                1.16239767               -0.13867917                0.27232964
               6.93382144                2.99276055               64.07943774                0.01000000               -0.65293754                0.27835411                0.11884528                1.03292162               -0.18424402                0.36131174
               7.92831176                2.99443987               64.07980940                0.01450414               -0.31727457                0.15108265                0.11581496                0.81907292               -0.10280059                0.28241599
               8.92747595                2.99774969               64.08190827                0.01036898               -0.06033959               -0.18308460                0.12127469                0.78258244               -0.01330819                0.25172219
               9.92710497                3.00137370               64.08421975                0.12801513               -0.03709814               -0.58001639                0.12626764                0.88993245               -0.00289821                0.30268908
              -0.03689674                3.99810873               64.07245727                0.12894057               -0.00747194                0.04123195                0.07271828                0.05437286               -0.01191215                0.38105804
               0.96302854                3.98778946               64.07390876                0.01000000               -0.03214912               -0.16877105                0.08983205                0.46540692               -0.05361953                0.29637943
               1.96246028                3.98558825               64.07447913                0.01000000               -0.07091086               -0.13482515                0.11782207                0.77294911               -0.01671943                0.12960054
               2.96161032                3.98505834               64.07658356                0.01198783               -0.14049719               -0.07622922                0.12449301                0.85370454                0.04902570                0.11504836
               3.95965033                3.98526112               64.07844767                0.01000000               -0.23796431               -0.08533484                0.12977865                1.06775499                0.04580925                0.14122659
               4.95685104                3.98758147               64.08056747                0.01000001               -0.32520154                0.10100352                0.13279005                1.39291146                0.06176856                0.24341335
               5.95314630                3.99270600               64.08287071                0.01000001               -0.41461389                0.17381256                0.13213622                1.70236878                0.05332360                0.41489282
               6.94855876                3.99638553               64.08499350                0.01211712               -0.51385716                0.23403888                0.12863363                1.70755890               -0.05929365                0.52499564
               7.94286916                3.99749160               64.08535803                0.01133046               -0.43644070                0.19351934                0.11951492                1.47214043               -0.11726723                0.62069269
               8.93982994                3.99445509               64.08683785                0.01000000               -0.07927504               -0.12153467                0.11758804                1.12204378               -0.00054750                0.69874973
               9.94128366                3.99015650               64.08992524                0.08009629                0.14537135               -0.77847174                0.10826426                1.00443748                0.07489061                0.73223118
              -0.02593220                4.99708357               64.07511887                0.28333564               -0.02569840               -0.07466037                0.08227336                0.08442068               -0.00565015                0.11886656
               0.97381082                4.98783788               64.07613124                0.01000000               -0.12015480               -0.00557039                0.10175839                0.34797473               -0.03289814                0.05611794
               1.97166470                4.98409166               64.07658656                0.01000001               -0.17684355               -0.17842932                0.11899769                0.75403211               -0.01371826                0.06443994
               2.97027395                4.98373865               64.07820488                0.01000000               -0.08283877               -0.30528680                0.13005367                1.02535959                0.07676128                0.05935764
               3.97000793                4.98394465               64.08056956                0.01000001               -0.07728429               -0.16325102                0.13775439                1.34688521                0.16404591                0.14672147
               4.96872826                4.98816187               64.08389395                0.01000001               -0.16970486                0.00023333                0.14138884                1.73606544                0.23526839                0.30624231
               5.96661383                4.99398847               64.08768313                0.01200450               -0.27706156                0.02360509                0.14363669                1.79332458                0.16418582                0.40458356
               6.96318703                4.99744133               64.08967371                0.01036542               -0.34644087                0.05273574                0.14151201                1.67863155                0.06416053                0.53227860
               7.95968501                4.99831026               64.09172163                0.01000000               -0.29675495                0.14068862                0.13718788                1.56338850                0.12026790                0.80663854
               8.95725193                4.99531900               64.09517933                0.01000000               -0.19470574                0.19312175                0.13789189                1.11105266                0.14892652                1.01591728
               9.95579090                4.98580427               64.09799148                0.03790919               -0.14610298               -0.13730475                0.15639200                0.63394895                0.12211309                0.95147815
              -0.01671695                5.99661552               64.07624939                0.73282622               -0.03031055               -0.03876035                0.09231145                0.01550190               -0.00609386                0.03047204
               0.98297994                5.98767805               64.07699749                0.01000001               -0.08214470               -0.02464289                0.11084555                0.17574056               -0.00725064               -0.01181106
               1.98164015                5.98201966               64.07772006                0.01145694               -0.03577059               -0.28289835                0.12686752                0.55764131                0.03549960               -0.03163816
               2.98226453                5.97895260               64.07943691                0.01000001                0.02623337               -0.50647838                0.13926269                1.08433385                0.17046461               -0.03770138
               3.98216482                5.98199609               64.08278923                0.01000001               -0.03680009               -0.24171140                0.14599040                1.56229706                0.32615610                0.12135195
               4.98152853                5.98758614               64.08755194                0.01200083               -0.12157436               -0.14915460                0.15137509                1.72260796                0.34216390                0.21829814
               5.97973333                5.99317810               64.09114091                0.01033373               -0.18594646               -0.11135289                0.15520919                1.71066761                0.30977935                0.35379683
               6.97780960                5.99744024               64.09532260                0.01000000               -0.17370378                0.03318596                0.15777340                1.73831476                0.40023831                0.67298192
               7.97625926                6.00030537               64.10083265                0.01000000               -0.16263046                0.24461253                0.16420719                1.63511367                0.47175722                1.06987549
               8.97455699                5.99831752               64.10646890                0.01298195               -0.16335777                0.28518800                0.19113844                0.98289398                0.32095549                1.00819437
               9.97299210                5.98741040               64.10884682                0.01000000               -0.15648869                0.24223589                0.20307457                0.43569143                0.16015366                0.82452882
              -0.00774721                6.99630836               64.07722757                0.99999999               -0.03312977               -0.03153571                0.10167125                0.00217219               -0.00473055                0.02336449
               0.99192149                6.98734502               64.07779422                0.45812677               -0.03549048               -0.03514642                0.11999977                0.00194920               -0.02267922               -0.01401326
               1.99154298                6.97843370               64.07800119                0.01617686                0.00313493               -0.20087145                0.13763573                0.25520381                0.02401637               -0.05557282
               2.99198419                6.97360908               64.07949173                0.01000000                0.05386788               -0.47195417                0.15029959                0.93271428                0.27435311               -0.13081349
               3.99262034                6.97911042               64.08462954                0.01212025                0.00071103               -0.35638771                0.15441794                1.51595193                0.44270130               -0.01390627
               4.99199841                6.98517877               64.08927128                0.01036033               -0.08236297               -0.25119468                0.15993912                1.54669209                0.48042373                0.10081973
               5.99097308                6.99176141               64.09506072                0.01000000               -0.05861758               -0.11161752                0.16648500                1.63252976                0.64175169                0.42405426
               6.99082606                6.99810505               64.10288591                0.01000000                0.02684660                0.09247973                0.17482909                1.69827565                0.83521629                0.84870470
               7.99151001                7.00320251               64.11245903                0.01295645               -0.05106409                0.14013176                0.20086084                1.32567717                0.56123108                0.86150415
               8.98980478                7.00102276               64.11452057                0.01025667               -0.25955217                0.30788541                0.20144946                0.72474188                0.08646483                1.09802082
               9.98631897                6.99064899               64.11455550                0.13736213               -0.34858104                0.79114513                0.20483317                0.36401461               -0.02081731                0.93933113
               0.00125316                7.99598481               64.07822743                0.99154945               -0.03595736               -0.03355298                0.11076955                0.00141480               -0.00505882                0.02699199
               1.00089359                7.98697512               64.07860525                0.95061265               -0.03864965               -0.03844592                0.12908348                0.00045829               -0.01092140               -0.00685716
               2.00048017                7.97800223               64.07886692                0.04068570               -0.03257506               -0.04449560                0.14722907                0.02329115               -0.01121975               -0.02286470
               3.00024209                7.96951352               64.07923227                0.01450889                0.02169969               -0.25350221                0.16812172                0.69275584                0.23942872               -0.11107003
               4.00091416                7.97486834               64.08448867                0.01133141               -0.02153546               -0.31589311                0.16089196                1.26413548                0.55510712               -0.09556556
               4.99981138                7.98256224               64.09088897                0.01000000               -0.07282551               -0.19250777                0.16643135                1.33696798                0.77017204                0.13195123
               5.99945765                7.99094575               64.10014234                0.01000000                0.02613152               -0.06734734                0.17710829                1.38835375                1.05649053                0.47175615
               7.00033401                7.99928984               64.11212718                0.01293653                0.01987163                0.00944363                0.20269062                1.17996837                0.86456536                0.55550516
               7.99985509                8.00310800               64.11730096                0.01000002                0.06356695                0.09702184                0.19473255                0.85688261                0.78369842                0.79265325
               9.00160535                8.00447523               64.12773041                0.13017932                0.05824277                0.14333130                0.19150117                0.65977622                0.52762263                0.67649479
              10.00101994                8.00323330               64.12759784                0.62694547               -0.05854067                0.59945548                0.19837893                0.67335187                0.00051744                0.66030820
               0.01030046                8.99563730               64.07928523                0.99585904               -0.03872287               -0.03594614                0.11971181                0.00140340                0.00074370                0.02430018
               1.00991323                8.98657611               64.07954072                0.99999999               -0.04150289               -0.04135861                0.13822412                0.00004629                0.00043259                0.00030339
               2.00947040                8.97754378               64.07979250                0.84247117               -0.04700179               -0.04714768                0.15680208                0.00002049               -0.00560443               -0.01329220
               3.00897320                8.96853904               64.07992182                0.01074830               -0.23080413               -0.07584734                0.17585808                0.64994623                0.24700465               -0.03329557
               4.00485432                8.97279256               64.08521177                0.01000000               -0.31564208               -0.01023621                0.16479446                0.90875804                0.69453979               -0.01314088
               5.00266036                8.98132862               64.09366935                0.01000000               -0.14208828               -0.06005064                0.16970328                0.86833538                1.00601133                0.14452489
               6.00201256                8.99041446               64.10520915                0.01294029               -0.01985909               -0.05067016                0.19748534                0.74277500                1.00810758                0.31355144
               7.00226317                8.99829392               64.11372010                0.01000002                0.07248561               -0.14516197                0.19606850                0.62428530                1.13127809                0.06431630
               8.00346227                9.00514295               64.12772332                0.13524055                0.03059129                0.07278088                0.19050709                0.52414428                0.71262346                0.53577975
               9.00287500                9.00388939               64.12763884                0.98657303               -0.05962085               -0.05948155                0.19861387                0.00187581                0.00336403                0.00747210
              10.00226985                9.00263809               64.12743544                0.99910328               -0.06051484               -0.06108967                0.20547007               -0.00000156               -0.00220936               -0.00094202
               0.01940362                9.99526589               64.08023811                0.99804312               -0.04155894               -0.03714142                0.12888543               -0.00147770                0.01834547                0.01868309
               1.01898803                9.98614795               64.08049304                0.99449754               -0.04429873               -0.04281568                0.14739854               -0.00285033                0.02272369                0.00119829
               2.01851765                9.97705928               64.08083916                0.94936901               -0.04978979               -0.04845040                0.16606604               -0.00284440                0.02621060               -0.00675388
               3.01799224                9.96799657               64.08115941                0.23032362               -0.61089530               -0.05424657                0.18421357                0.78212097                0.31381818               -0.00494675
               4.00629974                9.97466362               64.08724516                0.01000000               -0.92180277                0.18710586                0.15002499                0.81277503                0.78065506                0.04340402
               4.99955618                9.98136123               64.09580240                0.02408593               -0.44759450                0.00326100                0.18689682                0.45301943                0.98712677                0.12023699
               5.99734785                9.98993235               64.10714796                0.08674784               -0.07324755               -0.04821114                0.20672752                0.28479814                0.84613367                0.15866001
               6.99809123                9.99638660               64.11325039                0.10850942                0.36973264               -0.19073222                0.19245631                0.31436940                0.99597176               -0.04849496
               8.00474251               10.00456362               64.12747697                0.62215948                0.30282417               -0.05793233                0.19661167                0.47297378                0.73276035                0.00345420
               9.00414772               10.00328560               64.12744918                0.99910616               -0.06100067               -0.06037879                0.20465588               -0.00033398                0.01176148                0.00300666
              10.00352249               10.00201151               64.12724583                0.99254072               -0.06252229               -0.06265837                0.21151179               -0.00214455                0.00273809               -0.00261648
              -0.06335465               -0.00388313               65.06444151                1.00000000               -0.02850903               -0.02912735                0.09383167                0.00224664               -0.00431866                0.00480337
               0.93636026               -0.00821149               65.06667192                0.73526470               -0.02888883               -0.03113787                0.09799322                0.00083209               -0.00504909               -0.00232555
               1.93606758               -0.01250007               65.06888202                0.25046053               -0.02572211               -0.03175699                0.10289040                0.00585047                0.00007717               -0.00210424
               2.93584582               -0.01663418               65.07120349                0.10734122                0.05861541               -0.02639674                0.10923985                0.10246208               -0.00948892               -0.00295792
               3.93723989               -0.01826922               65.07309783                0.14682511                0.08941545               -0.00607820                0.11217646               -0.09294573               -0.02301784               -0.00834686
               4.93763413               -0.01582335               65.07491516                0.29894293                0.00774768               -0.03064343                0.11154859               -0.04492800               -0.01438265               -0.00225447
               5.93739484               -0.01220425               65.07706005                0.76380386               -0.02917495               -0.03392083                0.11466249               -0.00556649                0.00460347               -0.00244348
               6.93705063               -0.00844958               65.07928557                0.99999999               -0.03531407               -0.03543929                0.11924177                0.00045232                0.00961068               -0.00201567
               7.93668856               -0.00468973               65.08153280                0.99232536               -0.03697439               -0.03685402                0.12390077                0.00070839                0.01202863               -0.00234235
               8.93631114               -0.00093201               65.08380682                0.99542658               -0.03850598               -0.03824992                0.12861309                0.00077387                0.01106116                0.00077606
               9.93591844                0.00282039               65.08603390                0.99763550               -0.03927052               -0.03972525                0.13335229                0.00112766                0.00878607                0.00902795
              -0.05900381                0.99582560               65.06529705                0.73273681               -0.03191319               -0.02963010                0.10332785                0.00244931                0.00233134                0.00729961
               0.94067705                0.99147713               65.06752438                0.01109342               -0.03293811               -0.03354374                0.10743433                0.00210632                0.00454191               -0.00385558
               1.94033742                0.98718236               65.06979715                0.01000000               -0.04610181               -0.02870738                0.11057554                0.02443418                0.00666583                0.02116336
               2.93975502                0.98310186               65.07207639                0.01000000               -0.22162039                0.04922203                0.11306692                0.13166590               -0.04687151                0.02905305
               3.93590502                0.98167000               65.07342256                0.01000000               -0.28013247                0.10289534                0.11440382                0.26795885               -0.07683134                0.07601155
               4.93415237                0.98387021               65.07504408                0.01000000               -0.11263638                0.01855281                0.11060240                0.32787085               -0.04016619                0.09091564
               5.93365229                0.98745654               65.07707899                0.01000001               -0.04272369               -0.00193887                0.11263903                0.21512979               -0.01323487                0.06270130
               6.93329789                0.99119603               65.07922542                0.48842794               -0.03577150               -0.03511976                0.11713250               -0.00081124               -0.00681117               -0.00978621
               7.93293686                0.99494173               65.08138744                0.98733824               -0.03670354               -0.03647486                0.12171687               -0.00011416               -0.00299295               -0.00448972
               8.93256382                0.99868549               65.08361043                1.00000000               -0.03797693               -0.03791866                0.12643764                0.00005990                0.00019763                0.00018043
               9.93217732                1.00242313               65.08583684                0.99317227               -0.03865042               -0.03939509                0.13120880                0.00037638                0.00034331                0.01120777
              -0.05460872                1.99552427               65.06619807                0.24530704               -0.03456564               -0.01311016                0.11246902                0.03047475                0.00209711                0.03138833
               0.94504562                1.99111763               65.06834603                0.01000000               -0.02298743               -0.05859455                0.11799215                0.03928969                0.03604275                0.01053728
               1.94493153                1.98692579               65.07117537                0.01000001               -0.05270613               -0.06480817                0.11588961                0.22557092                0.05205546                0.08465686
               2.94399150                1.98435026               65.07358119                0.01000000               -0.15504143                0.06945353                0.11621625                0.40646105                0.00187841                0.09459445
               3.94183070                1.98378869               65.07544403                0.01000000               -0.27932466                0.17095682                0.11875452                0.68117696               -0.04193452                0.16386445
               4.93840501                1.98454771               65.07703302                0.01000001               -0.37295415                0.09388148                0.11911528                0.81308868               -0.06538464                0.19371623
               5.93437162                1.98775697               65.07840058                0.01145492               -0.44278956                0.14778309                0.11857364                0.59988970               -0.11810404                0.15640492
               6.92954922                1.99084803               65.07900948                0.01616321               -0.25874039                0.08105685                0.11453785                0.25833936               -0.09036648                0.07438683
               7.92919681                1.99458077               65.08119881                0.04195412               -0.03591408               -0.01664222                0.11944807                0.02804559               -0.01082875               -0.00861579
               8.92883094                1.99830962               65.08340168                1.00000000               -0.03730660               -0.03722844                0.12424924                0.00002251               -0.00637315               -0.00392924
               9.92845068                2.00203248               65.08568267                0.89009577               -0.03802551               -0.03877295                0.12912122                0.00038895               -0.00258447                0.01116390
              -0.04958104                2.99556339               65.06752654                0.09854295               -0.03576255                0.09626336                0.12447763                0.27687144                0.00161224                0.27548424
               0.95006133                2.99030524               65.06949830                0.01000000                0.05986261               -0.21810973                0.13028627                0.33348616                0.09374253                0.22737043
               1.95161621                2.98588620               65.07330714                0.01000000                0.04800016               -0.11457545                0.11653919                0.50700076                0.11280419                0.13178023
               2.95102133                2.98449093               65.07555320                0.01000000               -0.11425479               -0.00474433                0.12115999                0.76345245                0.03284587                0.13325810
               3.94933111                2.98508914               65.07774988                0.01199461               -0.22877368                0.04185995                0.12471680                0.87451361                0.00917646                0.15775941
               4.94644586                2.98574784               65.07950023                0.01000000               -0.49906765                0.13130034                0.12761999                1.10633509               -0.05689003                0.20329192
               5.93934976                2.99041220               65.08041715                0.01000001               -0.74024903                0.24210192                0.12471766                1.20579035               -0.14810528                0.28003376
               6.93164088                2.99281717               65.08063326                0.01000000               -0.66567904                0.28384656                0.12083691                1.06546643               -0.19167601                0.37007521
               7.92603618                2.99460888               65.08097261                0.01462883               -0.32641599                0.15848514                0.11722687                0.83036295               -0.10356143                0.28670158
               8.92511256                2.99794092               65.08312458                0.01117979               -0.06484078               -0.16718265                0.12198643                0.77834695               -0.01319075                0.24873987
               9.92473936                3.00164767               65.08548596                0.13437712               -0.03731965               -0.56029800                0.12699626                0.88278847               -0.00294219                0.28828916
              -0.03855497                3.99744954               65.07319594                0.13228033               -0.00524837                0.03847379                0.07546383                0.05466700               -0.01223038                0.34924412
               0.96139254                3.98675544               65.07480728                0.01000000               -0.02795842               -0.17496436                0.09035128                0.48864500               -0.04813176                0.27539571
               1.96088586                3.98463428               65.07565952                0.01000000               -0.06674642               -0.14045655                0.11824470                0.81459244               -0.01247236                0.12482614
               2.96005761                3.98425538               65.07783342                0.01199221               -0.14108998               -0.08075740                0.12560115                0.89748837                0.04401379                0.11508184
               3.95806406                3.98462589               65.07975196                0.01000000               -0.24244835               -0.09360128                0.13122109                1.11641380                0.03995923                0.14487721
               4.95520865                3.98717371               65.08190310                0.01000001               -0.33229760                0.09832761                0.13455106                1.44977294                0.05370821                0.24874913
               5.95141811                3.99259901               65.08419985                0.01000001               -0.42733917                0.17404534                0.13433801                1.76556047                0.04184705                0.42422302
               6.94666186                3.99652496               65.08628447                0.01214269               -0.53688949                0.23935834                0.13061526                1.76269571               -0.07773653                0.53751611
               7.94068032                3.99775047               65.08654833                0.01141935               -0.46513896                0.20352477                0.12017363                1.52218168               -0.14221329                0.63309352
               8.93735908                3.99496596               65.08797257                0.01000000               -0.09936853               -0.10910723                0.11077528                1.17319696               -0.04356796                0.73045857
               9.93869295                3.99082652               65.09087765                0.08059446                0.13338612               -0.78537685                0.09025003                1.05557717                0.01274486                0.77823793
              -0.02709950                4.99633287               65.07594337                0.28366264               -0.02510051               -0.08147477                0.08275413                0.09411258               -0.00575637                0.11942879
               0.97264949                4.98680595               65.07714182                0.01000000               -0.12461897               -0.00372876                0.10045599                0.37153327               -0.03337909                0.05654124
               1.97040812                4.98307707               65.07777562                0.01000001               -0.18350007               -0.18418127                0.11894387                0.79358091               -0.01475102                0.06116545
               2.96897949                4.98287578               65.07950885                0.01000000               -0.08335312               -0.31799495                0.13094089                1.07190960                0.07305946                0.06069483
               3.96874105                4.98321711               65.08195292                0.01000001               -0.07556451               -0.17409384                0.13904157                1.40387572                0.15797031                0.15001906
               4.96746820                4.98771440               65.08531587                0.01000001               -0.17156655               -0.00601571                0.14346150                1.80937357                0.22745312                0.31205883
               5.96530972                4.99389311               65.08912719                0.01202896               -0.28624354                0.02079734                0.14603882                1.86825383                0.15301623                0.41450197
               6.96174333                4.99760433               65.09109427                0.01040825               -0.36354581                0.05201257                0.14370440                1.75165518                0.04727890                0.54780157
               7.95803881                4.99867938               65.09309046                0.01000000               -0.31214398                0.14550329                0.13768121                1.64100297                0.09953565                0.83601837
               8.95550045                4.99575878               65.09654547                0.01000000               -0.19545101                0.19038031                0.13737897                1.18096647                0.13903193                1.07048585
               9.95412979                4.98594014               65.09955465                0.03834940               -0.13706623               -0.17122108                0.15610731                0.69266160                0.12759296                1.01749435
              -0.01761888                5.99582004               65.07717526                0.72804224               -0.03021107               -0.04132514                0.09291204                0.01842753               -0.00606506                0.03094966
               0.98207901                5.98668086               65.07810043                0.01000001               -0.08467366               -0.02259176                0.10976678                0.18487451               -0.00797580               -0.01209034
               1.98068765                5.98095065               65.07898557                0.01145639               -0.03616227               -0.29088746                0.12630732                0.58249742                0.03361755               -0.03159185
               2.98135576                5.97789548               65.08083179                0.01000001                0.03076537               -0.52678173                0.13918710                1.12708528                0.16537663               -0.03608524
               3.98130295                5.98114401               65.08425177                0.01000001               -0.03178207               -0.25735698                0.14703766                1.62527880                0.31955637                0.12285600
               4.98072012                5.98705340               65.08907353                0.01202845               -0.12048539               -0.16194090                0.15336983                1.79664848                0.33626796                0.22210059
               5.97889325                5.99301495               65.09270103                0.01038316               -0.19057133               -0.12082901                0.15763334                1.78689068                0.30252075                0.36203089
               6.97690870                5.99756521               65.09690541                0.01000000               -0.17736575                0.02880109                0.15958345                1.81677145                0.39309913                0.68959346
               7.97534593                6.00066054               65.10247933                0.01000000               -0.15955200                0.24530408                0.16596360                1.72184524                0.47727693                1.10591139
               8.97371766                5.99877357               65.10839471                0.01315671               -0.15812367                0.28143209                0.19488315                1.04207322                0.33256524                1.04821639
               9.97218346                5.98740210               65.11089593                0.01000000               -0.15341977                0.23766856                0.20715169                0.45977947                0.16592649                0.85364996
              -0.00845259                6.99550637               65.07824792                0.99999999               -0.03310346               -0.03206442                0.10242671                0.00238599               -0.00464468                0.02322879
               0.99121637                6.98635411               65.07899032                0.44987447               -0.03519789               -0.03469109                0.11921896                0.00236208               -0.02286535               -0.01417519
               1.99084345                6.97725932               65.07936786                0.01616407                0.00557318               -0.20585542                0.13557742                0.26308898                0.02071232               -0.05476506
               2.99132784                6.97234014               65.08097011                0.01000000                0.06226314               -0.48918068                0.14981685                0.95926216                0.26669837               -0.12464830
               3.99208871                6.97806997               65.08617455                0.01214105                0.01011953               -0.38002557                0.15391763                1.56995802                0.43551369               -0.01746730
               4.99153023                6.98447558               65.09087363                0.01040867               -0.07764929               -0.27234118                0.16137816                1.61653971                0.47536501                0.09991277
               5.99053573                6.99147653               65.09673094                0.01000000               -0.05485262               -0.12323566                0.16786063                1.70903080                0.63904492                0.42962491
               6.99043317                6.99818035               65.10463862                0.01000000                0.03658131                0.09224991                0.17639598                1.77844147                0.84298069                0.86918731
               7.99126735                7.00358546               65.11447790                0.01312873               -0.04164111                0.13639330                0.20334390                1.38563617                0.56733291                0.87660838
               8.98960035                7.00138742               65.11655976                0.01049132               -0.25995198                0.29386417                0.20609767                0.75446843                0.08394917                1.09684105
               9.98606831                6.99069351               65.11663851                0.13938792               -0.35320391                0.79819874                0.21115835                0.37759716               -0.01958532                0.93723075
               0.00073335                7.99517875               65.07933963                0.99155110               -0.03600481               -0.03394304                0.11168292                0.00145539               -0.00499557                0.02656556
               1.00037330                7.98598704               65.07989365                0.95023232               -0.03849753               -0.03823862                0.12858023                0.00049870               -0.01090333               -0.00695554
               1.99996340                7.97683354               65.08033036                0.04337814               -0.03214720               -0.04393213                0.14539871                0.02064789               -0.00785368               -0.02219799
               2.99973035                7.96811186               65.08093822                0.01462928                0.03016417               -0.25698292                0.15591472                0.70118868                0.22867183               -0.10658009
               4.00056668                7.97354350               65.08607407                0.01142671               -0.00429969               -0.34745769                0.15982042                1.31754198                0.53900808               -0.10713674
               4.99964436                7.98160657               65.09254975                0.01000000               -0.05987966               -0.21251895                0.16588514                1.40989716                0.76986272                0.12371237
               5.99936909                7.99055024               65.10191693                0.01000000                0.03621154               -0.07358998                0.17842621                1.46552117                1.06693627                0.48010530
               7.00036859                7.99941021               65.11416249                0.01310786                0.02412521                0.00862715                0.20485259                1.23443506                0.86674303                0.56227241
               7.99985159                8.00338841               65.11925324                0.01000002                0.06651922                0.08982946                0.19819104                0.87841418                0.76997400                0.78391143
               9.00169898                8.00465085               65.12962358                0.12971889                0.06358159                0.13435476                0.18717763                0.66978263                0.52069042                0.66630907
              10.00112322                8.00336608               65.12957111                0.62892472               -0.05757540                0.60405065                0.19631896                0.68895277                0.00051244                0.65190041
               0.00995994                8.99482751               65.08048783                0.99546205               -0.03883842               -0.03632192                0.12079848                0.00141634                0.00076710                0.02385814
               1.00957156                8.98558934               65.08092157                0.99999999               -0.04141794               -0.04126005                0.13792534                0.00002652                0.00049331                0.00027784
               2.00913158                8.97638068               65.08135204                0.85514860               -0.04649522               -0.04661729                0.15508586                0.00001396               -0.00531401               -0.01273250
               3.00864165                8.96720049               65.08166386                0.01153744               -0.20933698               -0.07221537                0.17259509                0.64216587                0.23107939               -0.03575197
               4.00494484                8.97112082               65.08680752                0.01000000               -0.29601121               -0.03582216                0.15624886                0.96535396                0.68749276               -0.04443025
               5.00272143                8.98022520               65.09536367                0.01000000               -0.14511630               -0.06261688                0.16989147                0.93481995                1.02036975                0.13891847
               6.00204252                8.99000473               65.10719320                0.01311049               -0.02188583               -0.05054585                0.20022022                0.79009066                1.01497670                0.32072816
               7.00228371                8.99835290               65.11568563                0.01000002                0.07762370               -0.15330278                0.19782280                0.64250823                1.11810781                0.05442310
               8.00359499                9.00538205               65.12960536                0.13332234                0.03673109                0.07128736                0.18582143                0.54031589                0.70511096                0.52873690
               9.00301833                9.00407451               65.12961362                0.98697488               -0.05890347               -0.05878592                0.19633864                0.00200706                0.00401289                0.00806615
              10.00241692                9.00277452               65.12949011                0.99948043               -0.06014122               -0.06106478                0.20546351               -0.00021387               -0.00220286               -0.00034987
               0.01923800                9.99445231               65.08153326                0.99762701               -0.04173452               -0.03751923                0.13014334               -0.00124119                0.01804867                0.01834015
               1.01882066                9.98516184               65.08196656                0.99409293               -0.04427362               -0.04275029                0.14728623               -0.00264559                0.02250695                0.00120604
               2.01835253                9.97590120               65.08249248                0.95702423               -0.04935637               -0.04794802                0.16455183               -0.00261903                0.02581550               -0.00628160
               3.01783353                9.96666756               65.08298734                0.24364563               -0.57517435               -0.05329279                0.18129772                0.76548098                0.28452162               -0.00490921
               4.00684904                9.97282706               65.08867438                0.01000000               -0.91883406                0.17062390                0.13986897                0.87475424                0.78075619               -0.00819143
               4.99945685                9.98035424               65.09767258                0.02411449               -0.49029215                0.01290370                0.18679061                0.50915567                1.01136943                0.12295605
               5.99704320                9.98953932               65.10922440                0.08683716               -0.08077079               -0.04654029                0.20915384                0.29956434                0.83920702                0.15996459
               6.99784143                9.99634415               65.11518085                0.10947087                0.39465451               -0.20087457                0.19395662                0.31951377                0.97967188               -0.05757715
               8.00493629               10.00481415               65.12942930                0.62183516                0.32526057               -0.05678969                0.19377263                0.49067934                0.73045051                0.00349393
               9.00434665               10.00347513               65.12949369                0.99948811               -0.06086805               -0.05993794                0.20424585               -0.00063724                0.01237734                0.00300767
              10.00371893               10.00214478               65.12937023                0.99276462               -0.06277153               -0.06297400                0.21337029               -0.00283431                0.00273467               -0.00261083
              -0.06564422               -0.00474266               66.06537625                1.00000000               -0.02820628               -0.02888872                0.09309930                0.00238543               -0.00333118                0.00387510
               0.93407372               -0.00913184               66.06764887                0.73574157               -0.02841675               -0.03112956                0.09737871                0.00103543               -0.00364130               -0.00180088
               1.93378744               -0.01347258               66.06990884                0.25642102               -0.02195766               -0.03163129                0.10244855                0.01053283                0.00278065               -0.00168403
               2.93363456               -0.01755446               66.07229531                0.11609072                0.06757287               -0.02595444                0.10906184                0.11978163               -0.00624340               -0.00272865
               3.93513890               -0.01869265               66.07422218                0.15244399                0.09272997               -0.00659109                0.11255999               -0.07250711               -0.02477454               -0.00906072
               4.93548916               -0.01596990               66.07603167                0.30077500                0.00468369               -0.03045202                0.11170788               -0.03650311               -0.01722170               -0.00217752
               5.93523257               -0.01223749               66.07820636                0.76179448               -0.03011015               -0.03390869                0.11458160               -0.00415919                0.00375406               -0.00240079
               6.93488696               -0.00839911               66.08047736                0.99999999               -0.03539123               -0.03542066                0.11911400                0.00051243                0.00953313               -0.00201540
               7.93452475               -0.00455721               66.08277089                0.99241630               -0.03696131               -0.03684281                0.12372284                0.00069316                0.01201901               -0.00240454
               8.93414773               -0.00071704               66.08509180                0.99507391               -0.03844752               -0.03822694                0.12838679                0.00075556                0.01109901                0.00075822
               9.93375580                0.00311895               66.08736609                0.99722509               -0.03919328               -0.03967941                0.13305807                0.00106350                0.00884892                0.00912263
              -0.06123120                0.99496845               66.06632967                0.73267804               -0.03197786               -0.02926153                0.10317308                0.00276541                0.00174773                0.00622739
               0.93844903                0.99055687               66.06859862                0.01112215               -0.03323615               -0.03386023                0.10738473                0.00282328                0.00345253               -0.00276334
               1.93810408                0.98621111               66.07090305                0.01000000               -0.05033066               -0.02715968                0.11057822                0.03220005                0.00456583                0.02062194
               2.93744241                0.98218600               66.07320645                0.01000000               -0.22412658                0.05468303                0.11292306                0.16227759               -0.05113406                0.02929032
               3.93362155                0.98124144               66.07457118                0.01000000               -0.27729306                0.09717526                0.11525143                0.30269320               -0.08419159                0.07619562
               4.93189655                0.98372558               66.07615257                0.01000000               -0.11079794                0.01123488                0.11114408                0.34682768               -0.04646187                0.09589589
               5.93140559                0.98742343               66.07820577                0.01000001               -0.04223026               -0.00517510                0.11273576                0.22335442               -0.01474524                0.06699869
               6.93105195                0.99124668               66.08039719                0.48281225               -0.03574744               -0.03512738                0.11724081               -0.00068064               -0.00693241               -0.00999344
               7.93069064                0.99507436               66.08260513                0.98710102               -0.03673700               -0.03651658                0.12184965               -0.00013321               -0.00306445               -0.00459832
               8.93031721                0.99890070               66.08487524                1.00000000               -0.03800964               -0.03794591                0.12653257                0.00004342                0.00017159                0.00014347
               9.92993045                1.00272216               66.08714923                0.99273288               -0.03867565               -0.03939816                0.13124246                0.00032317                0.00033848                0.01134631
              -0.05676575                1.99467210               66.06732500                0.25070262               -0.03467281               -0.00988524                0.11289861                0.03497119                0.00160815                0.03171378
               0.94288752                1.99019096               66.06952903                0.01000000               -0.02159671               -0.06287037                0.11856513                0.04697722                0.03189808                0.01294310
               1.94280231                1.98598423               66.07234052                0.01000001               -0.05188692               -0.06357487                0.11502966                0.24599750                0.04559265                0.08162393
               2.94184978                1.98353920               66.07474859                0.01000000               -0.15745659                0.07450783                0.11762454                0.44555569               -0.00274849                0.09500583
               3.93965318                1.98325086               66.07663613                0.01000000               -0.28030237                0.16285811                0.11965108                0.72532490               -0.04649578                0.16649168
               4.93624373                1.98425480               66.07823035                0.01000001               -0.37373073                0.08059888                0.12049911                0.85107225               -0.07088019                0.20199755
               5.93217857                1.98765901               66.07959270                0.01145069               -0.45106599                0.14450946                0.12007746                0.62566616               -0.12518750                0.16445961
               6.92722241                1.99089834               66.08015692                0.01613960               -0.26552482                0.08201927                0.11509236                0.27169794               -0.09488360                0.07882348
               7.92686807                1.99471245               66.08239546                0.03887293               -0.03608051               -0.01249846                0.11995816                0.03421419               -0.01083780               -0.00851397
               8.92650080                1.99852405               66.08464616                1.00000000               -0.03743638               -0.03735466                0.12464966                0.00000573               -0.00644957               -0.00403134
               9.92611934                2.00233099               66.08697585                0.89441485               -0.03814607               -0.03888212                0.12950209                0.00033998               -0.00262120                0.01133817
              -0.05156948                2.99477074               66.06877673                0.10634717               -0.03540744                0.10023368                0.12546637                0.27295804                0.00083796                0.24769974
               0.94807645                2.98929946               66.07080684                0.01000000                0.06226329               -0.22685574                0.13129541                0.34418366                0.08336132                0.20356112
               1.94967579                2.98493961               66.07447857                0.01000000                0.05052254               -0.11839734                0.11815709                0.53795338                0.10016823                0.12718547
               2.94908690                2.98367616               66.07677024                0.01000000               -0.11316673               -0.00674437                0.12216775                0.80536887                0.02927545                0.13380816
               3.94741245                2.98449861               66.07900468                0.01199677               -0.22885254                0.03523775                0.12631317                0.91940332                0.00563123                0.16115290
               4.94450985                2.98533756               66.08078464                0.01000000               -0.50685373                0.12430066                0.12950698                1.15242897               -0.06296374                0.20966959
               5.93727538                2.99031361               66.08167500                0.01000001               -0.75386923                0.24107054                0.12721491                1.24864048               -0.15632119                0.28847641
               6.92943246                2.99288706               66.08185447                0.01000000               -0.67630792                0.28882510                0.12371449                1.09719553               -0.19768599                0.37996420
               7.92374922                2.99482439               66.08215394                0.01475595               -0.33668362                0.16615841                0.12014443                0.83676310               -0.10292983                0.29266569
               8.92269879                2.99815360               66.08434799                0.01203025               -0.07129246               -0.14403407                0.12268658                0.76242934               -0.01365122                0.24249204
               9.92232337                3.00194451               66.08675967                0.14122347               -0.03754195               -0.53392113                0.12777930                0.85954356               -0.00299463                0.26837220
              -0.04036403                3.99667678               66.07396655                0.13636854               -0.00336506                0.03610404                0.07896275                0.05396909               -0.01243115                0.31667673
               0.95960232                3.98565384               66.07571578                0.01000000               -0.02256442               -0.18119496                0.09176417                0.50870209               -0.04182697                0.25294113
               1.95918469                3.98361628               66.07684402                0.01000000               -0.06020790               -0.14753447                0.11862107                0.85386703               -0.00670750                0.11935102
               2.95839817                3.98340432               66.07909558                0.01199298               -0.14024211               -0.08609869                0.12683950                0.94051352                0.04087634                0.11525977
               3.95637984                3.98395561               66.08107209                0.01000000               -0.24604306               -0.10266937                0.13287299                1.16421815                0.03590255                0.14839494
               4.95347730                3.98674081               66.08325849                0.01000001               -0.33889857                0.09475251                0.13686376                1.50590074                0.04760172                0.25461639
               5.94960187                3.99248042               66.08555747                0.01000001               -0.44108768                0.17318563                0.13792648                1.82772007                0.03235427                0.43389304
               6.94465555                3.99667484               66.08760581                0.01217148               -0.56325382                0.24446739                0.13464083                1.81460395               -0.09470286                0.54993567
               7.93833680                3.99803562               66.08776150                0.01151594               -0.50131421                0.21376178                0.12323807                1.57219164               -0.16757420                0.64564285
               8.93462927                3.99564336               66.08905335                0.01000000               -0.13042018               -0.09235157                0.10722699                1.22432615               -0.08083238                0.74902600
               9.93572839                3.99165256               66.09173024                0.08110189                0.10991257               -0.79043184                0.08329922                1.10097139               -0.03729826                0.80214543
              -0.02844423                4.99549282               66.07677395                0.28434846               -0.02447875               -0.08734056                0.08344640                0.10204588               -0.00579824                0.11846496
               0.97131098                4.98567556               66.07814036                0.01000000               -0.12765585               -0.00330498                0.09938218                0.39519457               -0.03222712                0.05582056
               1.96900265                4.98198892               66.07896544                0.01000001               -0.18765740               -0.19103486                0.11907150                0.83375380               -0.01295069                0.05773015
               2.96755784                4.98195418               66.08082370                0.01000000               -0.08211683               -0.33173395                0.13196526                1.11819973                0.07146503                0.06158702
               3.96736032                4.98244522               66.08335040                0.01000001               -0.07273906               -0.18620156                0.14059247                1.46063944                0.15383625                0.15364250
               4.96610305                4.98723261               66.08676318                0.01000001               -0.17322828               -0.01352121                0.14646858                1.88297133                0.22180908                0.31826935
               5.96389575                4.99377733               66.09060391                0.01204631               -0.29668575                0.01672769                0.15023095                1.94468960                0.14358518                0.42444153
               6.96016934                4.99777641               66.09254780                0.01046004               -0.38356125                0.05064632                0.14801073                1.82800134                0.03119648                0.56281535
               7.95622453                4.99909962               66.09447526                0.01000000               -0.33004843                0.15002643                0.14024470                1.72544300                0.08173139                0.86239122
               8.95356837                4.99630657               66.09792691                0.01000000               -0.19500635                0.18120971                0.13950017                1.25993410                0.13238099                1.12168502
               9.95232440                4.98613588               66.10111363                0.03870856               -0.12439707               -0.21265107                0.15578311                0.76192113                0.13267536                1.08256359
              -0.01868858                5.99492997               66.07810763                0.72325282               -0.03013015               -0.04421279                0.09358159                0.02174399               -0.00597843                0.03124215
               0.98101012                5.98558774               66.07919282                0.01000001               -0.08651380               -0.02036333                0.10875804                0.19494394               -0.00749451               -0.01226157
               1.97958114                5.97979559               66.08024621                0.01146144               -0.03521252               -0.29976589                0.12579384                0.60783370                0.03395246               -0.03209771
               2.98030587                5.97676964               66.08222065                0.01000001                0.03665313               -0.54722502                0.13936407                1.16948136                0.16284473               -0.03193085
               3.98031420                5.98023158               66.08572998                0.01000001               -0.02506217               -0.27532240                0.14867990                1.68837644                0.31532474                0.12422081
               4.97980462                5.98647039               66.09061934                0.01205301               -0.11811708               -0.17658988                0.15635719                1.87148321                0.33155185                0.22600841
               5.97795186                5.99281498               66.09429357                0.01043480               -0.19556707               -0.13196598                0.16156907                1.86553044                0.29562910                0.36992453
               6.97589328                5.99768777               66.09851426                0.01000000               -0.18181820                0.02276523                0.16291775                1.89952709                0.38641007                0.70488098
               7.97431550                6.00103615               66.10415192                0.01000000               -0.15507918                0.24305684                0.16918893                1.81453934                0.48462598                1.13928884
               8.97279170                5.99926756               66.11036656                0.01335240               -0.15036471                0.27120706                0.20013051                1.10590850                0.34573141                1.08445578
               9.97130820                5.98739954               66.11298986                0.01000000               -0.14834929                0.22912695                0.21151155                0.48546640                0.17180930                0.88107643
              -0.00932490                6.99460857               66.07927611                0.99999999               -0.03308528               -0.03268787                0.10321821                0.00266240               -0.00453484                0.02297329
               0.99034424                6.98526830               66.08017860                0.44108644               -0.03488310               -0.03414909                0.11845097                0.00298586               -0.02293724               -0.01419638
               1.98997743                6.97599361               66.08071274                0.01614664                0.00836104               -0.21107458                0.13336412                0.27193866                0.02133435               -0.05474323
               2.99051146                6.97100968               66.08248806                0.01000000                0.07248299               -0.50407350                0.14938883                0.98555570                0.26116627               -0.12749626
               3.99142709                6.97693877               66.08770789                0.01217476                0.02189310               -0.40694744                0.15431749                1.62298640                0.42840333               -0.01904119
               4.99094933                6.98370081               66.09249884                0.01046231               -0.07190554               -0.29619726                0.16373136                1.68801951                0.47228864                0.09871242
               5.98998898                6.99113801               66.09841794                0.01000000               -0.05053108               -0.13646882                0.17026482                1.78813388                0.63617938                0.43537640
               6.98993871                6.99823172               66.10641383                0.01000000                0.04732690                0.09002553                0.17916473                1.86310141                0.85096387                0.88892842
               7.99093552                7.00396076               66.11652590                0.01332295               -0.03077779                0.13113139                0.20668775                1.44884865                0.57407583                0.89125228
               8.98932315                7.00173071               66.11864252                0.01074530               -0.25828800                0.27399959                0.21052597                0.78336242                0.08151110                1.08684223
               9.98576976                6.99071841               66.11877867                0.14137778               -0.35533878                0.80100852                0.21608847                0.39011669               -0.01899456                0.92710040
               0.00004521                7.99427621               66.08046109                0.99155112               -0.03604165               -0.03438678                0.11260431                0.00151713               -0.00491521                0.02605334
               0.99968480                7.98490476               66.08117685                0.94981514               -0.03833423               -0.03797711                0.12805613                0.00062666               -0.01083397               -0.00698922
               1.99927853                7.97557409               66.08177489                0.04264925               -0.03064905               -0.04332952                0.14349895                0.02139022               -0.01747480               -0.02146916
               2.99907181                7.96668817               66.08235056                0.01475605                0.04021364               -0.26174032                0.14387157                0.70731887                0.22302261               -0.10005573
               4.00008280                7.97209263               66.08768507                0.01152181                0.01469802               -0.38175621                0.15910982                1.36677740                0.53679478               -0.11879480
               4.99936577                7.98054644               66.09420667                0.01000000               -0.04495824               -0.23583298                0.16653603                1.48628578                0.76747849                0.11869426
               5.99918364                7.99008560               66.10371086                0.01000000                0.04833901               -0.08082287                0.18060155                1.54714924                1.07691244                0.49081844
               7.00033256                7.99948828               66.11622423                0.01330510                0.03049206                0.00661497                0.20785842                1.29238230                0.86948942                0.56876250
               7.99979348                8.00365878               66.12126478                0.01015299                0.06843681                0.07904313                0.20421033                0.89801212                0.75262600                0.77064083
               9.00170129                8.00474755               66.13147396                0.12904526                0.06708273                0.12249425                0.18286794                0.67541434                0.50748986                0.65094251
              10.00113513                8.00341971               66.13152422                0.63087890               -0.05661600                0.60567830                0.19427536                0.70236889                0.00051627                0.63877088
               0.00944833                8.99392083               66.08170120                0.99508166               -0.03894411               -0.03671874                0.12185352                0.00143141                0.00078997                0.02336579
               1.00905889                8.98450875               66.08229922                0.99999999               -0.04132503               -0.04113375                0.13759110                0.00001731                0.00053895                0.00025468
               2.00862183                8.97512702               66.08289422                0.86801470               -0.04597957               -0.04606588                0.15334927                0.00003862               -0.00509436               -0.01219904
               3.00813930                8.96577488               66.08337372                0.01236452               -0.18587340               -0.07183733                0.16942587                0.63027938                0.21404238               -0.02522774
               4.00490437                8.96930365               66.08833675                0.01000000               -0.27286117               -0.06632750                0.15084642                1.01780533                0.67408749               -0.07044684
               5.00268208                8.97898415               66.09706718                0.01000000               -0.14571150               -0.06719574                0.17074965                1.00428369                1.03404211                0.13788436
               6.00199014                8.98952155               66.10921356                0.01329966               -0.02344538               -0.05081846                0.20484161                0.84099738                1.02034530                0.33006877
               7.00221317                8.99836402               66.11767656                0.01000002                0.08231774               -0.16218411                0.20114346                0.65836440                1.09859048                0.04415744
               8.00363649                9.00554162               66.13143975                0.13115874                0.04286657                0.06634137                0.18100873                0.55308909                0.69290186                0.51544056
               9.00307050                9.00418060               66.13156562                0.98735619               -0.05818372               -0.05809698                0.19406484                0.00217026                0.00477125                0.00872778
              10.00247282                9.00283198               66.13154471                0.99985530               -0.05976863               -0.06103240                0.20546327               -0.00041225               -0.00219699                0.00031409
               0.01889800                9.99354184               66.08284098                0.99720014               -0.04190413               -0.03789976                0.13137139               -0.00100815                0.01774128                0.01797300
               1.01847896                9.98408209               66.08343877                0.99370193               -0.04424116               -0.04266651                0.14713318               -0.00244634                0.02226193                0.00120357
               2.01801318                9.97465278               66.08413019                0.96588904               -0.04890941               -0.04742389                0.16296655               -0.00239896                0.02536903               -0.00584189
               3.01750077                9.96525142               66.08478536                0.25817996               -0.53917743               -0.05234539                0.17828439                0.74181234                0.25431309               -0.00487628
               4.00722963                9.97076608               66.09004254                0.01000000               -0.91336133                0.14624384                0.13654534                0.93008172                0.76748562               -0.04414713
               4.99923354                9.97920253               66.09953821                0.02412658               -0.53029546                0.02183765                0.18611291                0.57030384                1.03503747                0.12677304
               5.99662372                9.98906923               66.11133103                0.08691821               -0.08768875               -0.04523209                0.21318337                0.31546166                0.83206648                0.16178778
               6.99747977                9.99624460               66.11712952                0.11034794                0.42074795               -0.21194214                0.19645654                0.32247870                0.95887831               -0.06741182
               8.00503868               10.00498561               66.13135242                0.62137684                0.34872849               -0.05560176                0.19081824                0.50726962                0.72476090                0.00351164
               9.00445434               10.00358561               66.13153410                0.99986344               -0.06072805               -0.05949851                0.20384355               -0.00094339                0.01311263                0.00300647
              10.00382412               10.00219906               66.13151323                0.99299348               -0.06302216               -0.06329164                0.21524159               -0.00352453                0.00273138               -0.00260502
              -0.06796653               -0.00571248               67.06630349                1.00000000               -0.02786321               -0.02861262                0.09234271                0.00252543               -0.00231187                0.00292190
               0.93175484               -0.01014700               67.06861949                0.73638219               -0.02783617               -0.03112952                0.09672882                0.00130499               -0.00217080               -0.00127009
               1.93147675               -0.01452216               67.07093099                0.26320714               -0.01736116               -0.03147198                0.10194850                0.01621555                0.00564491               -0.00126579
               2.93140762               -0.01851102               67.07338472                0.12591568                0.07656461               -0.02545965                0.10871656                0.13434532               -0.00255752               -0.00257218
               3.93300804               -0.01914843               67.07534903                0.15889691                0.09489496               -0.00716107                0.11251961               -0.05318242               -0.02638401               -0.00955863
               4.93330552               -0.01610870               67.07714932                0.30306185                0.00080925               -0.03018426                0.11157479               -0.02683200               -0.02005830               -0.00201502
               5.93302423               -0.01225110               67.07935168                0.75968047               -0.03143805               -0.03387312                0.11430908               -0.00218791                0.00283230               -0.00229913
               6.93267676               -0.00832954               67.08166785                0.99999999               -0.03548649               -0.03538642                0.11888019                0.00055301                0.00949880               -0.00197763
               7.93231450               -0.00440630               67.08400725                0.99247552               -0.03694159               -0.03685016                0.12350827                0.00059296                0.01208576               -0.00241287
               8.93193792               -0.00048372               67.08637456                0.99469935               -0.03838320               -0.03822747                0.12819212                0.00066723                0.01120736                0.00073862
               9.93154683                0.00343657               67.08869506                0.99678232               -0.03910913               -0.03962705                0.13273260                0.00095653                0.00896132                0.00924973
              -0.06350675                0.99400139               67.06736051                0.73281997               -0.03205181               -0.02880130                0.10296194                0.00312635                0.00113257                0.00514529
               0.93617273                0.98954170               67.06967207                0.01000000               -0.03361679               -0.03423637                0.10726540                0.00374752                0.00230638               -0.00164336
               1.93582091                0.98516312               67.07200872                0.01000000               -0.05542612               -0.02475485                0.11052435                0.04198819                0.00224765                0.01838875
               2.93506421                0.98123439               67.07433485                0.01000000               -0.22729248                0.05988026                0.11275641                0.19250712               -0.05526573                0.03038437
               3.93127506                0.98077996               67.07572759                0.01000000               -0.27378369                0.09167237                0.11601791                0.33830264               -0.09116170                0.07639459
               4.92958853                0.98358945               67.07726696                0.01000000               -0.10811487                0.00321446                0.11184497                0.36777615               -0.05313994                0.10123218
               5.92911277                0.98741017               67.07933370                0.01000001               -0.04143238               -0.00859787                0.11292514                0.23221056               -0.01635065                0.07208776
               6.92875989                0.99131660               67.08157024                0.47658033               -0.03576239               -0.03516269                0.11743307               -0.00064678               -0.00689318               -0.00997782
               7.92839752                0.99522520               67.08382443                0.98674986               -0.03683624               -0.03660051                0.12208783               -0.00031319               -0.00305918               -0.00462240
               8.92802316                0.99913401               67.08614109                1.00000000               -0.03807036               -0.03800235                0.12669181               -0.00006360                0.00012787                0.00004441
               9.92763611                1.00304030               67.08846169                0.99228794               -0.03870511               -0.03938837                0.13123445                0.00023063                0.00030059                0.01147931
              -0.05898462                1.99371149               67.06845604                0.25692250               -0.03473162               -0.00627763                0.11325750                0.03978965                0.00109935                0.03202220
               0.94066806                1.98916827               67.07071733                0.01000000               -0.01957753               -0.06759985                0.11900522                0.05626189                0.02594173                0.01524931
               1.94062383                1.98498274               67.07347596                0.01000001               -0.05135696               -0.06183565                0.11948136                0.26767923                0.04114044                0.08024427
               2.93964092                1.98268659               67.07593368                0.01000000               -0.16023992                0.07928552                0.11798247                0.48593969               -0.00539627                0.09545448
               3.93741903                1.98268502               67.07783705                0.01000000               -0.28050451                0.15481386                0.12062524                0.77116342               -0.05046300                0.16918738
               4.93403083                1.98395558               67.07944301                0.01000001               -0.37388679                0.06618209                0.12211989                0.89098309               -0.07507196                0.21070432
               5.92994129                1.98757694               67.08080212                0.01145509               -0.45910217                0.14034002                0.12225966                0.65261799               -0.13188697                0.17357700
               6.92484879                1.99096721               67.08131133                0.01613228               -0.27252346                0.08254840                0.11617301                0.28665408               -0.09980471                0.08451154
               7.92449082                1.99486169               67.08359798                0.03508180               -0.03636200               -0.00645210                0.12079478                0.04377860               -0.01096712               -0.00685685
               8.92412155                1.99875623               67.08589467                0.99999999               -0.03759821               -0.03752194                0.12508247               -0.00011231               -0.00668771               -0.00430319
               9.92373886                2.00264880               67.08827272                0.89975986               -0.03826895               -0.03897821                0.12981285                0.00025703               -0.00272337                0.01148655
              -0.05362452                2.99387584               67.07003586                0.11519854               -0.03487684                0.10371770                0.12621702                0.26551428               -0.00000722                0.22111060
               0.94602672                2.98818971               67.07212420                0.01000000                0.06403466               -0.23437625                0.13198562                0.35305173                0.07350154                0.17980049
               1.94765618                2.98392641               67.07567028                0.01000000                0.05270063               -0.12241585                0.11868248                0.56892383                0.08790486                0.12345278
               2.94708073                2.98282010               67.07799655                0.01000000               -0.11134208               -0.00897383                0.12314181                0.84779888                0.02657704                0.13391185
               3.94542934                2.98387624               67.08027614                0.01200188               -0.22822279                0.02815291                0.12780381                0.96465835                0.00394394                0.16463450
               4.94251627                2.98491309               67.08209037                0.01000000               -0.51379171                0.11659586                0.13163361                1.19926013               -0.06682548                0.21636927
               5.93515350                2.99021697               67.08296145                0.01000001               -0.76540267                0.23855081                0.13124677                1.29155240               -0.16203247                0.29792558
               6.92720822                2.99296757               67.08310755                0.01000000               -0.68347191                0.29315708                0.12736477                1.12970845               -0.20273390                0.39177329
               7.92148406                2.99509615               67.08337550                0.01489241               -0.34872093                0.17401615                0.12748711                0.84032332               -0.10394716                0.29967015
               8.92023380                2.99838357               67.08557831                0.01293444               -0.08139746               -0.11943341                0.12329637                0.74083658               -0.01592168                0.23465748
               9.91985611                3.00226073               67.08804155                0.14863169               -0.03776864               -0.50666609                0.12857300                0.83043403               -0.00300101                0.24589718
              -0.04230207                3.99578585               67.07477520                0.14125155               -0.00194034                0.03426246                0.08300057                0.05330183               -0.01254684                0.28368596
               0.95767853                3.98448075               67.07664256                0.01000000               -0.01630098               -0.18721926                0.09391315                0.52676635               -0.03528201                0.22911610
               1.95737191                3.98253443               67.07803194                0.01000000               -0.05157273               -0.15484603                0.11896806                0.89179757                0.00022829                0.11275994
               2.95664707                3.98250711               67.08037021                0.01200512               -0.13763558               -0.09188272                0.12766977                0.98283764                0.03989363                0.11541243
               3.95461920                3.98324807               67.08240941                0.01000000               -0.24858841               -0.11220842                0.13440701                1.21146764                0.03434866                0.15177654
               4.95167531                3.98628750               67.08464037                0.01000001               -0.34506645                0.09029211                0.13965509                1.56172373                0.04486037                0.26104272
               5.94771787                3.99234796               67.08695838                0.01000001               -0.45557675                0.17144333                0.14290251                1.88930769                0.02656079                0.44441159
               6.94256377                3.99683035               67.08897728                0.01220532               -0.59182911                0.24923089                0.14130595                1.86408733               -0.10865066                0.56229285
               7.93588129                3.99834201               67.08901309                0.01161792               -0.53950345                0.22203147                0.12730946                1.61737360               -0.19225169                0.65813513
               8.93177370                3.99636757               67.09011710                0.01000000               -0.16440412               -0.07521513                0.10652159                1.27246853               -0.11407155                0.76169049
               9.93259321                3.99251548               67.09254363                0.08164049                0.08195054               -0.79644722                0.08179807                1.14247921               -0.07706086                0.81850417
              -0.02994828                4.99456109               67.07761230                0.28550320               -0.02382601               -0.09215582                0.08431138                0.10808471               -0.00580404                0.11572250
               0.96981346                4.98444532               67.07912947                0.01000000               -0.12929806               -0.00416817                0.09853337                0.41902060               -0.02960595                0.05355829
               1.96746576                4.98082949               67.08015705                0.01000001               -0.18948145               -0.19865144                0.11910629                0.87520383               -0.00843257                0.05402603
               2.96602383                4.98098244               67.08214816                0.01000000               -0.07937308               -0.34573086                0.13275905                1.16421934                0.07224748                0.06280636
               3.96587830                4.98163207               67.08476477                0.01000001               -0.06864834               -0.19885707                0.14206604                1.51640304                0.15256858                0.15758356
               4.96465087                4.98671894               67.08824524                0.01000001               -0.17407458               -0.02247987                0.15010677                1.95630158                0.21990375                0.32511246
               5.96239681                4.99364583               67.09213181                0.01207850               -0.30774779                0.01257323                0.15595867                2.02131367                0.13798747                0.43439560
               6.95849591                4.99795218               67.09405449                0.01052254               -0.40512443                0.04832217                0.15441447                1.90528640                0.01854439                0.57549864
               7.95429432                4.99953678               67.09589535                0.01000000               -0.34931045                0.15268301                0.14541209                1.81159718                0.06791330                0.88613102
               8.95150970                4.99687926               67.09933548                0.01000000               -0.19422251                0.16897564                0.14297468                1.34078269                0.12949280                1.17110638
               9.95040987                4.98633179               67.10267032                0.03900330               -0.10998324               -0.25784462                0.15590056                0.83424509                0.13903158                1.14733576
              -0.01990884                5.99394273               67.07904689                0.71853637               -0.03006208               -0.04743562                0.09429036                0.02546473               -0.00585232                0.03130217
               0.97979054                5.98439738               67.08027559                0.01000001               -0.08761483               -0.01795822                0.10781761                0.20631008               -0.00592650               -0.01247719
               1.97833887                5.97856140               67.08150145                0.01145264               -0.03308300               -0.30968572                0.12518763                0.63450145                0.03695797               -0.03341675
               2.97912888                5.97559250               67.08361907                0.01000001                0.04359515               -0.56610676                0.13975506                1.21208549                0.16307209               -0.02906828
               3.97921077                5.97927093               67.08722536                0.01000001               -0.01706546               -0.29490046                0.15061411                1.75065554                0.31403769                0.12668472
               4.97878757                5.98583790               67.09220067                0.01207331               -0.11499348               -0.19282215                0.16035341                1.94717863                0.33000935                0.23032057
               5.97691090                5.99259942               67.09593241                0.01050295               -0.20045123               -0.14395329                0.16665124                1.94531997                0.29069774                0.37724304
               6.97477855                5.99779679               67.10016377                0.01000000               -0.18623736                0.01483870                0.16740984                1.98224114                0.38132435                0.71699639
               7.97318615                6.00139567               67.10586311                0.01000000               -0.14920991                0.23804335                0.17372017                1.90880736                0.49545267                1.16941671
               8.97179435                5.99974708               67.11239732                0.01355670               -0.14065467                0.25688015                0.20715966                1.17155117                0.36179263                1.11775540
               9.97037306                5.98735859               67.11512616                0.01000000               -0.14212909                0.21846828                0.21622283                0.51146371                0.17832119                0.90841496
              -0.01034829                6.99361238               67.08031229                0.99999999               -0.03307169               -0.03340043                0.10402318                0.00299523               -0.00440316                0.02257903
               0.98932100                6.98408616               67.08135934                0.43163290               -0.03455182               -0.03353737                0.11770722                0.00378363               -0.02295421               -0.01414004
               1.98896068                6.97463577               67.08203514                0.01612546                0.01175061               -0.21693587                0.13113946                0.28377388                0.02149303               -0.05547020
               2.98955601                6.96966031               67.08395789                0.01000000                0.08426629               -0.51837026                0.14717842                1.01250125                0.25954408               -0.12771001
               3.99064600                6.97573406               67.08926090                0.01219954                0.03549723               -0.43660956                0.15649679                1.67189440                0.42597249               -0.02156227
               4.99026595                6.98286249               67.09414825                0.01052708               -0.06508414               -0.32128942                0.16675461                1.76066406                0.47023135                0.09825697
               5.98934432                6.99076677               67.10013623                0.01000000               -0.04607348               -0.15142163                0.17355711                1.86826687                0.63376116                0.44113391
               6.98934448                6.99824896               67.10822191                0.01000000                0.05879311                0.08629698                0.18254833                1.94784001                0.85925121                0.90673664
               7.99052018                7.00429765               67.11861166                0.01354814               -0.01833374                0.12458529                0.21081687                1.51180698                0.58192905                0.90342683
               8.98897781                7.00201687               67.12077028                0.01102266               -0.25520285                0.24997648                0.21507635                0.80992446                0.07954494                1.06845812
               9.98541612                6.99070116               67.12096028                0.14319409               -0.35616839                0.80084337                0.21997649                0.40142750               -0.01891147                0.91196105
              -0.00079649                7.99327472               67.08159172                0.99147660               -0.03606902               -0.03487211                0.11351696                0.00159057               -0.00481378                0.02541200
               0.99884282                7.98372663               67.08245477                0.94935183               -0.03816583               -0.03768176                0.12753064                0.00081434               -0.01070882               -0.00697632
               1.99844019                7.97422268               67.08320034                0.04081536               -0.02810976               -0.04271902                0.14160757                0.02464878               -0.02272917               -0.02057433
               2.99828062                7.96522509               67.08381565                0.01489164                0.05031406               -0.26995885                0.14596604                0.71200085                0.21849996               -0.09364258
               3.99944647                7.97053874               67.08925627                0.01161988                0.03437616               -0.41898230                0.15749514                1.41370777                0.53499143               -0.13149092
               4.99896814                7.97941212               67.09588047                0.01000000               -0.02783492               -0.26055765                0.16831940                1.56458775                0.76875583                0.11508982
               5.99888977                7.98957099               67.10552896                0.01000000                0.06181594               -0.08904172                0.18361261                1.63031713                1.08713062                0.50471243
               7.00020446                7.99952273               67.11831966                0.01352520                0.03823040                0.00408976                0.21158374                1.35006179                0.87198851                0.57551774
               7.99965438                8.00388738               67.12333745                0.01041619                0.06924349                0.06527836                0.20918192                0.91338317                0.72865157                0.74905909
               9.00158933                8.00474661               67.13328094                0.12811681                0.06893256                0.10860310                0.17851957                0.67595344                0.48792475                0.63031236
              10.00103303                8.00337545               67.13345662                0.63268740               -0.05563012                0.60453158                0.19219505                0.71281830                0.00050161                0.62169213
               0.00877970                8.99291493               67.08292490                0.99469942               -0.03903745               -0.03712447                0.12285667                0.00144545                0.00081990                0.02277676
               1.00838932                8.98333252               67.08367339                0.99999999               -0.04122509               -0.04099063                0.13723426                0.00001610                0.00059766                0.00023999
               2.00795520                8.97378139               67.08441903                0.88084379               -0.04546799               -0.04551378                0.15163430                0.00008691               -0.00486594               -0.01162790
               3.00747996                8.96426113               67.08505238                0.01324219               -0.16110318               -0.07391696                0.16638739                0.61499198                0.19718176               -0.01892887
               4.00473313                8.96735441               67.08982445                0.01000000               -0.24772506               -0.10031064                0.14772823                1.06948218                0.66324416               -0.09312952
               5.00252546                8.97765134               67.09877866                0.01000000               -0.14465432               -0.07322411                0.17179187                1.07662434                1.05211523                0.13902711
               6.00184005                8.98898593               67.11129003                0.01349953               -0.02480662               -0.05154267                0.21147661                0.89414296                1.02765417                0.34337861
               7.00202933                8.99833075               67.11970849                0.01000002                0.08619619               -0.17163745                0.20690537                0.67052169                1.07441052                0.03467249
               8.00356397                9.00560322               67.13322553                0.12868178                0.04897343                0.05858331                0.17616065                0.56153650                0.67523335                0.49572611
               9.00300880                9.00418893               67.13349492                0.98772184               -0.05745868               -0.05741561                0.19179966                0.00236607                0.00568832                0.00948725
              10.00241480                9.00279179               67.13359938                1.00000000               -0.05940026               -0.06099125                0.20547734               -0.00060129               -0.00219048                0.00108081
               0.01839724                9.99253223               67.08416069                0.99678421               -0.04205624               -0.03827023                0.13252053               -0.00078651                0.01738925                0.01754446
               1.01797668                9.98290682               67.08490922                0.99329627               -0.04419623               -0.04256989                0.14693659               -0.00225567                0.02195923                0.00120040
               2.01751332                9.97331240               67.08575181                0.97615079               -0.04846189               -0.04689879                0.16135965               -0.00219134                0.02483981               -0.00540240
               3.01700744                9.96374675               67.08655303                0.27402557               -0.50337058               -0.05143803                0.17529017                0.71375408                0.22597487               -0.00482307
               4.00744591                9.96853253               67.09140528                0.01000000               -0.90691653                0.11781174                0.13655714                0.98132151                0.75575584               -0.07263501
               4.99886911                9.97794763               67.10139484                0.02415358               -0.56763426                0.02962929                0.18555825                0.63474515                1.06123972                0.13207682
               5.99609322                9.98854013               67.11348807                0.08700001               -0.09357498               -0.04457981                0.21870093                0.33243499                0.82919203                0.16545348
               6.99699761                9.99608998               67.11910999                0.11110932                0.44668566               -0.22407691                0.20330684                0.32277362                0.93739763               -0.07733944
               8.00502693               10.00505904               67.13324567                0.62075366                0.37252368               -0.05441752                0.18785311                0.52171205                0.71500135                0.00350450
               9.00444809               10.00359830               67.13357056                1.00000000               -0.06058214               -0.05906341                0.20345584               -0.00124193                0.01400612                0.00300499
              10.00381529               10.00215563               67.13367506                0.99324277               -0.06327943               -0.06361572                0.21713318               -0.00421702                0.00272735               -0.00259880
              -0.07032245               -0.00679826               68.06722310                1.00000000               -0.02747419               -0.02829340                0.09157689                0.00266407               -0.00128921                0.00196443
               0.92940281               -0.01126240               68.06958345                0.73718871               -0.02712187               -0.03114363                0.09605027                0.00165994               -0.00067379               -0.00075766
               1.92913511               -0.01565335               68.07194781                0.27091961               -0.01187177               -0.03127361                0.10138250                0.02292743                0.00857455               -0.00086246
               2.92916537               -0.01950615               68.07446965                0.13687089                0.08557584               -0.02491122                0.10810103                0.14590613                0.00118051               -0.00251512
               3.93084663               -0.01964094               68.07647257                0.16621771                0.09599892               -0.00777470                0.11178662               -0.03500913               -0.02811241               -0.00978519
               4.93108535               -0.01624549               68.07826316                0.30584226               -0.00379714               -0.02979733                0.11071923               -0.01609956               -0.02271670               -0.00178045
               5.93077068               -0.01224752               68.08049254                0.75743637               -0.03319947               -0.03377501                0.11341025                0.00056469                0.00208815               -0.00215723
               6.93042136               -0.00824344               68.08285496                0.99999999               -0.03554619               -0.03529143                0.11818013                0.00058394                0.00978113               -0.00186849
               7.93005976               -0.00423983               68.08524106                0.99249957               -0.03686436               -0.03689881                0.12299029                0.00029090                0.01254888               -0.00223010
               8.92968407               -0.00023532               68.08765564                0.99432588               -0.03828700               -0.03832094                0.12798209                0.00036826                0.01170063                0.00082813
               9.92929402                0.00377068               68.09002074                0.99635999               -0.03900515               -0.03965928                0.13244323                0.00072261                0.00943157                0.00965803
              -0.06583167                0.99291880               68.06838891                0.73311198               -0.03213823               -0.02822714                0.10268520                0.00354092                0.00050256                0.00408021
               0.93384695                0.98842616               68.07074393                0.01000000               -0.03410360               -0.03468902                0.10705978                0.00493715                0.00113642               -0.00054492
               1.93348626                0.98403391               68.07311353                0.01000000               -0.06143618               -0.02095481                0.11040159                0.05461216               -0.00022161                0.02190626
               2.93261823                0.98024473               68.07546158                0.01000000               -0.23100280                0.06463739                0.11258891                0.22313981               -0.05909337                0.03079687
               3.92886620                0.98028132               68.07689153                0.01000000               -0.26952915                0.08634967                0.11680041                0.37498840               -0.09753347                0.07649715
               4.92722764                0.98345654               68.07838947                0.01000000               -0.10454498               -0.00545163                0.11285346                0.39126447               -0.06017261                0.10652876
               5.92677530                0.98741473               68.08046428                0.01000001               -0.04021446               -0.01248395                0.11337220                0.24244686               -0.01813186                0.07808727
               6.92642335                0.99140365               68.08274585                0.46967024               -0.03583465               -0.03526561                0.11785083               -0.00072195               -0.00667797               -0.00952233
               7.92605861                0.99539119               68.08504689                0.98630454               -0.03704259               -0.03679632                0.12262188               -0.00082768               -0.00294602               -0.00433931
               8.92568250                0.99938147               68.08740907                1.00000000               -0.03816817               -0.03819631                0.12708681               -0.00044294                0.00002454               -0.00015603
               9.92529525                1.00337409               68.08977392                0.99185098               -0.03872538               -0.03949084                0.13132146               -0.00000026                0.00015826                0.01159395
              -0.06126634                1.99263720               68.06959015                0.26402881               -0.03472179               -0.00225010                0.11351403                0.04493020                0.00058602                0.03228006
               0.93838644                1.98804381               68.07190914                0.01000000               -0.01624389               -0.07279598                0.11925956                0.06777371                0.02573684                0.01732254
               1.93840878                1.98392755               68.07473015                0.01000001               -0.05028369               -0.05906154                0.12208824                0.29090286                0.03391791                0.07633889
               2.93738076                1.98178659               68.07710824                0.01000000               -0.16370938                0.08365610                0.11801885                0.52764254               -0.01239356                0.09600661
               3.93513459                1.98208606               68.07904864                0.01000000               -0.28017725                0.14688076                0.12122484                0.81950947               -0.05235454                0.17129383
               4.93177722                1.98364548               68.08067274                0.01000001               -0.37310418                0.05055212                0.12374959                0.93385689               -0.07729595                0.21917090
               5.92767251                1.98750280               68.08203790                0.01144116               -0.46733762                0.13505683                0.12525592                0.68240087               -0.13718960                0.18445380
               6.92243047                1.99105125               68.08248038                0.01609566               -0.28035614                0.08264608                0.11848782                0.30309100               -0.10515870                0.09159945
               7.92206538                1.99502425               68.08481135                0.03244825               -0.03690780                0.00057466                0.12251659                0.05452048               -0.01157948               -0.00060368
               8.92169231                1.99900076               68.08714780                0.99999999               -0.03783004               -0.03785781                0.12568989               -0.00057883               -0.00743203               -0.00510927
               9.92130878                2.00298086               68.08957211                0.90629332               -0.03835273               -0.03912734                0.13001951                0.00009254               -0.00312062                0.01133956
              -0.05574630                2.99287380               68.07130107                0.12517288               -0.03416324                0.10684331                0.12666304                0.25547605               -0.00090522                0.19606289
               0.94391206                2.98697024               68.07344655                0.01000000                0.06539205               -0.24064557                0.13225801                0.36161892                0.06291212                0.15655412
               1.94556154                2.98285268               68.07685222                0.01000000                0.05502549               -0.12714242                0.11878657                0.60002192                0.07669875                0.11401401
               2.94501257                2.98191786               68.07923307                0.01000000               -0.10820146               -0.01128177                0.12327562                0.89020250                0.02570268                0.13381179
               3.94339751                2.98321893               68.08156076                0.01200469               -0.22622715                0.02082295                0.12861287                1.01058953                0.00425907                0.16763191
               4.94048803                2.98446758               68.08341731                0.01000000               -0.51899813                0.10806610                0.13337551                1.24726329               -0.06665145                0.22281695
               5.93301755                2.99011587               68.08429993                0.01000001               -0.77621506                0.23477431                0.13658529                1.33563306               -0.16280139                0.30815290
               6.92496373                2.99305657               68.08440177                0.01000000               -0.69090144                0.29612556                0.13653767                1.16420854               -0.20133026                0.40687591
               7.91919952                2.99540268               68.08470368                0.01503482               -0.36247106                0.18271135                0.13177652                0.84271507               -0.10490710                0.30852406
               8.91771431                2.99862432               68.08681392                0.01389950               -0.09313178               -0.09403725                0.12358367                0.71569221               -0.02336785                0.22584239
               9.91733688                3.00259154               68.08933113                0.15673446               -0.03774270               -0.47934925                0.12903729                0.79798944               -0.00302092                0.22295560
              -0.04434970                3.99477406               68.07562656                0.14703494               -0.00103674                0.03308877                0.08735532                0.05326722               -0.01258827                0.25064396
               0.95563994                3.98323090               68.07759405                0.01000000               -0.00943510               -0.19282671                0.09650922                0.54363460               -0.02885219                0.20405918
               1.95546160                3.98138471               68.07922338                0.01000000               -0.04106843               -0.16263710                0.11876582                0.92919145                0.00743653                0.10607122
               2.95481857                3.98156096               68.08164898                0.01200959               -0.13324719               -0.09782002                0.12749702                1.02501512                0.04070743                0.11479533
               3.95279666                3.98250252               68.08376023                0.01000000               -0.24965108               -0.12189950                0.13509927                1.25814695                0.03550060                0.15485468
               4.94982555                3.98580680               68.08605159                0.01000001               -0.35002408                0.08534902                0.14218845                1.61709187                0.04673617                0.26747652
               5.94579618                3.99219829               68.08841552                0.01000001               -0.46988585                0.16876694                0.14905281                1.94978363                0.02750211                0.45443097
               6.94042783                3.99697376               68.09043193                0.01223188               -0.62221170                0.25216645                0.15095120                1.91465698               -0.11752777                0.57522587
               7.93335194                3.99867847               68.09030769                0.01172802               -0.58052674                0.22847734                0.13631201                1.66242672               -0.21563164                0.66893283
               8.92881729                3.99712001               68.09118378                0.01000000               -0.20089094               -0.05879174                0.10871089                1.31921787               -0.14531383                0.77513331
               9.92933412                3.99339388               68.09336620                0.08222932                0.05168292               -0.80457376                0.08335521                1.18231053               -0.11154799                0.83268509
              -0.03159464                4.99353558               68.07846018                0.28720564               -0.02312453               -0.09590186                0.08537208                0.11214688               -0.00577826                0.11099407
               0.96817411                4.98311371               68.08011102                0.01000000               -0.12950227               -0.00612882                0.09783160                0.44307300               -0.02576829                0.04946253
               1.96581531                4.97959994               68.08134756                0.01000001               -0.18895225               -0.20677731                0.11863841                0.91814832               -0.00155656                0.04973238
               2.96439507                4.97996145               68.08347888                0.01000000               -0.07503530               -0.35912077                0.13271400                1.21029111                0.07553177                0.06345180
               3.96431461                4.98078094               68.08619172                0.01000001               -0.06304873               -0.21166845                0.14278367                1.57149000                0.15492774                0.16210180
               4.96313409                4.98617456               68.08976531                0.01000001               -0.17341758               -0.03165054                0.15342834                2.02912421                0.22306866                0.33249996
               5.96084625                4.99349121               68.09372308                0.01211728               -0.31787035                0.00785605                0.16232450                2.09659430                0.13811018                0.44293238
               6.95677669                4.99809990               68.09563609                0.01059210               -0.42722250                0.04432535                0.16332395                1.98211296                0.01140474                0.58451787
               7.95230180                4.99997223               68.09738350                0.01000000               -0.36967117                0.15148516                0.15420585                1.89938190                0.05847821                0.90852296
               8.94938326                4.99744848               68.10078641                0.01000000               -0.19332243                0.15339255                0.14974392                1.42375232                0.13001475                1.22117964
               9.94843536                4.98650007               68.10423164                0.03921154               -0.09479061               -0.30580018                0.15769214                0.90930021                0.14758502                1.21157653
              -0.02126301                5.99285602               68.07999344                0.71394153               -0.02999535               -0.05101258                0.09504719                0.02960867               -0.00569073                0.03106917
               0.97843703                5.98310833               68.08134918                0.01000001               -0.08800838               -0.01536989                0.10690096                0.21906628               -0.00336854               -0.01281088
               1.97697682                5.97724916               68.08274996                0.01144380               -0.02968210               -0.32073150                0.12422644                0.66318260                0.04217347               -0.03562991
               2.97784339                5.97437854               68.08501576                0.01000001                0.05182672               -0.58512781                0.13934546                1.25507538                0.16666747               -0.02566198
               3.97801335                5.97826915               68.08874227                0.01000001               -0.00728142               -0.31521588                0.15240903                1.81184094                0.31668175                0.13090739
               4.97769776                5.98517379               68.09382640                0.01212000               -0.11053159               -0.20942002                0.16445557                2.02153992                0.33208634                0.23563994
               5.97580272                5.99235541               68.09762660                0.01058137               -0.20543455               -0.15635360                0.17206428                2.02153880                0.28884371                0.38187346
               6.97358907                5.99786027               68.10186246                0.01000000               -0.19058607                0.00553301                0.17256069                2.06121928                0.37956115                0.72476191
               7.97199100                6.00170818               68.10762633                0.01000000               -0.14122849                0.22913641                0.18005403                2.00257596                0.51235462                1.19484431
               8.97076450                6.00018786               68.11450976                0.01380425               -0.12870204                0.23838875                0.21623277                1.23759296                0.38267725                1.14730822
               9.96941696                5.98727788               68.11731431                0.01000000               -0.13475424                0.20635544                0.22091132                0.53781030                0.18624005                0.93580218
              -0.01150707                6.99251533               68.08135657                0.99999999               -0.03306233               -0.03420959                0.10484925                0.00339001               -0.00424447                0.02203314
               0.98816230                6.98280631               68.08253275                0.42144322               -0.03420887               -0.03285704                0.11698003                0.00474757               -0.02290435               -0.01400705
               1.98780875                6.97318531               68.08333553                0.01610387                0.01571427               -0.22352168                0.12898693                0.29694193                0.02377815               -0.05684700
               2.98847659                6.96825890               68.08543163                0.01000000                0.09737150               -0.53288574                0.14802399                1.04169034                0.26166775               -0.12724049
               3.98975618                6.97447662               68.09083783                0.01223613                0.05010184               -0.46849397                0.15969619                1.72158610                0.42680652               -0.02235197
               4.98947862                6.98198616               68.09583393                0.01058732               -0.05828151               -0.34779787                0.17113263                1.83289748                0.46957566                0.09873932
               5.98859055                6.99036414               68.10188908                0.01000000               -0.04151601               -0.16646807                0.17675523                1.94543686                0.63137026                0.44602483
               6.98864830                6.99821056               68.11006480                0.01000000                0.07175921                0.08258897                0.18555060                2.02827906                0.86851658                0.92225711
               7.99002573                7.00455495               68.12074224                0.01379993               -0.00414402                0.11589543                0.21537145                1.57099617                0.59164785                0.91139644
               8.98856542                7.00221626               68.12294405                0.01131851               -0.25070989                0.22206497                0.22005085                0.83241694                0.07838638                1.04065548
               9.98501153                6.99062717               68.12317820                0.14473940               -0.35538894                0.79682921                0.22388792                0.40993424               -0.01882757                0.89169736
              -0.00177718                7.99217183               68.08273143                0.99140750               -0.03608252               -0.03539655                0.11441763                0.00167700               -0.00469326                0.02461134
               0.99786200                7.98245119               68.08372747                0.94881872               -0.03798790               -0.03736028                0.12700863                0.00106577               -0.01052995               -0.00691533
               1.99746307                7.97277873               68.08460704                0.03750044               -0.02380565               -0.04211620                0.13974220                0.03032113               -0.02683203               -0.01947258
               2.99738589                7.96372083               68.08526989                0.01503557                0.06273741               -0.27999896                0.14622157                0.71607315                0.21857166               -0.08527442
               3.99871781                7.96889927               68.09083498                0.01173386                0.05411560               -0.45922922                0.16031038                1.45918936                0.53673927               -0.14418801
               4.99846820                7.97821783               68.09757306                0.01000000               -0.01153789               -0.28679178                0.17138075                1.64534831                0.77249776                0.11293004
               5.99848706                7.98902605               68.10738311                0.01000000                0.07478184               -0.09670628                0.18769127                1.71585294                1.09772153                0.52270850
               6.99996383                7.99951205               68.12045591                0.01377762                0.04590857                0.00282891                0.21533310                1.40588055                0.87280702                0.58386711
               7.99940523                8.00402609               68.12544842                0.01071501                0.06883927                0.04964869                0.21251757                0.92230556                0.69833279                0.71919888
               9.00134062                8.00462916               68.13504435                0.12687263                0.06942898                0.09322304                0.17422577                0.67166855                0.46313256                0.60436916
              10.00079381                8.00321446               68.13536812                0.63430468               -0.05468127                0.60039906                0.19016996                0.71895765                0.00045797                0.60092557
               0.00796776                8.99180740               68.08415834                0.99432752               -0.03910342               -0.03753392                0.12379284                0.00146536                0.00084467                0.02204440
               1.00757672                8.98205910               68.08504391                0.99999999               -0.04111148               -0.04083778                0.13684178                0.00003101                0.00067007                0.00023063
               2.00714553                8.97234299               68.08592690                0.89351236               -0.04496072               -0.04497797                0.14999237                0.00014596               -0.00455783               -0.01095546
               3.00667751                8.96265892               68.08670147                0.01419076               -0.13512837               -0.07835870                0.16359986                0.59649795                0.18145466               -0.01342901
               4.00444296                8.96529204               68.09129132                0.01000000               -0.22093517               -0.13737710                0.14695246                1.11882636                0.65572293               -0.11404457
               5.00225881                8.97625032               68.10050302                0.01000000               -0.14147868               -0.08030574                0.17423134                1.15226632                1.07460583                0.14203110
               6.00161339                8.98843001               68.11344309                0.01374234               -0.02464638               -0.05219174                0.21922474                0.95110864                1.03771914                0.36108920
               7.00176588                8.99826714               68.12181467                0.01011600                0.08706722               -0.18086128                0.21504632                0.68121035                1.04482932                0.02983491
               8.00335473                9.00554793               68.13496296                0.12585809                0.05222716                0.04946673                0.17133150                0.56432392                0.65044455                0.47073575
               9.00281042                9.00408072               68.13540161                0.98808398               -0.05673208               -0.05673689                0.18953922                0.00258396                0.00675216                0.01035397
              10.00222009                9.00263516               68.13565426                1.00000000               -0.05903315               -0.06093669                0.20550306               -0.00076277               -0.00218354                0.00196412
               0.01774872                9.99142115               68.08549139                0.99636765               -0.04216910               -0.03862408                0.13355758               -0.00057656                0.01694654                0.01699435
               1.01732703                9.98163443               68.08637750                0.99287723               -0.04412751               -0.04246714                0.14666487               -0.00206925                0.02157165                0.00120261
               2.01686617                9.97187917               68.08735739                0.98815521               -0.04801166               -0.04638210                0.15979831               -0.00197506                0.02425668               -0.00496263
               3.01636679                9.96215365               68.08829117                0.29160094               -0.46816152               -0.05052657                0.17249482                0.68255617                0.19994207               -0.00486056
               4.00750294                9.96615172               68.09277369                0.01000000               -0.89956210                0.08596859                0.13690619                1.02890062                0.74577825               -0.09575768
               4.99837555                9.97661172               68.10324938                0.02424788               -0.60052618                0.03613928                0.18535739                0.70319897                1.09016767                0.13897955
               5.99549241                9.98798222               68.11570505                0.08709071               -0.09527134               -0.04477956                0.22360591                0.35205790                0.83251595                0.17048984
               6.99647012                9.99589482               68.12119566                0.11167166                0.46928573               -0.23723147                0.21544181                0.32208478                0.91503571               -0.08198692
               8.00487813               10.00501542               68.13510948                0.61986167                0.39174735               -0.05325069                0.18491273                0.53231945                0.69748531                0.00347640
               9.00430507               10.00349442               68.13560322                1.00000000               -0.06042268               -0.05862939                0.20307867               -0.00151992                0.01503938                0.00300307
              10.00366967               10.00199573               68.13585590                0.99349216               -0.06353971               -0.06394302                0.21904219               -0.00491146                0.00272254               -0.00259198
              -0.07271301               -0.00800482               69.06813503                1.00000000               -0.02703346               -0.02792355                0.09081864                0.00279895               -0.00029347                0.00103886
               0.92701665               -0.01248311               69.07054050                0.73822906               -0.02624712               -0.03117724                0.09534940                0.00211643                0.00080894               -0.00028271
               1.92676205               -0.01687085               69.07295864                0.27962103               -0.00550911               -0.03102380                0.10073877                0.03057518                0.01140513               -0.00049095
               2.92690647               -0.02054518               69.07554674                0.14900228                0.09451157               -0.02430897                0.10713401                0.15422626                0.00440083               -0.00256960
               3.92865228               -0.02018207               69.07758476                0.17446330                0.09623719               -0.00841002                0.11022815               -0.01816497               -0.03052264               -0.00976844
               4.92883121               -0.01639692               69.07936370                0.30914958               -0.00890439               -0.02926295                0.10880256               -0.00467050               -0.02530870               -0.00153726
               5.92847419               -0.01223773               69.08161988                0.75501457               -0.03536787               -0.03357228                0.11133456                0.00436829                0.00169292               -0.00204918
               6.92812386               -0.00814868               69.08403146                0.99999999               -0.03546968               -0.03505927                0.11637647                0.00074348                0.01069262               -0.00166410
               7.92776480               -0.00406257               69.08646706                0.99249146               -0.03658030               -0.03693191                0.12146633               -0.00020958                0.01385029               -0.00159926
               8.92739225                0.00002598               69.08893420                0.99397318               -0.03797669               -0.03872577                0.12704182               -0.00026494                0.01302904                0.00135362
               9.92700526                0.00412339               69.09134393                0.99593128               -0.03869896               -0.04025745                0.13180585                0.00017335                0.01089929                0.01097601
              -0.06820673                0.99171595               69.06941422                0.73362520               -0.03224331               -0.02751216                0.10233566                0.00402405               -0.00012317                0.00308432
               0.93147084                0.98720512               69.07181327                0.01000000               -0.03472186               -0.03523984                0.10675083                0.00645535               -0.00001711                0.00049354
               1.93109883                0.98281891               69.07421675                0.01000000               -0.06832480               -0.01791538                0.11018377                0.06738267               -0.00275053                0.02193201
               2.93010434                0.97921173               69.07658663                0.01000000               -0.23511656                0.06902001                0.11243328                0.25415102               -0.06231654                0.03143014
               3.92639650                0.97973383               69.07806360                0.01000000               -0.26460000                0.08118671                0.11762378                0.41269349               -0.10291046                0.07555320
               4.92481234                0.98331045               69.07952403                0.01000000               -0.10013762               -0.01459589                0.11425504                0.41785784               -0.06749147                0.11073546
               5.92439375                0.98742655               69.08160114                0.01000001               -0.03843135               -0.01659574                0.11426244                0.25529794               -0.02027962                0.08445932
               6.92404371                0.99150073               69.08392725                0.46204446               -0.03591887               -0.03540248                0.11872351               -0.00050684               -0.00633854               -0.00847938
               7.92367537                0.99556811               69.08627687                0.98574673               -0.03735436               -0.03723046                0.12368807               -0.00174943               -0.00256818               -0.00336017
               8.92329663                0.99963872               69.08868282                1.00000000               -0.03828900               -0.03883907                0.12829693               -0.00137001               -0.00004512               -0.00027003
               9.92290959                1.00372081               69.09108812                0.99142071               -0.03870349               -0.04025049                0.13248025               -0.00066248               -0.00028268                0.01186029
              -0.06361087                1.99144494               69.07072632                0.27215436               -0.03463266                0.00223695                0.11364118                0.05037228                0.00008165                0.03246988
               0.93604280                1.98681209               69.07310252                0.01000000               -0.01430204               -0.07846210                0.11928898                0.07944357                0.02217685                0.01901974
               1.93610308                1.98277084               69.07591772                0.01000001               -0.04841165               -0.05527276                0.11752755                0.31639648                0.02614060                0.07144687
               2.93507457                1.98083522               69.07829405                0.01000000               -0.16478257                0.08719320                0.11772223                0.57263652               -0.01627112                0.09516375
               3.93280743                1.98144167               69.08026155                0.01000000               -0.27894559                0.13917226                0.12099825                0.87048573               -0.05348142                0.17156442
               4.92949565                1.98331116               69.08191800                0.01000001               -0.37087849                0.03400708                0.12482416                0.98102113               -0.07697416                0.22566874
               5.92538986                1.98743036               69.08330724                0.01142876               -0.47617480                0.12879260                0.12822378                0.71756918               -0.14013147                0.19645316
               6.91997216                1.99114327               69.08368108                0.01606920               -0.28990246                0.08264043                0.12272583                0.32483090               -0.11014602                0.10398606
               7.91959181                1.99519282               69.08604831                0.02774697               -0.03800022                0.01010920                0.12657248                0.07021627               -0.01303678                0.00337278
               8.91921215                1.99924920               69.08840847                0.99999999               -0.03819887               -0.03871435                0.12684543               -0.00160413               -0.00957109               -0.00724431
               9.91882784                2.00331838               69.09087311                0.91423062               -0.03843170               -0.03975270                0.13004702               -0.00049823               -0.00401167                0.00997540
              -0.05793360                2.99176069               69.07256913                0.13635784               -0.03325968                0.10973372                0.12670900                0.24362240               -0.00185249                0.17277051
               0.94173381                2.98563588               69.07476936                0.01000000                0.06686141               -0.24573170                0.13201684                0.37073145                0.05297314                0.13413078
               1.94340363                2.98171345               69.07804601                0.01000000                0.05762166               -0.13051669                0.11859610                0.63411756                0.06560170                0.10601046
               2.94288624                2.98095560               69.08046206                0.01000000               -0.10366763               -0.01390039                0.12186413                0.93268184                0.02490122                0.13144213
               3.94133028                2.98251728               69.08284840                0.01200891               -0.22210846                0.01362715                0.12777778                1.05770780                0.00669350                0.16927957
               4.93844407                2.98399059               69.08475788                0.01000000               -0.52086319                0.09889364                0.13378155                1.29721069               -0.06200748                0.22771891
               5.93091302                2.99000240               69.08569315                0.01000001               -0.78331024                0.22915316                0.14139999                1.38303327               -0.15339112                0.31865619
               6.92277787                2.99315354               69.08583831                0.01000000               -0.69696228                0.29786381                0.14994011                1.20583884               -0.19221093                0.42428207
               7.91697377                2.99577030               69.08601103                0.01518755               -0.38194379                0.19240115                0.14539225                0.84679421               -0.09865193                0.32723151
               8.91513899                2.99886444               69.08804999                0.01494539               -0.11062482               -0.06757268                0.12197878                0.68761117               -0.03107468                0.21779251
               9.91476127                3.00292576               69.09062229                0.16556924               -0.03777169               -0.45248493                0.12710045                0.76461097               -0.00156381                0.20056248
              -0.04648881                3.99363961               69.07652230                0.15376602               -0.00065317                0.03267038                0.09169768                0.05418789               -0.01256586                0.21794451
               0.95350466                3.98189746               69.07857275                0.01000000               -0.00227383               -0.19782172                0.09923006                0.55988980               -0.02322040                0.17793579
               1.95346572                3.98016050               69.08040726                0.01000000               -0.02901418               -0.17079468                0.11772626                0.96614486                0.01407521                0.09755114
               2.95292438                3.98055722               69.08292015                0.01201282               -0.12695588               -0.10354489                0.12593849                1.06788913                0.04278878                0.11300811
               3.95092660                3.98171421               69.08511140                0.01000000               -0.24848166               -0.13126062                0.13404822                1.30459783                0.03904328                0.15696969
               4.94795474                3.98528903               69.08748414                0.01000001               -0.35195104                0.08017673                0.14299390                1.67180065                0.05409751                0.27290496
               5.94388758                3.99201342               69.08993944                0.01000001               -0.48168516                0.16454979                0.15454447                2.00933712                0.03844584                0.46273685
               6.93832104                3.99710055               69.09199631                0.01227668               -0.65353879                0.25292331                0.16413509                1.96565737               -0.11339530                0.58309677
               7.93081680                3.99904085               69.09173933                0.01186005               -0.62560614                0.23091552                0.15419264                1.70684950               -0.23260937                0.68513110
               8.92580892                3.99789775               69.09229132                0.01000000               -0.24096933               -0.04437771                0.12013095                1.36753501               -0.17224720                0.79171683
               9.92599741                3.99426868               69.09421074                0.01000000                0.01884970               -0.81552759                0.08687112                1.22258490               -0.14268830                0.84559415
              -0.03336553                4.99241409               69.07931974                0.28952470               -0.02237564               -0.09859453                0.08663530                0.11426870               -0.00567684                0.10418795
               0.96641071                4.98167944               69.08108610                0.01000000               -0.12838467               -0.00890104                0.09723504                0.46727267               -0.02105186                0.04343806
               1.96406677                4.97829756               69.08252982                0.01000001               -0.18601975               -0.21498337                0.11723870                0.96276487                0.00668313                0.04453838
               2.96269032                4.97888470               69.08480244                0.01000000               -0.06881772               -0.37153559                0.13099536                1.25700271                0.08065925                0.06307776
               3.96269042                4.97989207               69.08762044                0.01000001               -0.05547220               -0.22356199                0.14185319                1.62582909                0.16057623                0.16670540
               4.96158087                4.98559412               69.09131381                0.01000001               -0.17010906               -0.04034732                0.15453283                2.09957793                0.23184693                0.33966834
               5.95928824                4.99329340               69.09537830                0.01216525               -0.32586415                0.00287358                0.16719108                2.16910106                0.14703764                0.44870454
               6.95506359                4.99821201               69.09732097                0.01067554               -0.44873375                0.03813834                0.17389778                2.05721053                0.01459950                0.58757507
               7.95031356                5.00038861               69.09897947                0.01000000               -0.39008648                0.14464841                0.16909630                1.98670122                0.06040908                0.92248580
               8.94726186                4.99797688               69.10233036                0.01000000               -0.19212272                0.13189273                0.16438032                1.50887931                0.13966864                1.26878308
               9.94647111                4.98661521               69.10582416                0.03928818               -0.07907504               -0.35703044                0.16484609                0.98839893                0.16200378                1.27376086
              -0.02273413                5.99166772               69.08094784                0.70951179               -0.02992210               -0.05495216                0.09584277                0.03417154               -0.00548310                0.03045429
               0.97696665                5.98171944               69.08241361                0.01000001               -0.08750563               -0.01258590                0.10596231                0.23331777               -0.00006251               -0.01326266
               1.97551576                5.97586084               69.08398598                0.01143661               -0.02483617               -0.33279035                0.12226219                0.69388227                0.04886659               -0.03849997
               2.97646992                5.97312650               69.08640598                0.01000001                0.06090003               -0.60116649                0.13699520                1.29894407                0.17266269               -0.02126012
               3.97673376                5.97724297               69.09027354                0.01000001                0.00375227               -0.33488793                0.15237602                1.87224970                0.32278047                0.13806517
               4.97654497                5.98448208               69.09548978                0.01216116               -0.10410207               -0.22517477                0.16659044                2.09266319                0.33724118                0.24298470
               5.97465171                5.99207089               69.09937370                0.01067578               -0.20874637               -0.16813264                0.17570353                2.09169249                0.29012747                0.38416286
               6.97237004                5.99786332               69.10361498                0.01000000               -0.19328831               -0.00556752                0.17664881                2.13304914                0.38366549                0.72563176
               7.97078595                6.00193382               69.10946419                0.01000000               -0.13050677                0.21574401                0.18750321                2.09163057                0.53856890                1.21151823
               8.96975991                6.00053560               69.11672198                0.01406651               -0.11486010                0.21592499                0.22792888                1.30209862                0.41007461                1.16801238
               9.96848875                5.98712807               69.11954438                0.01000000               -0.12711596                0.19330456                0.22636747                0.56425483                0.19539249                0.96100840
              -0.01278554                6.99131505               69.08240927                1.00000000               -0.03305130               -0.03512713                0.10570286                0.00385193               -0.00405070                0.02132168
               0.98688395                6.98142772               69.08369894                0.41049010               -0.03385546               -0.03211366                0.11625530                0.00583292               -0.02271992               -0.01375008
               1.98653736                6.97164175               69.08461488                0.01606855                0.02015558               -0.23094921                0.12707770                0.31395107                0.02866218               -0.05850384
               2.98728706                6.96686137               69.08691837                0.01000000                0.11212383               -0.54383701                0.14773592                1.07533747                0.26875231               -0.12130049
               3.98877983                6.97319431               69.09245483                0.01228018                0.06595748               -0.50207402                0.16406956                1.76867938                0.42970112               -0.01753476
               4.98860621                6.98109063               69.09757091                0.01067481               -0.05194882               -0.37402282                0.17581096                1.90307169                0.46877305                0.10304951
               5.98774086                6.98993075               69.10367134                0.01000000               -0.03722809               -0.17998753                0.17832868                2.01598340                0.62851934                0.45134195
               6.98786165                6.99810066               69.11193292                0.01000000                0.08665175                0.07934455                0.18664338                2.09990008                0.87957620                0.93499521
               7.98947389                7.00470349               69.12291909                0.01410281                0.01239634                0.10584085                0.21881330                1.62206846                0.60445485                0.91284843
               8.98810958                7.00229538               69.12517130                0.01165997               -0.24513103                0.19204138                0.22477523                0.84750921                0.07883621                1.00140863
               9.98457127                6.99048130               69.12543804                0.14589022               -0.35383077                0.78949202                0.22806193                0.41388697               -0.01818623                0.86725550
              -0.00288244                7.99096518               69.08388007                0.99123681               -0.03609557               -0.03595940                0.11531912                0.00174763               -0.00454706                0.02362291
               0.99675660                7.98107717               69.08499495                0.94824655               -0.03782134               -0.03703120                0.12651090                0.00134405               -0.01029067               -0.00680572
               1.99636113                7.97124185               69.08599518                0.03230950               -0.01662425               -0.04149071                0.13790359                0.04208597               -0.02845882               -0.01821557
               2.99642412                7.96224976               69.08674008                0.01518077                0.07584771               -0.29450497                0.15662184                0.72086083                0.22394267               -0.07666671
               3.99787809                7.96720149               69.09246247                0.01186056                0.07229232               -0.50297483                0.16693613                1.50090372                0.54238109               -0.15302359
               4.99786996                7.97700163               69.09930808                0.01000000                0.00416343               -0.31374936                0.17868714                1.72646217                0.77335209                0.11674007
               5.99796135                7.98847114               69.10928278                0.01000000                0.08626685               -0.10224841                0.19120279                1.79952531                1.10444637                0.54611564
               6.99959530                7.99945021               69.12262632                0.01407172                0.05356181                0.00435194                0.21764302                1.45619410                0.87065937                0.59471536
               7.99903259                8.00405063               69.12758780                0.01105105                0.06684903                0.03266883                0.21423123                0.92191234                0.66236625                0.68174625
               9.00093228                8.00437643               69.13676545                0.12531671                0.06810331                0.07708802                0.17000563                0.66051238                0.43366906                0.57272575
              10.00039466                8.00291791               69.13726002                0.63561909               -0.05376249                0.59309967                0.18821136                0.71887617                0.00039479                0.57619072
               0.00702545                8.99059586               69.08540076                0.99394777               -0.03912854               -0.03795792                0.12471090                0.00144303                0.00086644                0.02113244
               1.00663416                8.98068710               69.08641023                0.99999999               -0.04094835               -0.04067367                0.13639409                0.00007932                0.00075521                0.00020237
               2.00620648                8.97081194               69.08741887                0.90512568               -0.04447588               -0.04448345                0.14840509                0.00039116               -0.00415485               -0.01021373
               3.00574464                8.96097127               69.08832437                0.01523109               -0.10802184               -0.08898074                0.16129371                0.57443688                0.16812189               -0.01030770
               4.00404604                8.96313481               69.09276350                0.01000000               -0.19394192               -0.17744283                0.15133462                1.16847712                0.65065343               -0.13332754
               5.00186580                8.97481564               69.10226329                0.01000000               -0.13816295               -0.08835611                0.18086446                1.23110518                1.09848494                0.15106462
               6.00128278                8.98788578               69.11567452                0.01400384               -0.02298794               -0.05225662                0.22791410                1.01039787                1.04492148                0.38299906
               7.00140604                8.99818769               69.12400942                0.01038440                0.08515675               -0.18809775                0.22228246                0.68848396                1.00458014                0.03033203
               8.00298592                9.00535687               69.13665216                0.12263616                0.05232519                0.03924483                0.16657304                0.55929713                0.61780075                0.44097519
               9.00245255                9.00383714               69.13728570                0.98839524               -0.05600423               -0.05606443                0.18729001                0.00283010                0.00795359                0.01126325
              10.00186583                9.00234329               69.13770944                1.00000000               -0.05867160               -0.06087021                0.20555085               -0.00089902               -0.00217774                0.00290187
               0.01696394                9.99020602               69.08683184                0.99593253               -0.04218303               -0.03898407                0.13453090               -0.00038311                0.01640957                0.01631267
               1.01654211                9.98026369               69.08784252                0.99246771               -0.04395790               -0.04234076                0.14624154               -0.00189658                0.02104185                0.00119424
               2.01608478                9.97035218               69.08894777                1.00000000               -0.04760651               -0.04597544                0.15833255               -0.00184653                0.02356196               -0.00436250
               3.01558998                9.96047015               69.09000293                0.31130320               -0.43407633               -0.05011217                0.17011650                0.64955654                0.17609386               -0.00456058
               4.00740326                9.96365263               69.09414341                0.01000000               -0.89244408                0.05178230                0.13495405                1.07393959                0.73640599               -0.11625427
               4.99774110                9.97523451               69.10510199                0.02447969               -0.63030004                0.04188663                0.18681211                0.77619856                1.12016985                0.14974556
               5.99479726                9.98742601               69.11796019                0.08720855               -0.09236037               -0.04597668                0.22814847                0.37413487                0.83903760                0.17605732
               6.99589389                9.99568825               69.12341882                0.11196797                0.48859135               -0.24994408                0.22664416                0.31926072                0.88576292               -0.07998952
               8.00456908               10.00483553               69.13694392                0.61862653                0.40542825               -0.05213364                0.18204209                0.53666105                0.67059884                0.00341830
               9.00400246               10.00325514               69.13763214                1.00000000               -0.06023515               -0.05820027                0.20272056               -0.00176022                0.01621032                0.00299901
              10.00336438               10.00170051               69.13805590                0.99374764               -0.06380772               -0.06427853                0.22098117               -0.00560865                0.00271469               -0.00258738
              -0.07513925               -0.00933585               70.06903947                1.00000000               -0.02653711               -0.02749496                0.09008907                0.00292570                0.00063767                0.00017798
               0.92459538               -0.01381361               70.07149044                0.73948025               -0.02518917               -0.03123919                0.09463997                0.00269277                0.00222228                0.00013471
               1.92435697               -0.01817939               70.07396259                0.28936221                0.00159423               -0.03071420                0.10002031                0.03890694                0.01395045               -0.00016546
               2.92462726               -0.02163732               70.07661233                0.16232755                0.10311252               -0.02366574                0.10582098                0.15904883                0.00648387               -0.00273266
               3.92641922               -0.02079398               70.07867713                0.18359792                0.09583959               -0.00904275                0.10802801               -0.00284165               -0.03436284               -0.00954884
               4.92654405               -0.01659690               70.08043921                0.31296223               -0.01412142               -0.02861540                0.10593406                0.00676885               -0.02845665               -0.00137683
               5.92613679               -0.01225102               70.08271923                0.75235378               -0.03780099               -0.03324165                0.10787972                0.00939929                0.00123488               -0.00201488
               6.92578803               -0.00806831               70.08518249                0.99999999               -0.03513831               -0.03472497                0.11295078                0.00126219                0.01188512               -0.00138417
               7.92543402               -0.00389143               70.08767039                0.99238034               -0.03601245               -0.03658380                0.11817393               -0.00009299                0.01559073               -0.00057587
               8.92506779                0.00029451               70.09019648                0.99360701               -0.03707335               -0.03927058                0.12351782               -0.00008231                0.01503633                0.00245087
               9.92469255                0.00450181               70.09265686                0.99549631               -0.03752310               -0.04196936                0.12849131               -0.00062642                0.01298793                0.01289060
              -0.07063224                0.99038920               70.07043563                0.73443300               -0.03236857               -0.02662322                0.10189730                0.00458748               -0.00072731                0.00220044
               0.92904407                0.98587400               70.07287894                0.01000000               -0.03549347               -0.03591397                0.10631762                0.00837346               -0.00111745                0.00142730
               1.92865789                0.98151347               70.07531721                0.01000000               -0.07595145               -0.01466899                0.10984735                0.08175603               -0.00520997                0.02062102
               2.92752504                0.97812603               70.07771024                0.01000000               -0.23936501                0.07258748                0.11227855                0.28431917               -0.06458979                0.03065579
               3.92387059                0.97911559               70.07924401                0.01000000               -0.25923894                0.07632607                0.11839844                0.45063622               -0.10685059                0.07272552
               4.92234027                0.98311695               70.08067457                0.01000000               -0.09520504               -0.02390507                0.11596969                0.44744754               -0.07488375                0.11227014
               5.92196649                0.98741656               70.08274953                0.01000001               -0.03597037               -0.02045578                0.11559326                0.27187467               -0.02297918                0.08947294
               6.92162086                0.99158444               70.08512032                0.45354097               -0.03574050               -0.03558829                0.12021086                0.00123103               -0.00603829               -0.00725519
               7.92125168                0.99574273               70.08752065                0.98509436               -0.03752572               -0.03755151                0.12515163               -0.00196942               -0.00143702               -0.00140693
               8.92087034                0.99990180               70.08997501                1.00000000               -0.03863431               -0.04029027                0.13075494               -0.00261560                0.00059964               -0.00013438
               9.92047899                1.00408211               70.09242352                0.99098539               -0.03913511               -0.04278030                0.13607106               -0.00163307               -0.00075312                0.01271952
              -0.06601711                1.99013168               70.07186297                0.28139591               -0.03443142                0.00720178                0.11357449                0.05606358               -0.00039686                0.03252911
               0.93363858                1.98546811               70.07429492                0.01000000               -0.01214143               -0.08456857                0.11902934                0.09230590                0.01755972                0.02018083
               1.93374006                1.98152723               70.07708070                0.01000001               -0.04635283               -0.05150565                0.11524591                0.34346511                0.01907535                0.06606797
               2.93271152                1.97981443               70.07946268                0.01000000               -0.16495220                0.08972851                0.11550755                0.61942385               -0.01961953                0.09162443
               3.93044102                1.98073254               70.08146860                0.01000000               -0.27597395                0.13195368                0.11964367                0.92377686               -0.05342314                0.16784968
               4.92719204                1.98292500               70.08316923                0.01000001               -0.36671119                0.01694324                0.12474377                1.03350893               -0.07507655                0.22785410
               5.92310679                1.98733986               70.08460237                0.01141161               -0.48527798                0.12201203                0.12981870                0.75988639               -0.14047666                0.20658923
               6.91748648                1.99121992               70.08493490                0.01601742               -0.30147647                0.08212755                0.12796840                0.35992275               -0.11322098                0.11835557
               7.91707726                1.99535754               70.08734280                0.02276957               -0.04051941                0.02567778                0.13422891                0.10159530               -0.01412375                0.01806642
               8.91667609                1.99948871               70.08968471                0.99999999               -0.03889951               -0.04022468                0.13078804               -0.00500655               -0.01266250               -0.01149053
               9.91629927                2.00364620               70.09217305                0.92384229               -0.03768185               -0.04084766                0.13111973               -0.00015034               -0.00849546                0.00786121
              -0.06018383                2.99053323               70.07383525                0.14879374               -0.03215246                0.11253259                0.12622207                0.23070001               -0.00280941                0.15130990
               0.93949464                2.98418263               70.07608689                0.01000000                0.06823525               -0.24976149                0.13118171                0.38010585                0.04266260                0.11278319
               1.94118087                2.98048336               70.07922414                0.01000000                0.06067825               -0.13376577                0.11655483                0.66968018                0.05388140                0.09691261
               2.94070821                2.97992060               70.08167036                0.01000000               -0.09726573               -0.01668440                0.11900027                0.97649984                0.02395838                0.12716215
               3.93923556                2.98175467               70.08411631                0.01202396               -0.21525405                0.00686592                0.12447630                1.10538678                0.00952706                0.16753694
               4.93640313                2.98345581               70.08609294                0.01000000               -0.51831302                0.08919857                0.13177930                1.34947753               -0.05439385                0.22907484
               5.92886930                2.98985680               70.08712793                0.01000001               -0.78007475                0.22140106                0.14336207                1.43586527               -0.13599927                0.32707899
               6.92080163                2.99322699               70.08740057                0.01000000               -0.69272492                0.29665596                0.15758569                1.26365193               -0.16377957                0.44332407
               7.91501480                2.99625629               70.08761152                0.01535064               -0.41600401                0.20275594                0.18240108                0.85989002               -0.07879941                0.34940576
               8.91248155                2.99909731               70.08925350                0.01606972               -0.14269036               -0.04073636                0.11660994                0.66168619               -0.04978289                0.21888668
               9.91216099                3.00326516               70.09187314                0.17495098               -0.03205598               -0.42711526                0.12230915                0.73389793               -0.00494417                0.17897457
              -0.04870190                3.99238233               70.07746051                0.16147694               -0.00075254                0.03302846                0.09566600                0.05620190               -0.01241767                0.18608770
               0.95129057                3.98047288               70.07957865                0.01000000                0.00488017               -0.20205106                0.10185441                0.57589663               -0.01866879                0.15105959
               1.95139570                3.97885192               70.08157791                0.01000000               -0.01601837               -0.17856810                0.11592322                1.00298116                0.01891305                0.08767935
               2.95097020                3.97948075               70.08416775                0.01201262               -0.11910819               -0.10917049                0.12252310                1.11136834                0.04490808                0.10935738
               3.94901354                3.98086986               70.08644120                0.01000000               -0.24453719               -0.14008819                0.13064295                1.35037146                0.04410490                0.15631362
               4.94607946                3.98470897               70.08891147                0.01000001               -0.34803050                0.07532348                0.14051161                1.72540346                0.06544634                0.27554472
               5.94205293                3.99176788               70.09150641                0.01000001               -0.48597145                0.15871202                0.15514404                2.06773081                0.06124399                0.46722989
               6.93636003                3.99715304               70.09371463                0.01230987               -0.68240926                0.25028703                0.17706610                2.01553262               -0.08632468                0.58576094
               7.92840474                3.99941266               70.09339154                0.01198137               -0.67295430                0.22203972                0.18459077                1.75033685               -0.22540769                0.68559860
               8.92290094                3.99867398               70.09358640                0.01000000               -0.28816040               -0.03519112                0.15937115                1.42708139               -0.18220502                0.82245060
               9.92264153                3.99510390               70.09510362                0.01000000               -0.02594117               -0.83117630                0.09817933                1.26933355               -0.15072357                0.84386831
              -0.03524089                4.99119380               70.08019288                0.29252521               -0.02161112               -0.10033771                0.08799575                0.11466529               -0.00546459                0.09539117
               0.96454300                4.98014161               70.08205572                0.01000000               -0.12632355               -0.01213266                0.09684988                0.49126321               -0.01598149                0.03551737
               1.96223264                4.97691199               70.08369234                0.01000001               -0.18126834               -0.22289085                0.11528603                1.00808278                0.01478025                0.03722437
               2.96091763                4.97773719               70.08609879                0.01000000               -0.06089379               -0.38216674                0.12789885                1.30398917                0.08573288                0.06034535
               3.96101476                4.97895290               70.08902878                0.01000001               -0.04522256               -0.23368974                0.13818627                1.67983580                0.16727689                0.16935381
               4.96001318                4.98496228               70.09285597                0.01000001               -0.16174561               -0.04662942                0.15068070                2.16705549                0.24420738                0.34518667
               5.95777985                4.99303104               70.09706690                0.01222747               -0.32728355               -0.00111256                0.16585226                2.23487951                0.16596836                0.44979166
               6.95346751                4.99823273               70.09911404                0.01076997               -0.46396250                0.03039547                0.18135955                2.12389508                0.03730293                0.57910311
               7.94850060                5.00069708               70.10076543                0.01000000               -0.40677814                0.12931318                0.18672434                2.07057021                0.08909977                0.91831382
               8.94533194                4.99839349               70.10407401                0.01000000               -0.19063857                0.10165935                0.19369849                1.59647032                0.17841955                1.29291531
               9.94468783                4.98664164               70.10752856                0.03920315               -0.06441172               -0.41098676                0.19015501                1.07673789                0.19691843                1.31213173
              -0.02430421                5.99037558               70.08191029                0.70530644               -0.02981443               -0.05921372                0.09658732                0.03913836               -0.00516657                0.02933669
               0.97539764                5.98023023               70.08346842                0.01000001               -0.08670051               -0.00958220                0.10497933                0.24889076                0.00335692               -0.01387641
               1.97396178                5.97439410               70.08519520                0.01140910               -0.01942841               -0.34529822                0.11929233                0.72685544                0.05430737               -0.04307488
               2.97500908                5.97183741               70.08775566                0.01000001                0.07116885               -0.61192017                0.13104907                1.34480154                0.17972844               -0.02096832
               3.97538515                5.97619607               70.09178979                0.01000001                0.01666790               -0.35079528                0.14832813                1.93109381                0.33155194                0.14783131
               4.97534243                5.98377638               70.09715821                0.01222245               -0.09525416               -0.23667155                0.16295110                2.15869808                0.34449573                0.25348074
               5.97348007                5.99174563               70.10114067                0.01078079               -0.20852724               -0.17745766                0.17347932                2.15018167                0.29464502                0.38334634
               6.97117189                5.99776095               70.10539544                0.01000000               -0.19123439               -0.01667999                0.17560445                2.18889330                0.39543420                0.71658782
               7.96965538                6.00199892               70.11137639                0.01000000               -0.11430449                0.19956130                0.19233549                2.16610365                0.57927867                1.21003920
               8.96888580                6.00070717               70.11906833                0.01437558               -0.09876934                0.19037313                0.23976244                1.35882443                0.44717089                1.16857507
               9.96768000                5.98688416               70.12184166                0.01000000               -0.12058018                0.18075077                0.23253728                0.58902478                0.20602396                0.97864191
              -0.01416743                6.99000953               70.08347063                1.00000000               -0.03302797               -0.03613895                0.10649275                0.00436082               -0.00382634                0.02045934
               0.98550229                6.97994997               70.08485785                0.39900311               -0.03350034               -0.03132224                0.11551392                0.00699652               -0.02216055               -0.01325321
               1.98516257                6.97000603               70.08587708                0.01601671                0.02546988               -0.23918371                0.12557274                0.33678960                0.03457992               -0.05960068
               2.98601169                6.96549878               70.08838635                0.01000000                0.12675481               -0.55279615                0.13802666                1.11596708                0.27793498               -0.10730073
               3.98769766                6.97193700               70.09411922                0.01231794                0.08129427               -0.53329738                0.16660603                1.81711759                0.43599661               -0.00326872
               4.98763758                6.98022885               70.09935015                0.01077192               -0.04493725               -0.39580679                0.17685690                1.96586912                0.46408728                0.11943589
               5.98679892                6.98948189               70.10545565                0.01000000               -0.03227482               -0.19002270                0.17466457                2.07239743                0.62167263                0.45891799
               6.98699208                6.99789913               70.11379767                0.01000000                0.10387687                0.07844560                0.18288321                2.15532691                0.89148028                0.94417065
               7.98887645                7.00468831               70.12511851                0.01444568                0.03155577                0.09645067                0.21880155                1.65799291                0.62030118                0.90580654
               8.98762319                7.00220095               70.12743955                0.01204009               -0.23810623                0.16310534                0.22653542                0.85121643                0.08068463                0.94841213
               9.98411433                6.99025665               70.12773944                0.14655942               -0.35088648                0.77913569                0.23107534                0.41219901               -0.01680806                0.83631094
              -0.00409787                7.98965280               70.08503781                0.99102818               -0.03610565               -0.03656281                0.11624461                0.00177769               -0.00428760                0.02252765
               0.99554107                7.97960379               70.08625769                0.94759942               -0.03766888               -0.03671959                0.12607023                0.00145231               -0.00997684               -0.00658976
               1.99514875                7.96961042               70.08736511                0.02850046               -0.00718129               -0.04099541                0.13633615                0.05817099               -0.01882030               -0.01678767
               2.99539745                7.96078149               70.08840232                0.01535317                0.09243427               -0.31544306                0.16884790                0.73016624                0.23744312               -0.05055194
               3.99699744                7.96553012               70.09417370                0.01199412                0.08587404               -0.54962222                0.18399030                1.54491067                0.53311473               -0.15243256
               4.99711493                7.97586025               70.10114680                0.01000000                0.01301538               -0.33755706                0.18481289                1.80474825                0.76449577                0.13986819
               5.99725774                7.98794518               70.11120717                0.01000000                0.09785386               -0.10346492                0.19160841                1.87181913                1.09970291                0.57990666
               6.99907200                7.99932986               70.12480877                0.01441643                0.06278369                0.00910753                0.21629509                1.49352631                0.86421164                0.60698507
               7.99851342                8.00392794               70.12973304                0.01144319                0.06348908                0.01615008                0.21273635                0.90987108                0.62149396                0.63811046
               9.00034179                8.00396927               70.13844446                0.12339059                0.06495802                0.06191743                0.16595204                0.64139800                0.40070910                0.53599135
               9.99981258                8.00246688               70.13913235                0.63656032               -0.05292074                0.58203283                0.18643310                0.71049719                0.00028520                0.54752736
               0.00596616                8.98927827               70.08665256                0.99358015               -0.03924401               -0.03837769                0.12560072                0.00140116                0.00084681                0.02009815
               1.00557372                8.97921557               70.08777179                0.99999999               -0.04089360               -0.04050301                0.13603488               -0.00006462                0.00093176                0.00011292
               2.00514828                8.96918612               70.08889500                0.92581257               -0.04391985               -0.04381536                0.14636771                0.00012989               -0.00316370               -0.00920883
               3.00469532                8.95918992               70.08992735                0.01637701               -0.08155855               -0.10380749                0.15705766                0.55270120                0.16101721               -0.01759845
               4.00351711                8.96094455               70.09431801                0.01000000               -0.16889179               -0.22316447                0.17035313                1.22111744                0.65909737               -0.14167314
               5.00131748                8.97347771               70.10412031                0.01000000               -0.13757133               -0.09655064                0.19928979                1.31576362                1.10493537                0.18113146
               6.00076569                8.98741259               70.11800137                0.01430818               -0.02188195               -0.05065721                0.23557393                1.06510763                1.03867462                0.41301861
               7.00087984                8.99808128               70.12626032                0.01070915                0.08343887               -0.19268141                0.22447928                0.68641830                0.95072944                0.03238413
               8.00243446                9.00501131               70.13829442                0.11901740                0.05161859                0.02861631                0.16195487                0.54606964                0.57891280                0.40764511
               9.00191222                9.00343930               70.13914741                0.98868257               -0.05526989               -0.05538671                0.18505403                0.00307540                0.00923272                0.01221010
              10.00132907                9.00189731               70.13976527                1.00000000               -0.05831496               -0.06079127                0.20562792               -0.00100639               -0.00217341                0.00390328
               0.01605555                9.98888525               70.08818200                0.99548067               -0.04236175               -0.03930239                0.13528974               -0.00021296                0.01566102                0.01555930
               1.01563193                9.97879373               70.08930233                0.99207687               -0.04392738               -0.04218472                0.14585209               -0.00173510                0.02064710                0.00108129
               2.01517700                9.96873412               70.09052404                0.96765724               -0.04694471               -0.04520041                0.15607158               -0.00154783                0.02332651               -0.00357230
               3.01469304                9.95870534               70.09169350                0.32654770               -0.40225022               -0.04845845                0.16587616                0.61640740                0.15201261               -0.00426118
               4.00713200                9.96106683               70.09547277                0.01000000               -0.88654357                0.01222755                0.12780291                1.12268318                0.72190280               -0.12081081
               4.99696217                9.97392924               70.10698562                0.02485045               -0.65878334                0.04515247                0.20319841                0.85772829                1.13481320                0.17700679
               5.99395633                9.98693203               70.12026802                0.08728105               -0.08802587               -0.04805565                0.23277481                0.39641408                0.84256581                0.18274122
               6.99520165                9.99547623               70.12572854                0.11200978                0.50602299               -0.26050459                0.23208497                0.31059190                0.84664439               -0.07592848
               8.00407679               10.00450026               70.13875032                0.61709372                0.41578249               -0.05110477                0.17932554                0.53349774                0.63690756                0.00333377
               9.00351730               10.00286154               70.13965763                1.00000000               -0.06001767               -0.05777623                0.20238613               -0.00195254                0.01745982                0.00299509
              10.00287644               10.00125105               70.14027552                0.99400602               -0.06408618               -0.06462575                0.22296017               -0.00631187                0.00270656               -0.00258160
              -0.07760219               -0.01079356               71.06993681                1.00000000               -0.02598254               -0.02699812                0.08940769                0.00304134                0.00147546               -0.00059260
               0.92213798               -0.01525743               71.07243330                0.74099422               -0.02393214               -0.03133869                0.09393840                0.00339951                0.00352287                0.00047506
               1.92191917               -0.01958341               71.07495904                0.30020821                0.00918096               -0.03033764                0.09924468                0.04750503                0.01604224                0.00010495
               2.92232160               -0.02279566               71.07766316                0.17683814                0.11094825               -0.02298470                0.10424791                0.16024450                0.00704546               -0.00298647
               3.92413813               -0.02150680               71.07974532                0.19360197                0.09491909               -0.00963261                0.10567022                0.01072744               -0.04005399               -0.00923462
               4.92421999               -0.01689517               71.08148238                0.31733502               -0.01912623               -0.02789942                0.10281795                0.01732558               -0.03305421               -0.00133852
               5.92375561               -0.01233862               71.08377748                0.74936300               -0.04047911               -0.03285170                0.10370657                0.01543886               -0.00040618               -0.00203189
               6.92341040               -0.00805201               71.08629047                0.99999999               -0.03464918               -0.03447703                0.10851764                0.00234179                0.01194878               -0.00112099
               7.92306262               -0.00377462               71.08883054                0.99222632               -0.03519507               -0.03578272                0.11330704                0.00142831                0.01553205               -0.00053408
               8.92270650                0.00051793               71.09140456                0.99324036               -0.03591838               -0.03701303                0.11782274                0.00104942                0.01493644                0.00417325
               9.92234426                0.00484788               71.09391375                0.99505444               -0.03622454               -0.03888659                0.12294267               -0.00167997                0.01286358                0.01609708
              -0.07310791                0.98893646               71.07145216                0.73551212               -0.03251835               -0.02552684                0.10135789                0.00524783               -0.00128843                0.00145829
               0.92656690                0.98442919               71.07393962                0.01000000               -0.03643752               -0.03674055                0.10574512                0.01075203               -0.00212099                0.00220997
               1.92616333                0.98011322               71.07641370                0.01000000               -0.08405791               -0.01156615                0.10936421                0.09714811               -0.00747864                0.01823346
               2.92488574                0.97697449               71.07883220                0.01000000               -0.24340870                0.07516283                0.11204663                0.31281656               -0.06566515                0.02785975
               3.92129516                0.97839688               71.08043157                0.01000000               -0.25382969                0.07165780                0.11894318                0.48728184               -0.10906372                0.06705894
               4.91980915                0.98282584               71.08184343                0.01000000               -0.09033729               -0.03274820                0.11768939                0.47881792               -0.08202988                0.10982794
               5.91948842                0.98733287               71.08391301                0.01000001               -0.03286645               -0.02388231                0.11719026                0.29182178               -0.02624437                0.09106891
               6.91915182                0.99160322               71.08633147                0.44414538               -0.03482397               -0.03589299                0.12195824                0.00457967               -0.00633077               -0.00747132
               7.91879194                0.99586756               71.08877990                0.98431334               -0.03730362               -0.03810524                0.12718784                0.00207419               -0.00057190                0.00036466
               8.91840575                1.00014780               71.09129792                1.00000000               -0.03972125               -0.03885140                0.13211813                0.00068056                0.00222502               -0.00234353
               9.91799751                1.00445901               71.09380954                0.99059730               -0.04082377               -0.04109493                0.13755031               -0.00202918                0.00067323                0.00845867
              -0.06848270                1.98869590               71.07299781                0.29177735               -0.03410371                0.01264436                0.11326529                0.06192842               -0.00083314                0.03237783
               0.93117627                1.98400776               71.07548311                0.01000000               -0.01002388               -0.09106901                0.11844812                0.10603166                0.01227969                0.02067585
               1.93131682                1.98018527               71.07822264                0.01000001               -0.04409952               -0.04793596                0.11315505                0.37171458                0.01064209                0.05850451
               2.93029427                1.97870760               71.08060420                0.01000000               -0.16421997                0.09096428                0.11260098                0.66642888               -0.02363446                0.08440344
               3.92803243                1.97992636               71.08265442                0.01000000               -0.27169613                0.12492744                0.11688436                0.97726719               -0.05534831                0.15942017
               4.92486035                1.98244987               71.08441287                0.01000001               -0.36088837                0.00020045                0.12304427                1.08964039               -0.07425626                0.22231335
               5.92081466                1.98718374               71.08590362                0.01139308               -0.49465229                0.11535413                0.12907135                0.80886257               -0.13983794                0.20982272
               6.91496731                1.99123013               71.08624045                0.01594987               -0.31275661                0.08185357                0.13382925                0.40732014               -0.11302538                0.12713833
               7.91455953                1.99546328               71.08873289                0.01776328               -0.04193248                0.04210582                0.14068604                0.16318476               -0.01519394                0.04780340
               8.91412866                1.99974091               71.09102423                0.79016026               -0.04391367               -0.04036603                0.14837392                0.00193341               -0.01935408               -0.02986416
               9.91368125                2.00402598               71.09349550                0.93538751               -0.04474045               -0.04421672                0.15313102               -0.00021295               -0.01773132               -0.00777589
              -0.06249307                2.98918934               71.07509357                0.16250880               -0.03087603                0.11539146                0.12512319                0.21730979               -0.00372689                0.13163000
               0.93719817                2.98260781               71.07739300                0.01000000                0.06954338               -0.25289722                0.12975318                0.39013883                0.03185887                0.09275547
               1.93889779                2.97915450               71.08037711                0.01000000                0.06375331               -0.13696875                0.11382178                0.70620130                0.04089341                0.08619350
               2.93847323                2.97879378               71.08284207                0.01000000               -0.08997799               -0.01958309                0.11499317                1.02029532                0.02110941                0.11982239
               3.93709823                2.98089542               71.08533792                0.01201830               -0.20643277                0.00008307                0.11892028                1.15343074                0.01059955                0.16146829
               4.93434458                2.98282984               71.08739347                0.01000000               -0.51064167                0.07935166                0.12700897                1.40413164               -0.04726253                0.22426790
               5.92688540                2.98963995               71.08856039                0.01000001               -0.76629477                0.21176547                0.14016286                1.49525428               -0.11881910                0.32777196
               6.91901868                2.99324029               71.08899002                0.01000000               -0.66702721                0.29360843                0.15827980                1.34059129               -0.12166573                0.46209540
               7.91354486                2.99670967               71.08965905                0.01552304               -0.45684832                0.20678193                0.21116662                0.89887695               -0.07680210                0.36715868
               8.90988172                2.99934048               71.09038219                0.01729983               -0.20608778               -0.01073309                0.16563510                0.65945443               -0.09100695                0.23179400
               9.90942310                3.00357468               71.09306848                0.18615907               -0.04586142               -0.42676764                0.17114037                0.73678221               -0.01275704                0.15278444
              -0.05097343                3.99100373               71.07843562                0.17018931               -0.00126806                0.03413979                0.09888280                0.05923755               -0.01215381                0.15546653
               0.94901389                3.97894982               71.08060984                0.01000000                0.01141556               -0.20538957                0.10421733                0.59178137               -0.01572350                0.12400711
               1.94925488                3.97744589               71.08272572                0.01000000               -0.00273176               -0.18648714                0.11358316                1.03938190                0.02163103                0.07504748
               2.94895925                3.97831593               71.08537062                0.01203117               -0.10949535               -0.11450431                0.11734082                1.15387122                0.04517787                0.10366269
               3.94706497                3.97992802               71.08772426                0.01000000               -0.23803968               -0.14824367                0.12493332                1.39507524                0.04760399                0.15187111
               4.94419846                3.98403690               71.09029437                0.01000001               -0.33778386                0.07106337                0.13404160                1.77866730                0.07515917                0.27216190
               5.94030930                3.99141905               71.09304232                0.01000001               -0.47445255                0.15075109                0.14767176                2.12647668                0.08909563                0.46433486
               6.93470941                3.99710230               71.09553763                0.01236754               -0.69362107                0.24364835                0.17456867                2.06361583               -0.03193069                0.58262482
               7.92643687                3.99959892               71.09543114                0.01214266               -0.71283342                0.20301831                0.21652190                1.80073375               -0.14790170                0.67755073
               8.92045274                3.99952624               71.09547875                0.01000000               -0.32441854               -0.04936131                0.19953980                1.50385560               -0.06971175                0.73827750
               9.91994850                3.99549063               71.09617432                0.01000000               -0.05042364               -0.87274398                0.19020538                1.30030271               -0.05002754                0.70389318
              -0.03720050                4.98987214               71.08107966                0.29627120               -0.02078685               -0.10135070                0.08917779                0.11377311               -0.00509118                0.08494282
               0.96259163                4.97850002               71.08302310                0.01000000               -0.12400900               -0.01550190                0.09683202                0.51438003               -0.01082100                0.02579564
               1.96031932                4.97542475               71.08483554                0.01000001               -0.17615485               -0.23156481                0.11372580                1.05317308                0.02108012                0.02732305
               2.95906853                4.97650369               71.08736041                0.01000000               -0.05202718               -0.39481804                0.12382596                1.35082268                0.08786001                0.05414073
               3.95927877                4.97793055               71.09038417                0.01000001               -0.03208186               -0.24094289                0.13154362                1.73223451                0.17014963                0.16759992
               4.95842689                4.98425111               71.09432742                0.01000001               -0.14646200               -0.04896901                0.13994412                2.23049825                0.25383564                0.34468365
               5.95634953                4.99265497               71.09869534                0.01229084               -0.31578835               -0.00349861                0.15302689                2.29301205                0.18923376                0.44351026
               6.95211113                4.99811326               71.10094816                0.01089922               -0.46069727                0.02045741                0.17617682                2.17243318                0.07677113                0.55818792
               7.94713559                5.00077004               71.10271395                0.01000000               -0.40220048                0.10912999                0.19011915                2.12508738                0.16473200                0.87438850
               8.94406712                4.99835326               71.10620433                0.01000000               -0.18176007                0.05076602                0.22374524                1.65675351                0.26338887                1.23444070
               9.94350039                4.98611980               71.10962726                0.03885308               -0.05667310               -0.45002995                0.21560144                1.13235758                0.24877076                1.30147247
              -0.02595372                5.98897671               71.08287958                0.70121403               -0.02974022               -0.06377086                0.09708298                0.04450585               -0.00478293                0.02769878
               0.97374887                5.97863978               71.08451319                0.01000001               -0.08658051               -0.00633092                0.10423383                0.26402706                0.00663474               -0.01472086
               1.97231467                5.97281460               71.08637182                0.01138957               -0.01394824               -0.35724613                0.11764748                0.75804664                0.05538946               -0.04987369
               2.97346991                5.97041957               71.08902696                0.01000001                0.08237884               -0.62174993                0.12893950                1.39148292                0.18419683               -0.03333636
               3.97396224                5.97510916               71.09324011                0.01000001                0.03070474               -0.35927648                0.13919165                1.99475681                0.34005578                0.15627639
               4.97408400                5.98305752               71.09874881                0.01228801               -0.08274265               -0.23801770                0.14879483                2.21822717                0.34927729                0.26384269
               5.97230739                5.99134908               71.10284328                0.01091814               -0.20205002               -0.18061831                0.16014939                2.19155936                0.29940942                0.37761301
               6.97004300                5.99751145               71.10712707                0.01000000               -0.18043822               -0.02712593                0.16461746                2.21748583                0.41332732                0.69506028
               7.96869862                6.00178152               71.11331090                0.01000000               -0.09024764                0.18464645                0.18711526                2.20662790                0.63098245                1.18640735
               8.96823805                6.00054156               71.12151723                0.01473402               -0.08180279                0.17671198                0.24184722                1.38718668                0.48866132                1.13994079
               9.96706257                5.98649003               71.12419513                0.01000000               -0.11754814                0.18985169                0.23670267                0.60159408                0.21327912                0.97401133
              -0.01563652                6.98859672               71.08453913                1.00000000               -0.03291947               -0.03714553                0.10701778                0.00495643               -0.00343458                0.01946121
               0.98403429                6.97837340               71.08600922                0.38741051               -0.03315119               -0.03041737                0.11469330                0.00819989               -0.02101854               -0.01257013
               1.98370046                6.96827983               71.08712634                0.01595521                0.02846697               -0.24632107                0.12492334                0.36103593                0.03359341               -0.05957538
               2.98460363                6.96406869               71.08967890                0.01000000                0.14177529               -0.53609217                0.11916539                1.16798369                0.29192680               -0.12473304
               3.98653596                6.97074502               71.09578695                0.01237504                0.09739486               -0.55775566                0.16084859                1.86278631                0.45051143                0.03102773
               4.98655152                6.97949076               71.10110804                0.01088908               -0.04045861               -0.40143425                0.16606554                2.01699955                0.45345567                0.14560107
               5.98572679                6.98904261               71.10716463                0.01000000               -0.02615613               -0.19127598                0.16116094                2.10330196                0.60819369                0.46802193
               6.98602840                6.99757074               71.11559059                0.01000000                0.12556194                0.08079071                0.16989754                2.18655113                0.90294632                0.94851441
               7.98823803                7.00446297               71.12729512                0.01485977                0.05369697                0.09277037                0.21239290                1.67224507                0.63757176                0.89122599
               8.98710234                7.00188750               71.12970201                0.01247556               -0.23013459                0.14234173                0.22230456                0.83814860                0.08276481                0.88511242
               9.98363534                6.98991683               71.13005955                0.14660085               -0.34670019                0.76762963                0.23071705                0.40103512               -0.01448700                0.79997247
              -0.00540795                7.98823380               71.08620496                0.99069978               -0.03622903               -0.03715456                0.11707561                0.00178423               -0.00411806                0.02126531
               0.99422976                7.97803143               71.08751635                0.94689524               -0.03759816               -0.03643424                0.12574490                0.00152156               -0.00929477               -0.00606659
               1.99384009                7.96788818               71.08872190                0.02120225                0.00673153               -0.04054965                0.13497345                0.09767442               -0.00491850               -0.01575541
               2.99436439                7.95969773               71.09011704                0.01554003                0.09779072               -0.33702830                0.20659241                0.75021132                0.24043848               -0.12662480
               3.99579590                7.96395405               71.09614228                0.01213718                0.08810092               -0.58713700                0.18648190                1.59150825                0.53489885               -0.09051079
               4.99612641                7.97502883               71.10300434                0.01000000                0.02487714               -0.34456555                0.17936520                1.86495652                0.72720736                0.20245141
               5.99629345                7.98752356               71.11311495                0.01000000                0.11136258               -0.09786527                0.18176601                1.91439526                1.08281926                0.62241309
               6.99835366                7.99912726               71.12695222                0.01481367                0.07666627                0.01724287                0.20889328                1.51062761                0.85441755                0.61928591
               7.99782677                8.00363693               71.13184253                0.01191063                0.05967479                0.00147574                0.20557393                0.88500924                0.57878236                0.59056009
               8.99954716                8.00338840               71.14008450                0.12112599                0.05989129                0.04903424                0.16224781                0.61348547                0.36655198                0.49649424
               9.99902460                8.00184262               71.14098868                0.63706117               -0.05225610                0.56806741                0.18517713                0.69298729                0.00012713                0.51607908
               0.00480391                8.98785363               71.08791278                0.99320641               -0.03935614               -0.03877471                0.12636854                0.00133104                0.00087157                0.01898632
               1.00441035                8.97764471               71.08913092                0.99999999               -0.04081286               -0.04035975                0.13568708               -0.00007662                0.00078523                0.00016374
               2.00398765                8.96746884               71.09034623                0.93251816               -0.04341826               -0.04327522                0.14465580                0.00017376               -0.00389697               -0.00891483
               3.00354198                8.95732813               71.09146553                0.01753999               -0.04763131               -0.14225541                0.15402528                0.54252773                0.17101203               -0.03027797
               4.00303502                8.95900228               71.09617056                0.01000000               -0.16304173               -0.25135741                0.18987963                1.30123033                0.55574334               -0.06650108
               5.00028115                8.97259945               71.10624909                0.01000000               -0.15593779               -0.09924082                0.21551006                1.37993602                1.04835805                0.25815447
               5.99991627                8.98708530               71.12038600                0.01466694               -0.00767815               -0.04880067                0.23364579                1.09641776                1.00936512                0.44722051
               7.00012758                8.99791560               71.12849901                0.01107736                0.08804052               -0.19470187                0.21940022                0.66989990                0.88868744                0.03472969
               8.00167708                9.00449248               71.13989126                0.11501278                0.05193851                0.01767380                0.15759899                0.52519816                0.53720057                0.37290874
               9.00116635                9.00286818               71.14098678                0.98890491               -0.05452203               -0.05468973                0.18282370                0.00324991                0.01049376                0.01303166
              10.00058664                9.00127818               71.14182200                1.00000000               -0.05797154               -0.06071227                0.20573889               -0.00109342               -0.00216224                0.00480054
               0.01503651                9.98745831               71.08953764                0.99505294               -0.04234860               -0.03953197                0.13559768               -0.00014719                0.01532059                0.01472108
               1.01461302                9.97722424               71.09075956                0.99167268               -0.04381788               -0.04204738                0.14524402               -0.00151442                0.01979156                0.00109851
               2.01416015                9.96702267               71.09206920                0.98282206               -0.04657589               -0.04461659                0.15435749               -0.00133095                0.02155660               -0.00360142
               3.01368150                9.95685262               71.09332045                0.34409564               -0.38054803               -0.04755052                0.16311614                0.60916362                0.12539920               -0.00452833
               4.00654919                9.95892690               71.09669946                0.01000000               -0.90196955               -0.00753815                0.18968293                1.16098629                0.58279000               -0.03517347
               4.99564211                9.97304402               71.10916595                0.02485555               -0.68217696                0.04445706                0.22025026                0.91712873                1.11091438                0.21883094
               5.99290565                9.98654754               71.12261568                0.08723256               -0.06488180               -0.05377574                0.23469073                0.40839851                0.82887340                0.18784649
               6.99434448                9.99523322               71.12806052                0.11190000                0.52362508               -0.26823731                0.23138031                0.29383225                0.80202009               -0.07129990
               8.00337815               10.00399040               71.14053043                0.61531365                0.42409910               -0.05020821                0.17686123                0.52317620                0.59962405                0.00323631
               9.00282646               10.00229460               71.14167986                1.00000000               -0.05977121               -0.05735769                0.20207954               -0.00209081                0.01870216                0.00298887
              10.00218273               10.00062838               71.14251511                0.99425634               -0.06437309               -0.06498053                0.22499160               -0.00701388                0.00269119               -0.00258714
              -0.08010271               -0.01237840               72.07082763                1.00000000               -0.02536896               -0.02642359                0.08879331                0.00314195                0.00219845               -0.00124941
               0.91964360               -0.01681676               72.07336921                0.74275822               -0.02246751               -0.03148556                0.09326115                0.00424208                0.00467686                0.00073340
               1.91944794               -0.02108659               72.07594748                0.31218881                0.01691448               -0.02988672                0.09843491                0.05586173                0.01758562                0.00031226
               2.91998189               -0.02403512               72.07869728                0.19248909                0.11754868               -0.02227016                0.10257043                0.15796942                0.00611245               -0.00328348
               3.92179892               -0.02235116               72.08079054                0.20438742                0.09344610               -0.01011656                0.10369266                0.02238539               -0.04728182               -0.00889037
               4.92185081               -0.01734575               72.08249557                0.32220478               -0.02391710               -0.02712289                0.10046804                0.02616253               -0.03947520               -0.00148083
               5.92132057               -0.01256273               72.08479336                0.74607353               -0.04384332               -0.03254747                0.10026234                0.02194918               -0.00376575               -0.00190580
               6.92097395               -0.00817273               72.08735285                0.99999999               -0.03449987               -0.03422355                0.10473709                0.00343491                0.00992203               -0.00135637
               7.92063058               -0.00380084               72.08993653                0.99192948               -0.03453246               -0.03514868                0.10909512                0.00252050                0.01289697               -0.00073584
               8.92028330                0.00059125               72.09255293                0.99289187               -0.03495710               -0.03559843                0.11271880                0.00184027                0.01238254                0.00159060
               9.91993143                0.00503217               72.09511572                0.99461871               -0.03518645               -0.03626267                0.11792416               -0.00213038                0.01068767                0.01067149
              -0.07563293                0.98735736               72.07246278                0.73697954               -0.03269496               -0.02418822                0.10070520                0.00601941               -0.00179650                0.00088513
               0.92404012                0.98286839               72.07499385                0.01000000               -0.03756647               -0.03774936                0.10501931                0.01364580               -0.00300829                0.00282849
               1.92361574                0.97861454               72.07750449                0.01000000               -0.09231248               -0.00897481                0.10870028                0.11288306               -0.00948552                0.01491961
               2.92219387                0.97574218               72.07995117                0.01000000               -0.24688258                0.07638755                0.11161789                0.33791472               -0.06548708                0.02292348
               3.91867809                0.97754768               72.08162287                0.01013018               -0.24878226                0.06828739                0.11905465                0.51836509               -0.10957722                0.05826229
               4.91721822                0.98238302               72.08302836                0.01000000               -0.08622663               -0.04165098                0.11906768                0.50855126               -0.08846445                0.10277237
               5.91695356                0.98711180               72.08509333                0.01000001               -0.02954365               -0.02741707                0.11867299                0.31319488               -0.02998314                0.08784902
               6.91662735                0.99148503               72.08755948                0.43373698               -0.03398822               -0.03615649                0.12359668                0.00793169               -0.00699578               -0.00886122
               7.91627379                0.99584768               72.09006441                0.98345122               -0.03710755               -0.03823532                0.12906946                0.00546317               -0.00234119               -0.00215580
               8.91588520                1.00023526               72.09261738                1.00000000               -0.04022898               -0.03920448                0.13360421                0.00324803                0.00011884                0.00030945
               9.91546921                1.00466954               72.09517453                0.99019786               -0.04159893               -0.04002073                0.13875237               -0.00303888               -0.00015001                0.01112491
              -0.07100437                1.98713783               72.07412828                0.30340088               -0.03362926                0.01853308                0.11265568                0.06782687               -0.00121791                0.03192806
               0.92865934                1.98242825               72.07666388                0.01000000               -0.00819123               -0.09786860                0.11751732                0.12021201                0.00655323                0.02044943
               1.92883181                1.97873391               72.07934380                0.01000001               -0.04261450               -0.04551989                0.11182412                0.39991551                0.00079400                0.04865451
               2.92780705                1.97749263               72.08171470                0.01000000               -0.16532140                0.09042259                0.11004950                0.71281928               -0.02998256                0.07299725
               3.92552538                1.97901459               72.08380629                0.01000000               -0.26746667                0.11832595                0.11315510                1.02733271               -0.06151361                0.14604894
               4.92245772                1.98182123               72.08563011                0.01000001               -0.35214620               -0.01616726                0.11974793                1.14457626               -0.07701833                0.20656937
               5.91848246                1.98688893               72.08718380                0.01135412               -0.50305078                0.10808702                0.12622159                0.86128590               -0.13851846                0.20189911
               6.91239670                1.99110414               72.08761148                0.01587751               -0.32464249                0.08433421                0.13922931                0.45939171               -0.11170403                0.12814258
               7.91198961                1.99543446               72.09015653                0.01497338               -0.04351526                0.05267636                0.14669430                0.22579121               -0.00976738                0.07448960
               8.91152640                1.99980716               72.09265219                0.80825570               -0.04937522               -0.04782947                0.16374630                0.00820413               -0.01015634               -0.00912956
               9.91100210                2.00423175               72.09523567                0.94921176               -0.05242943               -0.05137558                0.17325486               -0.00433761               -0.00831586                0.00966923
              -0.06485723                2.98772802               72.07633771                0.17750738               -0.02944835                0.11838704                0.12331693                0.20384693               -0.00458641                0.11344274
               0.93484828                2.98091101               72.07868195                0.01000000                0.07034529               -0.25526628                0.12776233                0.40013877                0.02061391                0.07430167
               1.93654967                2.97770414               72.08150058                0.01000000                0.06606474               -0.14197415                0.11129231                0.74376741                0.02596721                0.07302221
               2.93616958                2.97755063               72.08397022                0.01000000               -0.08267612               -0.02284901                0.11088491                1.06391134                0.01510951                0.10870447
               3.93489615                2.97991420               72.08649472                0.01203697               -0.19670846               -0.00767754                0.11267004                1.20127577                0.00783193                0.15038452
               4.93223541                2.98205967               72.08863312                0.01000000               -0.49998932                0.06985156                0.12024297                1.45831047               -0.04489551                0.21071564
               5.92489636                2.98927354               72.08993119                0.01000001               -0.74828744                0.20153487                0.13235753                1.56105836               -0.10807155                0.31572259
               6.91726966                2.99317171               72.09056617                0.01000000               -0.64048844                0.28716311                0.15342413                1.42817765               -0.08572310                0.46405320
               7.91208659                2.99690120               72.09183486                0.01572235               -0.50088349                0.22371574                0.21849430                0.98114713               -0.05133729                0.37854817
               8.90725199                2.99927867               72.09256620                0.01000001               -0.27766617               -0.10948848                0.21157708                0.79889792               -0.09979314                0.23372484
               9.90653327                3.00364203               72.09529595                0.20076408               -0.07187188               -0.58043871                0.21414711                0.89872180               -0.00651017                0.18239894
              -0.05329341                3.98950557               72.07943817                0.17992242               -0.00205945                0.03603371                0.10103166                0.06311730               -0.01175131                0.12614492
               0.94668600                3.97732293               72.08166300                0.01012514                0.01804734               -0.20784236                0.10615843                0.60556308               -0.01454080                0.09748379
               1.94706754                3.97589443               72.08384957                0.01000000                0.00946136               -0.19458927                0.11109000                1.07399859                0.02170765                0.05952523
               2.94687523                3.97703565               72.08651456                0.01203592               -0.10128412               -0.11934866                0.11157754                1.19616169                0.04111576                0.09512341
               3.94504186                3.97886104               72.08893986                0.01000000               -0.23053208               -0.15625698                0.11802900                1.43686003                0.04536056                0.14303988
               4.94226458                3.98321826               72.09159230                0.01000001               -0.32251381                0.06709261                0.12474006                1.83009494                0.07606623                0.25835698
               5.93859158                3.99091963               72.09445984                0.01000001               -0.44659975                0.14133711                0.13222068                2.18382828                0.10256317                0.44820812
               6.93333259                3.99684740               72.09720600                0.01243234               -0.65429949                0.23176649                0.15270436                2.13519018                0.02271850                0.56490306
               7.92550559                3.99990877               72.09772198                0.01231715               -0.62845285                0.17019478                0.19308191                1.76112331               -0.06344503                0.66321976
               8.92076353                3.99761739               72.09757720                0.01000000               -0.26278810               -0.11174256                0.23845405                1.45743162                0.18318153                0.55345618
               9.92024983                3.99262298               72.09890773                0.01000000               -0.05137027               -0.94958752                0.30307173                1.31476425                0.32291683                0.46372381
              -0.03922960                4.98844870               72.08197644                0.30079027               -0.01997133               -0.10177440                0.08985937                0.11186284               -0.00473641                0.07316480
               0.96057069                4.97675417               72.08399236                0.01000000               -0.12267420               -0.01866189                0.09730167                0.53578799               -0.00597044                0.01470124
               1.95831692                4.97381236               72.08596685                0.01000001               -0.17222450               -0.23942997                0.11234861                1.09488758                0.02388633                0.01741892
               2.95712620                4.97516366               72.08857531                0.01000000               -0.04330874               -0.40917277                0.11906990                1.39630999                0.08434143                0.05087259
               3.95745075                4.97678906               72.09165965                0.01000001               -0.01737419               -0.24711105                0.12274439                1.78302148                0.16384389                0.15931987
               4.95677872                4.98340152               72.09565485                0.01000001               -0.12534792               -0.04728205                0.12322130                2.28857220                0.25082642                0.33047525
               5.95494379                4.99210028               72.10012744                0.01237378               -0.28971991               -0.00455114                0.12917556                2.34519672                0.20209311                0.42490095
               6.95098432                4.99780704               72.10263758                0.01104699               -0.42023579                0.00861627                0.15085431                2.19215252                0.10661077                0.52980070
               7.94653907                5.00030510               72.10456781                0.01000000               -0.36489509                0.06185672                0.17338448                2.08080327                0.24507565                0.80371157
               8.94368642                4.99704382               72.10854892                0.01000000               -0.18608474                0.11954550                0.20159721                1.56782202                0.33017798                1.15751011
               9.94281738                4.98465028               72.11184059                0.03752343               -0.08690407               -0.33454393                0.21587201                1.07764282                0.25383649                1.23154432
              -0.02766709                5.98747009               72.08385195                0.69716335               -0.02948131               -0.06876617                0.09693613                0.05062497               -0.00418372                0.02594205
               0.97203810                5.97694969               72.08555310                0.01000001               -0.08885565               -0.00293812                0.10386763                0.27798813                0.01066638               -0.01609688
               1.97055580                5.97110583               72.08754815                0.01136552               -0.01066862               -0.36739587                0.11891057                0.78751693                0.05939311               -0.05334227
               2.97182473                5.96885220               72.09033445                0.01000001                0.09543113               -0.66248091                0.13008879                1.44382024                0.18007797               -0.04634990
               3.97246442                5.97391882               72.09457362                0.01000001                0.04500380               -0.35668370                0.12635494                2.06242105                0.33201422                0.15827115
               4.97272480                5.98227262               72.10013411                0.01237208               -0.06872138               -0.22580912                0.12297973                2.27300398                0.34291998                0.26127169
               5.97108999                5.99082861               72.10434366                0.01108681               -0.18769916               -0.17648126                0.13373019                2.21417841                0.29768344                0.36141711
               6.96897082                5.99701972               72.10868779                0.01000000               -0.16025576               -0.03813894                0.14255407                2.21267498                0.42528690                0.66246530
               7.96788488                6.00114591               72.11511869                0.01000000               -0.05980125                0.18380489                0.16406778                2.19829865                0.67431819                1.16063304
               8.96777479                6.00000830               72.12390528                0.01514594               -0.06475523                0.21460539                0.22958261                1.38069183                0.52621480                1.10394729
               9.96658977                5.98593210               72.12657572                0.01000000               -0.11850203                0.24061357                0.23623310                0.60698696                0.22158892                0.96597952
              -0.01717631                6.98707337               72.08561098                0.99999998               -0.03289836               -0.03828136                0.10690899                0.00540683               -0.00309374                0.01872029
               0.98249471                6.97669540               72.08715172                0.37733163               -0.03294710               -0.02944703                0.11440150                0.00955997               -0.01856753               -0.01137156
               1.98216475                6.96646444               72.08837555                0.01586944                0.03474528               -0.25152014                0.12498625                0.35562637                0.02419161               -0.05984509
               2.98318962                6.96191404               72.09076966                0.01000000                0.15569971               -0.61949159                0.14329245                1.20760281                0.30320649               -0.10031679
               3.98527875                6.96965538               72.09733619                0.01242781                0.10696958               -0.52912654                0.13449200                1.96574971                0.45587165                0.05835616
               4.98532901                6.97888534               72.10267146                0.01104040               -0.03992501               -0.37521905                0.13762013                2.04384358                0.43599240                0.16151831
               5.98448025                6.98857066               72.10867887                0.01000000               -0.02042458               -0.18282708                0.13619211                2.10175887                0.59038114                0.46525618
               6.98492052                6.99704427               72.11719562                0.01000000                0.15181117                0.08937184                0.14463433                2.19362513                0.91264572                0.94700417
               7.98751647                7.00398120               72.12936636                0.01533048                0.07967723                0.09985453                0.19791048                1.66817888                0.65528413                0.87626970
               8.98651406                7.00133593               72.13188564                0.01297617               -0.22034786                0.13030412                0.21095957                0.81166163                0.08507681                0.82438640
               9.98310951                6.98946255               72.13235378                0.14594168               -0.34045485                0.75469536                0.22757217                0.38351094               -0.01019727                0.76356304
              -0.00680301                7.98670446               72.08737932                0.99999998               -0.03587558               -0.03740257                0.11684157                0.00180891               -0.00372146                0.02057769
               0.99283823                7.97636075               72.08877258                0.94664031               -0.03736495               -0.03598844                0.12498562                0.00161125               -0.00878102               -0.00575533
               1.99244969                7.96607543               72.09006458                0.04237254               -0.00261963               -0.04019578                0.13431456                0.03363021                0.04526442               -0.01493063
               2.99278584                7.95646237               72.09253417                0.01572708                0.11792123               -0.32665432                0.13347426                0.81812336                0.22605146               -0.15121988
               3.99480812                7.96333629               72.09790334                0.01231639                0.09502797               -0.52990169                0.15738872                1.64377723                0.51630560               -0.01943569
               4.99468640                7.97476824               72.10473410                0.01000000                0.00790658               -0.32030778                0.15481864                1.82879880                0.68648051                0.26872856
               5.99496625                7.98717206               72.11484249                0.01000000                0.13731895               -0.08571942                0.15386371                1.91308744                1.06652269                0.65399499
               6.99743278                7.99880716               72.12898663                0.01531550                0.09952727                0.03116537                0.19266178                1.50993773                0.84800756                0.62974400
               7.99695679                8.00314300               72.13384452                0.01245483                0.05469482               -0.00998086                0.19092812                0.84907239                0.53801524                0.54385581
               8.99852668                8.00261438               72.14168942                0.11856450                0.05249812                0.03843195                0.15915842                0.57801502                0.33485758                0.45799652
               9.99800675                8.00102601               72.14283589                0.63711963               -0.05199213                0.55021705                0.18523052                0.66645681               -0.00013144                0.48397840
               0.00354729                8.98632532               72.08917993                0.99281396               -0.03913215               -0.03872553                0.12602359                0.00108708                0.00058670                0.01755076
               1.00315597                8.97597564               72.09048553                0.99999999               -0.04057742               -0.04011656                0.13477586               -0.00034198                0.00057883               -0.00001905
               2.00273574                8.96566052               72.09178812                0.94513236               -0.04323730               -0.04296460                0.14371551                0.00014369               -0.00379515               -0.00842206
               3.00229122                8.95538095               72.09300785                0.01000001               -0.14436604               -0.07787193                0.15275397                0.65908717                0.18657763               -0.07878230
               3.99984842                8.95905735               72.09811560                0.01000000               -0.21110082               -0.20153632                0.19454158                1.26162039                0.39974659                0.15433465
               4.99806921                8.97247919               72.10843051                0.01000002               -0.05726761               -0.11480584                0.18483976                1.31883758                0.97865871                0.32535280
               5.99870307                8.98685627               72.12267429                0.01506516                0.05395654               -0.04712337                0.21726827                1.09306859                0.98117968                0.47814485
               6.99914834                8.99766757               72.13064832                0.01152169                0.09938145               -0.19399778                0.20575803                0.64099177                0.83099919                0.03578709
               8.00069070                9.00378158               72.14144640                0.11071938                0.05215078                0.00718203                0.15370038                0.49650681                0.49641297                0.34063488
               9.00019135                9.00210457               72.14280388                0.98906817               -0.05376505               -0.05396077                0.18061695                0.00326514                0.01160338                0.01353931
               9.99961540                9.00046689               72.14388005                1.00000000               -0.05759559               -0.06064589                0.20588972               -0.00111726               -0.00219611                0.00522895
               0.01391811                9.98592995               72.09089396                0.99460754               -0.04219129               -0.03953745                0.13581581               -0.00007137                0.01460432                0.01321718
               1.01349619                9.97555842               72.09220721                0.99128591               -0.04354300               -0.04172163                0.14471059               -0.00166830                0.01918971                0.00051682
               2.01304725                9.96521613               72.09361119                1.00000000               -0.04627162               -0.04443899                0.15339417               -0.00152425                0.02103406               -0.00309574
               3.01257076                9.95490493               72.09495582                0.36565385               -0.50524774               -0.04760275                0.16232927                0.73242510                0.16686479               -0.00429473
               4.00294229                9.95930556               72.09926643                0.01000000               -0.96532641                0.02482127                0.26950250                1.18774660                0.34714957                0.29844367
               4.99326423                9.97247212               72.11139063                0.02382058               -0.56515303               -0.00070673                0.21088591                0.86570442                1.03594139                0.22749542
               5.99163923                9.98622960               72.12496183                0.08740554                0.00315341               -0.06266703                0.23263597                0.41637052                0.81665800                0.19430123
               6.99332730                9.99492721               72.13035615                0.11175418                0.54053507               -0.27403679                0.22728553                0.27074843                0.75896153               -0.06574608
               8.00244993               10.00328664               72.14228755                0.61330799                0.42896840               -0.04949425                0.17476562                0.50632140                0.56170060                0.00313523
               9.00190667               10.00153517               72.14369922                1.00000000               -0.05950829               -0.05694040                0.20180079               -0.00214590                0.01976692                0.00298979
              10.00125977                9.99981309               72.14477535                0.99450536               -0.06469025               -0.06538021                0.22708756               -0.00777073                0.00269351               -0.00254892
              -0.08264138               -0.01408887               73.07171268                1.00000000               -0.02469515               -0.02576291                0.08826064                0.00322383                0.00280467               -0.00179108
               0.91711167               -0.01849204               73.07429852                0.74486635               -0.02079084               -0.03168770                0.09261849                0.00521960                0.00567941                0.00090808
               1.91694280               -0.02269119               73.07692774                0.32530992                0.02445649               -0.02935238                0.09760740                0.06349591                0.01858979                0.00045815
               2.91760080               -0.02536911               73.07971457                0.20917675                0.12257024               -0.02153470                0.10095645                0.15277799                0.00414596               -0.00356317
               3.91939421               -0.02334928               73.08181918                0.21582641                0.09134305               -0.01043502                0.10245335                0.03216047               -0.05498223               -0.00854639
               4.91942766               -0.01799035               73.08349174                0.32758020               -0.02855937               -0.02629028                0.09964902                0.03280505               -0.04708171               -0.00173761
               5.91882302               -0.01297667               73.08578272                0.74269946               -0.04809903               -0.03239191                0.09870171                0.02835792               -0.00829147               -0.00180463
               6.91846568               -0.00849241               73.08838521                1.00000000               -0.03512722               -0.03402326                0.10293948                0.00409382                0.00709765               -0.00140431
               7.91812047               -0.00404510               73.09101244                0.99150933               -0.03453568               -0.03504614                0.10735539                0.00233817                0.00886890               -0.00157769
               8.91777496                0.00042086               73.09365893                0.99249708               -0.03440130               -0.03661291                0.11059358                0.00174323                0.00804075                0.00072693
               9.91743245                0.00494368               73.09627224                0.99414862               -0.03425150               -0.03821288                0.11554813               -0.00294227                0.00681328                0.00734613
              -0.07820597                0.98565351               73.07346627                0.73882414               -0.03290038               -0.02258005                0.09993062                0.00691434               -0.00224219                0.00046997
               0.92146503                0.98119109               73.07604001                0.01016295               -0.03888659               -0.03896595                0.10412765                0.01709603               -0.00376575                0.00327372
               1.92101630                0.97701529               73.07858770                0.01000000               -0.10037014               -0.00732662                0.10781815                0.12817680               -0.01122023                0.01161013
               2.91945762                0.97441554               73.08106456                0.01000000               -0.24949318                0.07588018                0.11089722                0.35812112               -0.06425219                0.01670139
               3.91602643                0.97654637               73.08281266                0.01031706               -0.24441090                0.06623852                0.11862495                0.54118677               -0.10864395                0.04680722
               4.91456940                0.98174674               73.08422478                0.01000000               -0.08344037               -0.05165793                0.11989057                0.53339281               -0.09382698                0.09166763
               5.91435763                0.98669941               73.08628647                0.01000001               -0.02642885               -0.03197330                0.11968346                0.33302561               -0.03374660                0.08013670
               6.91404083                0.99116736               73.08880341                0.42235220               -0.03352033               -0.03606464                0.12471106                0.00999283               -0.00789160               -0.01109174
               7.91368722                0.99560444               73.09136129                0.98243873               -0.03714107               -0.03861405                0.13018563                0.00451868               -0.00330154               -0.00382944
               8.91329801                1.00005473               73.09397001                1.00000000               -0.04035068               -0.04056869                0.13566249                0.00142664               -0.00053167                0.00093687
               9.91288021                1.00456156               73.09658459                0.98988367               -0.04177999               -0.04228702                0.14126094               -0.00354162               -0.00011102                0.00942376
              -0.07357825                1.98545953               73.07525093                0.31620175               -0.03299386                0.02474002                0.11169958                0.07354504               -0.00154494                0.03103599
               0.92609181                1.98072864               73.07783346                0.01000000               -0.00699326               -0.10481812                0.11622382                0.13426494                0.00132955                0.01951388
               1.92628188                1.97716228               73.08045912                0.01000001               -0.04298350               -0.04530589                0.11214087                0.42662128               -0.01230021                0.03500348
               2.92523214                1.97614849               73.08280519                0.01000000               -0.16975689                0.08762323                0.10784389                0.75684336               -0.03788117                0.05875212
               3.92288674                1.97797549               73.08491752                0.01000000               -0.26448309                0.11115861                0.11048768                1.06967653               -0.06914615                0.12697125
               4.91994247                1.98097649               73.08680783                0.01000001               -0.34119128               -0.03323863                0.11667995                1.19245830               -0.08241272                0.18300273
               5.91606292                1.98638386               73.08842805                0.01131369               -0.50909875                0.09894755                0.12273637                0.91215544               -0.13785848                0.18196006
               6.90976050                1.99078630               73.08902504                0.01577761               -0.33697228                0.08797406                0.14335859                0.50792428               -0.10485842                0.11975719
               7.90932347                1.99518262               73.09166677                0.01067878               -0.04570581                0.05553686                0.15271870                0.28270267               -0.00504054                0.09619911
               8.90884638                1.99960949               73.09429915                0.82675132               -0.04877477               -0.04823808                0.16350204                0.00210379               -0.00456842                0.00023332
               9.90834798                2.00409794               73.09696060                0.96585180               -0.04984079               -0.05054775                0.17005947               -0.00349504               -0.00130871                0.01219835
              -0.06727329                2.98614831               73.07755991                0.19365501               -0.02791302                0.12141818                0.12082257                0.19064906               -0.00529859                0.09638512
               0.93244758                2.97909472               73.07994825                0.01000000                0.07010814               -0.25697794                0.12529311                0.40903625                0.00958049                0.05766530
               1.93412887                2.97610917               73.08260295                0.01000000                0.06668489               -0.14960791                0.10894009                0.78144358                0.01026486                0.05836489
               2.93378128                2.97616801               73.08505977                0.01000000               -0.07684510               -0.02675883                0.10816970                1.10597581                0.00548409                0.09342580
               3.93259197                2.97876954               73.08759133                0.01203929               -0.18855395               -0.01758026                0.10824832                1.24608329               -0.00013816                0.13403394
               4.93001020                2.98108197               73.08979833                0.01000000               -0.49005230                0.06029110                0.11460459                1.50830737               -0.05040062                0.18887603
               5.92279092                2.98867836               73.09120754                0.01000001               -0.73048235                0.19015471                0.12263724                1.62644044               -0.11067849                0.28854657
               6.91540055                2.99292684               73.09205850                0.01000000               -0.61364222                0.27713268                0.14175684                1.50889789               -0.06090111                0.43897164
               7.91051808                2.99671518               73.09402894                0.01594426               -0.54878954                0.24738696                0.21269317                1.08182210               -0.04542200                0.34783445
               8.90442476                2.99908997               73.09461373                0.01000001               -0.33423411               -0.24984206                0.19868752                1.04598303               -0.11357403                0.26610221
               9.90383340                3.00355060               73.09735142                0.21868086               -0.05913626               -0.79387389                0.19938254                1.21595277                0.00120232                0.24030084
              -0.05565811                3.98788790               73.08045626                0.19062620               -0.00302229                0.03866732                0.10204110                0.06742930               -0.01119844                0.09808295
               0.94431167                3.97558908               73.08273300                0.01029647                0.02477875               -0.20953933                0.10757943                0.61582248               -0.01524943                0.07230399
               1.94483747                3.97417012               73.08494752                0.01000000                0.01898056               -0.20173086                0.10907362                1.10547315                0.01662719                0.04380662
               2.94469128                3.97561332               73.08760217                0.01205196               -0.09715106               -0.12333765                0.10700397                1.23675247                0.03219370                0.08318111
               3.94289445                3.97762388               73.09008484                0.01000000               -0.22457379               -0.16431761                0.11245542                1.47265629                0.03658360                0.12729760
               4.94019980                3.98218231               73.09278918                0.01000001               -0.30737943                0.06184190                0.11644198                1.87642525                0.06353184                0.23226167
               5.93674686                3.99018696               73.09568673                0.01000001               -0.41490836                0.12954085                0.11573056                2.23821938                0.09099824                0.41341089
               6.93190164                3.99632895               73.09859172                0.01251470               -0.59750392                0.21503249                0.12426603                2.21729161                0.01421976                0.53025807
               7.92479678                4.00013036               73.09929278                0.01251545               -0.44855067                0.13661895                0.13978913                1.69456899               -0.04272683                0.59630843
               8.92293062                3.99461265               73.10024783                0.01000000               -0.05255005               -0.19572982                0.24206603                1.35316210                0.17423166                0.60191573
               9.92374578                3.98822047               73.10223576                0.01000000                0.08151537               -1.02339509                0.32225033                1.26880066                0.30781483                0.57039386
              -0.04132708                4.98692165               73.08287684                0.30618960               -0.01911140               -0.10134414                0.08995059                0.10914920               -0.00429199                0.05981059
               0.95848181                4.97490394               73.08496913                0.01000000               -0.12294088               -0.02152985                0.09816309                0.55536151               -0.00243691                0.00271524
               1.95621410                4.97207455               73.08708251                0.01000001               -0.17096224               -0.24155303                0.11038102                1.13405146                0.02280794                0.01046498
               2.95506256                4.97370125               73.08974181                0.01000000               -0.03689994               -0.41575474                0.11416805                1.43816798                0.07324602                0.04712996
               3.95547610                4.97548319               73.09283906                0.01000001               -0.00434648               -0.25129182                0.11384030                1.82629878                0.14503093                0.14100746
               4.95497563                4.98231881               73.09679185                0.01000001               -0.10337171               -0.04579828                0.10602002                2.33792756                0.22892546                0.29490497
               5.95340867                4.99126918               73.10127885                0.01247663               -0.25863274               -0.00804829                0.10273917                2.39346018                0.18972018                0.38784332
               6.94980298                4.99722749               73.10396524                0.01122611               -0.36414540               -0.00631185                0.11811192                2.20252235                0.10536483                0.49058483
               7.94612576                4.99944756               73.10618164                0.01000000               -0.32025394                0.00326302                0.14553331                2.00593032                0.22723446                0.77919983
               8.94339790                4.99517538               73.11023627                0.01000000               -0.20659925                0.23355676                0.15577113                1.40049207                0.32373211                1.14651865
               9.94199378                4.98308270               73.11394470                0.03592700               -0.14041215               -0.14620188                0.20808826                0.91111694                0.28504526                1.20292691
              -0.02943969                5.98586101               73.08481831                0.69336171               -0.02943073               -0.07389470                0.09582714                0.05710781               -0.00412420                0.02383031
               0.97026600                5.97515849               73.08659054                0.01000001               -0.09195648                0.00112727                0.10406159                0.29473048                0.01547912               -0.01819405
               1.96872118                5.96933906               73.08875003                0.01131001               -0.01099990               -0.37540251                0.11854059                0.82459920                0.06599514               -0.05085352
               2.97004600                5.96729822               73.09162873                0.01000001                0.10408452               -0.69193093                0.12392171                1.49517711                0.16507514               -0.01547865
               3.97080287                5.97259805               73.09576721                0.01000001                0.05631834               -0.34503814                0.10971377                2.11218052                0.29710419                0.13745115
               4.97117237                5.98126634               73.10120840                0.01247966               -0.05477439               -0.20988393                0.09204304                2.31904997                0.31881231                0.22811148
               5.96970738                5.99002599               73.10551789                0.01129797               -0.16993334               -0.17101407                0.10199072                2.22689792                0.28374855                0.32424897
               6.96777370                5.99620271               73.10997815                0.01000000               -0.13699416               -0.05077545                0.11351921                2.19802379                0.41225578                0.62259877
               7.96696750                6.00019562               73.11659225                0.01000000               -0.02341883                0.19074898                0.12775408                2.18044982                0.69305015                1.14774968
               8.96730533                5.99928378               73.12610888                0.01561571               -0.04070118                0.27078529                0.20437646                1.37596856                0.55536018                1.10960943
               9.96615347                5.98529643               73.12891979                0.01000000               -0.11518520                0.29226116                0.23372844                0.62633173                0.22831999                0.96917093
              -0.01877987                6.98544376               73.08667731                0.99959884               -0.03217586               -0.03923002                0.10554472                0.00681189               -0.00154143                0.01841337
               0.98089837                6.97492648               73.08829725                0.36846921               -0.03268888               -0.02879869                0.11401900                0.01128119               -0.01636564               -0.01058216
               1.98056635                6.96456650               73.08962606                0.01577047                0.04043717               -0.25810342                0.12561408                0.35993837                0.04814669               -0.06099462
               2.98170712                6.95986264               73.09254475                0.01000000                0.15926203               -0.64315413                0.18115497                1.25082943                0.28364532               -0.09124230
               3.98375159                6.96858243               73.09847679                0.01251179                0.11107874               -0.49060634                0.09475607                2.06888539                0.40469365                0.04850495
               4.98392869                6.97812113               73.10386045                0.01122993               -0.03706677               -0.33109937                0.09879642                2.05054848                0.41381862                0.13795791
               5.98301026                6.98784889               73.10988847                0.01000000               -0.01674344               -0.17089767                0.10315999                2.08774209                0.56901347                0.42985966
               6.98359382                6.99621198               73.11848328                0.01000000                0.18217153                0.10333635                0.10791035                2.19758625                0.91934647                0.93508778
               7.98665369                7.00326254               73.13125333                0.01592467                0.11113214                0.11191907                0.17145282                1.66479467                0.67040057                0.86893622
               8.98581646                7.00059108               73.13392120                0.01357782               -0.20792826                0.11731523                0.19198187                0.78064993                0.08702206                0.77587075
               9.98249512                6.98892792               73.13461099                0.14465373               -0.33213404                0.73497446                0.22623720                0.36246182               -0.00269636                0.72923894
              -0.00826890                7.98507641               73.08854179                0.99999999               -0.03622166               -0.03768749                0.11543228               -0.00017519               -0.00287845                0.01843071
               0.99136888                7.97458251               73.09001606                0.94680675               -0.03736534               -0.03583895                0.12498340                0.00079672               -0.00581158               -0.00223788
               1.99098379                7.96417699               73.09140820                0.03773444               -0.01611078               -0.04063549                0.13620522                0.03378517               -0.01275303               -0.01619191
               2.99104666                7.95443514               73.09278653                0.01594793                0.14691460               -0.32659024                0.04542454                0.89239339                0.25909814               -0.07060081
               3.99392208                7.96278592               73.09929005                0.01252052                0.09351025               -0.39282703                0.12249596                1.60324599                0.54086020               -0.01053955
               4.99291687                7.97464436               73.10610071                0.01000000               -0.02753554               -0.28355750                0.11482946                1.75945292                0.67246899                0.24071791
               5.99337137                7.98660804               73.11619223                0.01000000                0.16974568               -0.06600217                0.11207228                1.89684402                1.07077943                0.65383096
               6.99631178                7.99826944               73.13080546                0.01589707                0.12564578                0.05249203                0.16367202                1.51037998                0.85216386                0.63339284
               7.99588429                8.00243400               73.13566109                0.01310752                0.04705785               -0.02001936                0.16955300                0.80783669                0.50768324                0.50572197
               8.99725294                8.00163009               73.14326766                0.11598927                0.04223723                0.02690426                0.15760374                0.53551123                0.30940030                0.42458003
               9.99672903                7.99999592               73.14469329                0.63683062               -0.05239086                0.52576872                0.18743660                0.63134586               -0.00076232                0.45130839
               0.00220443                8.98469001               73.09043325                0.99241729               -0.03906973               -0.03909117                0.12546052                0.00051884                0.00054153                0.01675472
               1.00181373                8.97420970               73.09182644                0.99999999               -0.04074981               -0.03956480                0.13486553               -0.00127555                0.00048310                0.00000092
               2.00138943                8.96375379               73.09322054                0.95841435               -0.04338386               -0.04311840                0.14294721               -0.00152191               -0.00444271               -0.00936738
               3.00094605                8.95333083               73.09452061                0.01000001               -0.28910671               -0.07821752                0.14907719                0.86444945                0.20253699               -0.02073850
               3.99560730                8.96072589               73.10006140                0.01000000               -0.28252097               -0.00958995                0.17766222                1.11272197                0.48559902                0.16751144
               4.99529563                8.97244998               73.10994588                0.01000002                0.08573785               -0.14853312                0.13485792                1.17758139                1.00404016                0.31728714
               5.99732205                8.98652885               73.12473137                0.01553368                0.13399103               -0.03747806                0.18744071                1.08568775                0.99646763                0.49814748
               6.99797545                8.99726182               73.13261417                0.01206931                0.10638606               -0.18834003                0.18328750                0.61097543                0.78877455                0.03505093
               7.99944977                9.00286215               73.14296527                0.10626817                0.04946604               -0.00315954                0.15077855                0.46260778                0.46109112                0.31546356
               8.99896477                9.00112917               73.14459912                0.98914773               -0.05296959               -0.05331805                0.17832631                0.00310989                0.01193827                0.01325473
               9.99839038                8.99944330               73.14593979                1.00000000               -0.05743915               -0.06045629                0.20606682               -0.00082228               -0.00197864                0.00439438
               0.01270208                9.98429459               73.09225395                0.99999999               -0.04224982               -0.03954177                0.13591258               -0.00057149                0.01395454                0.01332457
               1.01227959                9.97379122               73.09365377                0.99094573               -0.04349305               -0.04184851                0.14427571               -0.00241269                0.01779344                0.00053358
               2.01183222                9.96331462               73.09513709                0.97037520               -0.04580135               -0.04391685                0.15134228               -0.00174213                0.01894637               -0.00371838
               3.01136356                9.95287079               73.09656703                0.38054093               -0.73874250               -0.04600424                0.15878277                1.00572569                0.22167075               -0.00353965
               3.99705737                9.96259412               73.10208951                0.01000000               -1.03490136                0.18682363                0.28611853                1.08515296                0.47373054                0.31022148
               4.99066553                9.97167369               73.11338367                0.02498345               -0.33920439               -0.07762858                0.20044586                0.70020760                1.04046079                0.25944287
               5.99027329                9.98585848               73.12726840                0.08769418                0.07662301               -0.06703759                0.23229413                0.43657059                0.82225667                0.19882085
               6.99219799                9.99450264               73.13260623                0.11162500                0.54979047               -0.27591798                0.22383305                0.24787076                0.71735364               -0.05639882
               8.00126910               10.00237081               73.14402575                0.61101065                0.42680004               -0.04913380                0.17348563                0.48498641                0.52375558                0.00325714
               9.00073399               10.00056373               73.14571588                1.00000000               -0.05923826               -0.05654403                0.20158138               -0.00227917                0.02047301                0.00293809
              10.00008433                9.99878679               73.14705686                0.99472762               -0.06496631               -0.06565042                0.22932279               -0.00829886                0.00259312               -0.00276391
              -0.08521829               -0.01592140               74.07259284                1.00000000               -0.02395800               -0.02500905                0.08781552                0.00328514                0.00329994               -0.00222040
               0.91454213               -0.02028158               74.07522158                0.74731695               -0.01890114               -0.03195017                0.09201087                0.00632659                0.00653746                0.00101356
               1.91440369               -0.02439735               74.07789963                0.33949655                0.03156255               -0.02872924                0.09676783                0.07007133                0.01916524                0.00055035
               2.91517338               -0.02680635               74.08071641                0.22679706                0.12592072               -0.02080621                0.09951713                0.14546346                0.00181700               -0.00377823
               3.91692210               -0.02450905               74.08283960                0.22777956                0.08861268               -0.01054718                0.10189515                0.04027736               -0.06174380               -0.00818752
               4.91694563               -0.01884658               74.08448855                0.33341427               -0.03304125               -0.02531404                0.10038684                0.03736140               -0.05471523               -0.00202716
               5.91626127               -0.01360631               74.08676739                0.73942094               -0.05297238               -0.03244811                0.09918880                0.03434115               -0.01307375               -0.00162902
               6.91588618               -0.00903720               74.08941164                1.00000000               -0.03635197               -0.03394240                0.10303853                0.00466261                0.00448931               -0.00127546
               7.91553424               -0.00453009               74.09208363                0.99089066               -0.03509329               -0.03531553                0.10760698                0.00173472                0.00553285               -0.00181395
               8.91518432               -0.00001636               74.09476481                0.99208478               -0.03465701               -0.03698619                0.11107083                0.00091800                0.00467282                0.00031622
               9.91484110                0.00455438               74.09742668                0.99999999               -0.03432241               -0.03847243                0.11528264               -0.00325394                0.00366808                0.00490605
              -0.08082526                0.98382851               74.07446140                0.74116538               -0.03313708               -0.02068450                0.09903171                0.00793928               -0.00262958                0.00019790
               0.91884337                0.97939892               74.07707640                0.01132411               -0.04039767               -0.04040643                0.10306363                0.02112278               -0.00441071                0.00357616
               1.91836679                0.97531536               74.07966086                0.01000000               -0.10797508               -0.00919615                0.10669406                0.13985234               -0.01271028                0.00944467
               2.91668387                0.97298559               74.08216912                0.01000000               -0.25109000                0.07394090                0.10986639                0.37438820               -0.06220452                0.00942785
               3.91334499                0.97538547               74.08399537                0.01051232               -0.24079961                0.06422016                0.11769741                0.55662079               -0.10664593                0.03504965
               4.91186788                0.98090028               74.08542617                0.01000000               -0.08224942               -0.06228443                0.12014763                0.55185192               -0.09782691                0.07903904
               5.91170000                0.98606921               74.08748700                0.01000001               -0.02365879               -0.03933150                0.12023899                0.34849506               -0.03719617                0.06987949
               6.91139470                0.99062337               74.09005370                0.41010312               -0.03294190               -0.03593077                0.12496072                0.01110869               -0.00835597               -0.01211462
               7.91104116                0.99511676               74.09266812                0.98131529               -0.03717167               -0.03895596                0.13079376                0.00354255               -0.00335400               -0.00396488
               8.91065127                0.99961378               74.09533063                1.00000000               -0.04016705               -0.04077693                0.13575082                0.00048915               -0.00048999                0.00152959
               9.91023782                1.00416965               74.09799975                0.98960191               -0.04134469               -0.04227426                0.14053407               -0.00381522                0.00031996                0.00816647
              -0.07620032                1.98366491               74.07636227                0.33022838               -0.03219410                0.03109422                0.11037594                0.07880679               -0.00181426                0.02963920
               0.92347774                1.97891029               74.07898835                0.01000000               -0.00928042               -0.11170749                0.11457343                0.14536469               -0.00232436                0.01799529
               1.92361407                1.97541873               74.08158662                0.01000001               -0.04433528               -0.04661606                0.10425176                0.45194160               -0.02183784                0.02338408
               2.92259103                1.97467247               74.08387158                0.01000000               -0.17371240                0.08182948                0.10828351                0.79818181               -0.04627306                0.04339297
               3.92013982                1.97677535               74.08601604                0.01000000               -0.26460464                0.10210414                0.11046027                1.10225524               -0.07436258                0.10484674
               4.91729894                1.97990773               74.08796371                0.01000001               -0.33158685               -0.05222156                0.11700541                1.22875056               -0.08913023                0.15726200
               5.91350808                1.98560706               74.08963853                0.01126722               -0.51190639                0.08582900                0.12218825                0.95295341               -0.13770284                0.15170513
               6.90706081                1.99024418               74.09047866                0.01565947               -0.34467019                0.08805469                0.14615445                0.54596388               -0.09335449                0.10226234
               7.90661468                1.99469079               74.09321090                0.01000000               -0.04598025                0.05575639                0.15417625                0.32528462               -0.00016756                0.11060170
               8.90614120                1.99916810               74.09592223                0.84546499               -0.04808187               -0.04808669                0.16107116                0.00124315               -0.00059348                0.00433253
               9.90565304                2.00370889               74.09863686                0.98598011               -0.04881626               -0.04983835                0.16580581               -0.00371521                0.00053851                0.01238941
              -0.06973989                2.98445040               74.07875416                0.21086543               -0.02632677                0.12426903                0.11774428                0.17790991               -0.00585893                0.08017579
               0.92999685                2.97716477               74.08118782                0.01000000                0.06916669               -0.25810854                0.12247806                0.41723238               -0.00137702                0.04306257
               1.93164345                2.97438304               74.08367938                0.01000000                0.06470194               -0.15638663                0.10906999                0.81871281               -0.00540448                0.04234783
               2.93129089                2.97462217               74.08613361                0.01000000               -0.07443116               -0.03276187                0.10779199                1.14176360               -0.00448478                0.07663852
               3.93015482                2.97742756               74.08865969                0.01206484               -0.18398541               -0.03080454                0.10832745                1.28401875               -0.01063350                0.11401064
               4.92761118                2.97985585               74.09092521                0.01000000               -0.48661038                0.04811191                0.11453957                1.54963112               -0.06167728                0.16151338
               5.92042262                2.98778579               74.09238393                0.01000001               -0.71904670                0.17547388                0.12049185                1.68147686               -0.12913458                0.25094044
               6.91323024                2.99238447               74.09340131                0.01000000               -0.58998428                0.26508193                0.11982828                1.56981098               -0.06827604                0.38816652
               7.90862293                2.99623188               74.09608872                0.01619390               -0.57861071                0.24957219                0.19080252                1.13239229               -0.06500466                0.31314423
               8.90165803                2.99865205               74.09653995                0.01000001               -0.37704982               -0.25674712                0.18966621                1.10524949               -0.11717527                0.26922105
               9.90108193                3.00317289               74.09928360                0.23954893               -0.05760938               -0.81356588                0.19053912                1.29094532               -0.00109774                0.28509364
              -0.05807087                3.98615029               74.08147899                0.20225349               -0.00393857                0.04162312                0.10201776                0.07177690               -0.01059860                0.07128485
               0.94188974                3.97374812               74.08381458                0.01048534                0.03008973               -0.21069198                0.10851532                0.62300700               -0.01739176                0.04915244
               1.94253092                3.97229100               74.08603105                0.01000000                0.02460221               -0.20819459                0.10831740                1.13130261                0.00714814                0.02897160
               2.94238179                3.97401723               74.08865464                0.01207144               -0.09722002               -0.12712423                0.10602794                1.27059763                0.01970146                0.06659840
               3.94058652                3.97615926               74.09118897                0.01000000               -0.22242281               -0.17503592                0.11155588                1.49996231                0.02326758                0.10500331
               4.93793333                3.98086997               74.09392114                0.01000001               -0.29887590                0.05122739                0.11458877                1.91317652                0.04108678                0.19469587
               5.93460900                3.98911654               74.09677445                0.01000001               -0.39611983                0.11201023                0.10917696                2.29090134                0.05652248                0.36399487
               6.93001093                3.99554582               74.09969132                0.01260584               -0.58070284                0.19239197                0.11058928                2.27621417               -0.03185271                0.48210103
               7.92299495                3.99968224               74.10051776                0.01274786               -0.43528703                0.11788713                0.12758247                1.73385723               -0.08845087                0.51135067
               8.92130519                3.99403316               74.10241852                0.01000000               -0.02823399               -0.22694507                0.20383280                1.42476572                0.04197205                0.67327815
               9.92243027                3.98743758               74.10535274                0.01000000                0.11250746               -1.05740520                0.26205487                1.34141591                0.12243509                0.73996984
              -0.04350001                4.98528286               74.08377545                0.31255663               -0.01837104               -0.10020316                0.08965768                0.10564848               -0.00384040                0.04466451
               0.95631628                4.97295093               74.08595563                0.01000000               -0.12497988               -0.02452167                0.09929362                0.57312505               -0.00105358               -0.00952086
               1.95400040                4.97021915               74.08817447                0.01000001               -0.17408528               -0.23728939                0.10879119                1.17176743                0.01710078                0.00115058
               2.95283458                4.97207969               74.09085867                0.01000000               -0.03495336               -0.41387705                0.11101373                1.47174814                0.05609716                0.03445120
               3.95330133                4.97392684               74.09393646                0.01000001                0.00414260               -0.25645735                0.10961931                1.85205124                0.11696894                0.10679671
               4.95291743                4.98088040               74.09777525                0.01000001               -0.08682672               -0.05518617                0.09755769                2.37580963                0.19228187                0.23571338
               5.95156479                4.99002599               74.10218223                0.01260232               -0.23643015               -0.02062832                0.08800118                2.43690596                0.15762470                0.32917777
               6.94818883                4.99623231               74.10499982                0.01146058               -0.33760294               -0.02960754                0.10048870                2.23471353                0.07514338                0.43707768
               7.94481274                4.99858963               74.10747847                0.01000000               -0.28954111               -0.03265091                0.12372493                2.02505248                0.16406066                0.75110994
               8.94239800                4.99411314               74.11166434                0.01000002               -0.18556558                0.22411983                0.14050932                1.43422131                0.27365287                1.16854403
               9.94110142                4.98202478               74.11600235                0.03476203               -0.12965804               -0.13941744                0.19971123                0.94636803                0.29480644                1.19242565
              -0.03129405                5.98414623               74.08576849                0.69116917               -0.02899978               -0.07823521                0.09413313                0.06379521               -0.00365693                0.01974375
               0.96841595                5.97325769               74.08763433                0.01000001               -0.09342201                0.00536554                0.10488583                0.31506690                0.01749285               -0.02157295
               1.96683751                5.96754521               74.08991897                0.01126559               -0.01534483               -0.38163813                0.11389625                0.86808936                0.06354160               -0.04929629
               2.96810906                5.96573969               74.09281288                0.01000001                0.09946636               -0.65741436                0.11344771                1.53310611                0.13592693                0.00909796
               3.96882684                5.97103011               74.09676790                0.01000001                0.06206553               -0.34121028                0.09380307                2.13910770                0.24637391                0.08141641
               4.96935037                5.97976625               74.10197497                0.01261284               -0.04158130               -0.20641042                0.07110292                2.34750634                0.28195543                0.15706815
               5.96799521                5.98870397               74.10638347                0.01154724               -0.16044000               -0.17662418                0.08001194                2.24301582                0.25592654                0.25859807
               6.96614157                5.99495367               74.11095817                0.01000000               -0.11900278               -0.06567943                0.09013366                2.20395058                0.37358922                0.55754426
               7.96561516                5.99902922               74.11767378                0.01000000                0.02064468                0.18507293                0.08440395                2.21178549                0.67599333                1.11988715
               8.96655446                5.99851556               74.12799281                0.01618701               -0.00404038                0.27907079                0.16367423                1.40594218                0.56639671                1.11478079
               9.96553435                5.98464923               74.13125028                0.01000000               -0.10201119                0.31245235                0.22400406                0.64209597                0.23555316                0.97308635
              -0.02044702                6.98371816               74.08772188                0.99638255               -0.03343371               -0.04145492                0.10364515                0.00825511               -0.00245576                0.01662016
               0.97921864                6.97305824               74.08943210                0.35937425               -0.03363964               -0.02354444                0.11357216                0.01539371               -0.01490903               -0.01154277
               1.97888019                6.96258639               74.09088783                0.01565449                0.03965782               -0.26940484                0.12610214                0.42299074                0.07492992               -0.06072168
               2.98001180                6.95893140               74.09439276                0.01000000                0.15883681               -0.63325973                0.13398080                1.32465679                0.24092297               -0.05837092
               3.98205692                6.96710263               74.09923131                0.01260313                0.10909496               -0.47446119                0.06565352                2.06525397                0.32061037               -0.01209200
               4.98219370                6.97675219               74.10464739                0.01145559               -0.04096173               -0.31345438                0.06603508                2.06370570                0.38529166                0.06170487
               5.98123769                6.98649351               74.11074207                0.01000000               -0.01255539               -0.16490917                0.07553586                2.09242030                0.53510111                0.35399666
               6.98194259                6.99491872               74.11935383                0.01000000                0.21244347                0.11952285                0.05894781                2.23316007                0.89737700                0.88688590
               7.98548656                7.00229109               74.13279542                0.01663298                0.14771247                0.12581402                0.10885033                1.69044681                0.67988695                0.87411000
               8.98489684                6.99969456               74.13572528                0.01429272               -0.19052765                0.09562502                0.16669307                0.75553835                0.08574472                0.73729222
               9.98167600                6.98827383               74.13687852                0.14289258               -0.32208349                0.70370735                0.23225911                0.33822237                0.00113186                0.69889560
              -0.00980912                7.98331713               74.08968797                0.99999999               -0.03352812               -0.03849490                0.11336424                0.00790458               -0.00150522                0.01879596
               0.98985560                7.97278680               74.09127225                0.94685092               -0.03833569               -0.03601504                0.12660656               -0.00001604               -0.00461365               -0.00531334
               1.98942417                7.96215711               74.09278869                0.01033190                0.01151734               -0.04210507                0.14308883                0.06801136               -0.05149456               -0.01789098
               2.99008595                7.95307449               74.09344266                0.01619885                0.14434832               -0.38728640                0.18956293                0.94365402                0.24902258                0.09631782
               3.99231113                7.96154089               74.10035326                0.01275375                0.05738304               -0.37472585                0.08017287                1.62504356                0.51391087               -0.07006944
               4.99123361                7.97349716               74.10703069                0.01000000               -0.03170215               -0.26051101                0.07845794                1.75756198                0.66091810                0.14185907
               5.99167709                7.98540579               74.11708393                0.01000000                0.18867930               -0.03752343                0.06366774                1.92867076                1.07296306                0.60437874
               6.99500719                7.99734413               74.13226007                0.01660188                0.14855806                0.08245502                0.10011885                1.54435265                0.87415278                0.62722473
               7.99464825                8.00154550               74.13723558                0.01390954                0.03376458               -0.02824439                0.15940293                0.77624693                0.48829015                0.47767200
               8.99568248                8.00042806               74.14484149                0.11434458                0.02460032                0.01134462                0.15814333                0.48683145                0.29274020                0.40001668
               9.99514026                7.99872337               74.14658462                0.63669318               -0.05422267                0.49586901                0.19058347                0.59045582               -0.00107545                0.41578836
               0.00077173                8.98294826               74.09168914                0.99198223               -0.03933925               -0.03810512                0.12443024               -0.00069801                0.00222968                0.01691800
               1.00037834                8.97233794               74.09318284                0.99999999               -0.04095053               -0.04361886                0.13671493               -0.00453235                0.00035521               -0.00157669
               1.99995272                8.96174428               74.09464706                0.96929417               -0.04386181               -0.04242237                0.14311015               -0.00317601               -0.00862836               -0.01386104
               2.99950110                8.95118568               74.09598939                0.01000001               -0.29087979               -0.11666078                0.14202352                0.89148176                0.20234058                0.01368288
               3.99413513                8.95960812               74.10166885                0.01000000               -0.30105331               -0.00435671                0.17776756                1.18227124                0.62984243                0.09081078
               4.99348004                8.97154197               74.11112767                0.01000002                0.09145046               -0.13558827                0.11250813                1.18979381                1.06566205                0.24361491
               5.99596414                8.98574304               74.12642310                0.01608242                0.16049461               -0.01369227                0.14366691                1.11052823                1.02405736                0.49238842
               6.99668993                8.99656782               74.13431407                0.01271683                0.09817142               -0.17645131                0.15573348                0.59464984                0.76075185                0.03013114
               7.99792756                9.00172620               74.14446197                0.10194681                0.03828313               -0.01573389                0.14934642                0.42603920                0.43593083                0.30042816
               8.99745559                8.99992145               74.14637041                0.98911221               -0.05165377               -0.05338169                0.17663737                0.00337733                0.01006604                0.01230086
               9.99689449                8.99819121               74.14800139                1.00000000               -0.05611042               -0.05998475                0.20616867                0.00144612               -0.00364414               -0.00083883
               0.01139755                9.98255503               74.09361221                0.99999999               -0.04286258               -0.03932274                0.13529165               -0.00147874                0.01416754                0.01384834
               1.01096893                9.97191442               74.09509273                0.99057520               -0.04423193               -0.04235177                0.14407893               -0.00325969                0.01618762               -0.00128460
               2.01051291                9.96130867               74.09663803                0.98783096               -0.04585884               -0.04356182                0.14804122               -0.00263832                0.01471180               -0.00567371
               3.01005175                9.95074128               74.09813147                0.39472721               -0.74563244               -0.04443983                0.15130660                1.06231886                0.28202936               -0.00106042
               3.99560026                9.96145375               74.10498880                0.01000000               -1.05785952                0.18456375                0.28311835                1.14871961                0.71592975                0.16410064
               4.98889456                9.97078539               74.11539954                0.02517173               -0.33692297               -0.07565746                0.21779912                0.72536144                1.06182645                0.26994792
               5.98886181                9.98513194               74.12960772                0.08790324                0.10112365               -0.06110989                0.22737149                0.44125220                0.82837754                0.20164491
               6.99091703                9.99381510               74.13483281                0.11157144                0.54767978               -0.27527179                0.22836626                0.22765413                0.67686216               -0.05167032
               7.99981540               10.00123082               74.14575726                0.60837720                0.41839932               -0.04953769                0.17351161                0.46604981                0.48488314                0.00400093
               8.99928502                9.99936042               74.14773085                1.00000000               -0.05928679               -0.05610288                0.20154947               -0.00241459                0.02120104                0.00402616
               9.99862967                9.99752368               74.14936181                0.99492540               -0.06553534               -0.06675316                0.23104702               -0.01015694                0.00387071               -0.00383951
              -0.08783286               -0.01787039               75.07346899                1.00000000               -0.02315164               -0.02415812                0.08745155                0.00332614                0.00369936               -0.00255331
               0.91193563               -0.02218141               75.07613874                0.75016505               -0.01679364               -0.03227572                0.09142888                0.00755968                0.00727515                0.00106292
               1.91183127               -0.02620264               75.07886310                0.35483739                0.03807680               -0.02801712                0.09590048                0.07537665                0.01946679                0.00059573
               2.91269716               -0.02835008               75.08170491                0.24513226                0.12779602               -0.02009823                0.09819031                0.13708886               -0.00034938               -0.00391785
               3.91438719               -0.02582457               75.08385708                0.24004575                0.08542000               -0.01045066                0.10164325                0.04712537               -0.06652812               -0.00773504
               4.91440556               -0.01990613               75.08549948                0.33958291               -0.03743643               -0.02415083                0.10203231                0.04037303               -0.06117213               -0.00217190
               5.91363846               -0.01444846               75.08776650                0.73651166               -0.05831693               -0.03256707                0.10099755                0.03997403               -0.01769139               -0.00131321
               6.91323922               -0.00980206               75.09044598                0.99999998               -0.03802502               -0.03399001                0.10420445                0.00524205                0.00231437               -0.00092882
               7.91287796               -0.00525035               75.09316458                0.99999998               -0.03569235               -0.03517718                0.10786024                0.00140606                0.00315001               -0.00159505
               8.91252538               -0.00070445               75.09588035                0.99164336               -0.03479469               -0.03676504                0.11107717                0.00042120                0.00181684               -0.00001141
               9.91218207                0.00389567               75.09857789                1.00000000               -0.03433091               -0.03809663                0.11508012               -0.00335878                0.00094908                0.00333046
              -0.08348857                0.98188803               75.07544690                0.74400437               -0.03340804               -0.01850311                0.09801227                0.00908727               -0.00295800                0.00002777
               0.91617735                0.97749583               75.07810128                0.01000000               -0.04210286               -0.04207281                0.10183015                0.02572508               -0.00495256                0.00376358
               1.91566937                0.97351719               75.08072158                0.01000000               -0.11491666               -0.00929608                0.10533466                0.15418651               -0.01396451               -0.00044270
               2.91387902                0.97144893               75.08326188                0.01000000               -0.25164538                0.07009707                0.10854909                0.38669121               -0.05954566                0.00437265
               3.91063646                0.97407092               75.08516661                0.01070301               -0.23788884                0.06163401                0.11644048                0.56618003               -0.10382733                0.02498139
               4.90912124                0.97985237               75.08662773                0.01000000               -0.08251492               -0.07355965                0.12014551                0.56433828               -0.10024092                0.06872930
               5.90898617                0.98522587               75.08869125                0.01000001               -0.02143264               -0.05152533                0.12063426                0.35805663               -0.03989914                0.06134136
               6.90869259                0.98985804               75.09130262                0.39737325               -0.03214740               -0.03570005                0.12479639                0.01269138               -0.00813103               -0.01150861
               7.90834322                0.99439788               75.09397717                0.98031686               -0.03680031               -0.03877973                0.13020708                0.00342194               -0.00282877               -0.00340033
               8.90795658                0.99892790               75.09668502                1.00000000               -0.03974280               -0.04043673                0.13450417               -0.00000014               -0.00067887                0.00170711
               9.90754836                1.00351470               75.09939527                0.98933513               -0.04082178               -0.04168948                0.13853015               -0.00394880                0.00000270                0.00681145
              -0.07886671                1.98175955               75.07745845                0.34536143               -0.03123209                0.03735337                0.10869643                0.08329764               -0.00202230                0.02767616
               0.92082097                1.97697713               75.08012493                0.01000000               -0.00856969               -0.11830429                0.11258326                0.15846814               -0.01335417                0.01609686
               1.92096190                1.97361144               75.08254416                0.01000001               -0.04718590               -0.05027457                0.10594464                0.47401689               -0.02474419                0.01847860
               2.91987725                1.97305186               75.08497086                0.01000000               -0.18272694                0.07343922                0.10950063                0.83144636               -0.04525491                0.02898536
               3.91730736                1.97540811               75.08712673                0.01000000               -0.26699335                0.09029513                0.11346853                1.12610296               -0.07778828                0.08516389
               4.91453739                1.97862268               75.08914794                0.01000001               -0.32567218               -0.07487774                0.12199962                1.25220430               -0.09249490                0.13528870
               5.91079392                1.98452103               75.09087181                0.01120383               -0.51081741                0.06676881                0.12902933                0.98036194               -0.13607842                0.12375711
               6.90432104                1.98948394               75.09194813                0.01551960               -0.34586857                0.08097294                0.14715588                0.55453421               -0.08133101                0.07154017
               7.90387654                1.99397406               75.09475030                0.01000000               -0.04562426                0.06366593                0.15351406                0.33694984                0.00346216                0.11091594
               8.90340855                1.99848682               75.09752058                0.86364954               -0.04735273               -0.04748958                0.15859849                0.00088082                0.00170340                0.00618388
               9.90292949                2.00306188               75.10027671                0.96339933               -0.04790629               -0.04890515                0.16218223               -0.00370480                0.00211744                0.01091283
              -0.07225778                2.98263510               75.07991479                0.22893176               -0.02473973                0.12663763                0.11426261                0.16573675               -0.00618477                0.06461136
               0.92749482                2.97512974               75.08239781                0.01000000                0.06663820               -0.25864041                0.11945436                0.42337040               -0.00946624                0.03077417
               1.92907499                2.97251170               75.08478435                0.01000000                0.06082240               -0.16784924                0.10996144                0.84832239               -0.01960647                0.03517848
               2.92871127                2.97291772               75.08721561                0.01000000               -0.07436425               -0.04158119                0.11100605                1.17076304               -0.01355967                0.05976258
               3.92758770                2.97587683               75.08975787                0.01210297               -0.18294331               -0.04804656                0.11392361                1.31115163               -0.01849337                0.09451532
               4.92505241                2.97835481               75.09208912                0.01000000               -0.49277790                0.03017539                0.12187655                1.57915439               -0.06882069                0.13455137
               5.91773214                2.98656124               75.09361738                0.01000001               -0.73610811                0.15737652                0.13478904                1.72179503               -0.15730819                0.21212258
               6.91033024                2.99147750               75.09445507                0.01000000               -0.58263999                0.24442583                0.12999685                1.61550948               -0.12115116                0.33758722
               7.90607934                2.99567120               75.09784499                0.01649028               -0.57219340                0.24967821                0.15299974                1.14623138               -0.23179414                0.29088155
               8.89888638                2.99797811               75.09840705                0.01000001               -0.38776000               -0.27664973                0.18455109                1.11959709               -0.11209475                0.26115920
               9.89832414                3.00253660               75.10116220                0.26326596               -0.05622332               -0.83803839                0.18574901                1.32567676               -0.00036636                0.28397642
              -0.06054126                3.98429230               75.08249661                0.21459074               -0.00469561                0.04451699                0.10121510                0.07587914               -0.00997307                0.04601979
               0.93941178                3.97180432               75.08490331                0.01069505                0.03408184               -0.21179864                0.10904517                0.62645200               -0.02042472                0.02880619
               1.94014037                3.97025445               75.08711387                0.01000000                0.02578028               -0.21510276                0.11016862                1.14970015               -0.00290083                0.01295652
               2.93992739                3.97222023               75.08972273                0.01209929               -0.10235372               -0.13428408                0.11055622                1.29519868                0.00809254                0.04821685
               3.93809330                3.97444718               75.09231596                0.01000000               -0.22456639               -0.19183144                0.11759310                1.51585757                0.01127716                0.08042969
               4.93543606                3.97922619               75.09508095                0.01000001               -0.29930876                0.03122178                0.12228076                1.93722385                0.01956398                0.15335022
               5.93210712                3.98766856               75.09787027                0.01000001               -0.39573934                0.08412361                0.12118385                2.33753646                0.02393735                0.30659293
               6.92752127                3.99437246               75.10080350                0.01273782               -0.59032787                0.16123456                0.12255561                2.34892070               -0.06722770                0.44134258
               7.92030057                3.99896762               75.10184443                0.01302695               -0.42930883                0.08212737                0.14487362                1.76222355               -0.08665108                0.44749667
               8.91893509                3.99295382               75.10432448                0.01000000                0.00127395               -0.25030706                0.17104049                1.43970960                0.01261002                0.58217053
               9.92032604                3.98630111               75.10747685                0.01000000                0.13909507               -1.07514683                0.18371162                1.37921585                0.09537326                0.71075409
              -0.04576424                4.98352544               75.08467000                0.31987503               -0.01740511               -0.09914192                0.08915135                0.10167126               -0.00349101                0.02845277
               0.95406171                4.97089377               75.08695500                0.01000000               -0.12913428               -0.02768843                0.10084460                0.58689051               -0.00165316               -0.02116568
               1.95165308                4.96820964               75.08925834                0.01000001               -0.18195962               -0.23073378                0.11058249                1.20056738                0.00880737               -0.01387427
               2.95042252                4.97023204               75.09196209                0.01000000               -0.03770912               -0.41370714                0.11448604                1.49093895                0.03810858                0.01217337
               3.95089890                4.97204020               75.09503144                0.01000001                0.00764903               -0.27578272                0.11551161                1.86110861                0.08808851                0.06136993
               4.95057550                4.97897925               75.09874300                0.01000000               -0.07811482               -0.08453095                0.10578960                2.39816815                0.15389943                0.16525869
               5.94933660                4.98824371               75.10303888                0.01277530               -0.22829524               -0.05152264                0.09542999                2.47292671                0.12231323                0.25581565
               6.94600960                4.99470219               75.10597502                0.01172712               -0.32970740               -0.06864346                0.10934896                2.27519701                0.04592117                0.36050346
               7.94274245                4.99731375               75.10865614                0.01000000               -0.28312593               -0.08456013                0.12401035                2.07109668                0.11915390                0.66384032
               8.94034708                4.99297197               75.11304646                0.01000002               -0.17642852                0.22823190                0.11890584                1.49207863                0.23591807                1.10043904
               9.93921388                4.98103366               75.11793892                0.03316893               -0.11331967               -0.12095624                0.14899309                1.00734634                0.26629271                1.15374709
              -0.03324450                5.98230947               75.08670097                0.69187390               -0.02901096               -0.08343748                0.09243885                0.06984909               -0.00288607                0.01484411
               0.96646539                5.97125055               75.08868826                0.01000001               -0.09710196                0.00819671                0.10579719                0.33514196                0.01495083               -0.02553835
               1.96481346                5.96563978               75.09102796                0.01118900               -0.02748881               -0.38636481                0.11232646                0.90733751                0.04386098               -0.05821396
               2.96591561                5.96394609               75.09389769                0.01000001                0.08774019               -0.60832976                0.11019938                1.55256592                0.09736655               -0.03950715
               3.96656826                5.96893152               75.09764327                0.01000001                0.06401467               -0.36424863                0.09751371                2.12998754                0.19840766               -0.00429386
               4.96719590                5.97753557               75.10263046                0.01278192               -0.03627757               -0.23398708                0.07806954                2.36274219                0.24259136                0.06084739
               5.96584271                5.98663811               75.10711813                0.01187749               -0.16203620               -0.20076759                0.08283014                2.25666332                0.22158939                0.17394895
               6.96395518                5.99299959               75.11178083                0.01000000               -0.11949915               -0.10271985                0.08619192                2.20583619                0.30434690                0.44559055
               7.96345273                5.99727642               75.11828033                0.01000000                0.05507856                0.19345946                0.05522357                2.28281945                0.62822559                1.00328296
               8.96505675                5.99751846               75.12938236                0.01689999                0.04484284                0.27581364                0.09810737                1.48533730                0.55534611                1.11007587
               9.96434958                5.98388199               75.13339987                0.01000000               -0.07071677                0.32689181                0.17936426                0.68622241                0.23623712                0.98779475
              -0.02224943                6.98185669               75.08875021                0.99373263               -0.03163282               -0.04121962                0.10119485                0.00894799               -0.00385041                0.01436986
               0.97743424                6.97105771               75.09056869                0.34783447               -0.03231367               -0.02625258                0.11510787                0.01680796               -0.01507477               -0.01215041
               1.97710429                6.96048235               75.09214811                0.01549771                0.03739272               -0.27899215                0.13087068                0.49888835                0.04802644               -0.05181307
               2.97818209                6.95806544               75.09522437                0.01000000                0.14024371               -0.45906156                0.08603821                1.34099064                0.18273358               -0.03979094
               3.97990917                6.96475522               75.09978986                0.01272523                0.09708347               -0.49922641                0.06770963                2.01390360                0.27353956               -0.14426076
               4.98012376                6.97429950               75.10518115                0.01173687               -0.04516617               -0.32671552                0.06249892                2.08408944                0.35628260               -0.05468419
               5.97900584                6.98422836               75.11139919                0.01000000               -0.03178765               -0.18117648                0.07227134                2.10534187                0.47428828                0.23583382
               6.97948801                6.99264780               75.11966223                0.01000000                0.24370638                0.14270502                0.03148937                2.33212939                0.81832140                0.77741846
               7.98387997                7.00118294               75.13343033                0.01751478                0.19801238                0.15222362               -0.01129104                1.77281919                0.58526802                0.76096125
               8.98344826                6.99848824               75.13725506                0.01517624               -0.18343474                0.07334169                0.12772596                0.75452577                0.03595624                0.72436380
               9.98021128                6.98757150               75.13925617                0.14102784               -0.32369797                0.66534174                0.23633790                0.35191021               -0.01394437                0.65157678
              -0.01146758                7.98148507               75.09080908                0.99999999               -0.03565347               -0.03762822                0.11101972               -0.00040508                0.00211715                0.01870917
               0.98817589                7.97072550               75.09254819                1.00000000               -0.03744668               -0.03500060                0.12536010                0.00017650                0.00109626               -0.00664476
               1.98778349                7.96005994               75.09426997                0.01000000                0.01433284               -0.04275615                0.14316473                0.26726874                0.03109388               -0.01494513
               2.98846254                7.95476486               75.09657778                0.01650229                0.14143897               -0.45748826                0.24831242                0.93380248                0.15374333                0.03254656
               3.99061227                7.95894700               75.10089351                0.01303681                0.04710048               -0.34243315                0.01810735                1.46965511                0.37695335               -0.16958727
               4.98940455                7.97100126               75.10766987                0.01000000               -0.05055076               -0.26730389                0.07409730                1.78992175                0.63431021               -0.00260101
               5.98960125                7.98301458               75.11746558                0.01000000                0.21193201               -0.01877627                0.03499150                2.02316938                1.01505034                0.50828162
               6.99364319                7.99585369               75.13280783                0.01746854                0.17337066                0.13219528               -0.01187061                1.64849616                0.77826779                0.53674280
               7.99306867                8.00032089               75.13884915                0.01489638                0.00577542               -0.04169519                0.14505710                0.76818406                0.42801166                0.40925623
               8.99375870                7.99898529               75.14643053                0.11496895                0.00763025               -0.00012036                0.15831937                0.45231773                0.27388425                0.38752682
               9.99322127                7.99718882               75.14850496                0.63754135               -0.05374313                0.45389165                0.19006638                0.56256614               -0.00035699                0.37356176
              -0.00073839                8.98110413               75.09292185                0.99155575               -0.03986988               -0.03798306                0.12049805               -0.00004422                0.00636047                0.01797888
               0.99886291                8.97035769               75.09456074                0.99999999               -0.04256460               -0.03898710                0.13624648               -0.00376369                0.00185214               -0.00298657
               1.99841031                8.95962722               75.09608274                0.98441496               -0.04459121               -0.04203622                0.14317074               -0.00688984               -0.01599388               -0.02191317
               2.99797108                8.94891568               75.09736108                0.01000001               -0.26722212               -0.30997196                0.12903756                0.92350874                0.22280060               -0.07291978
               3.99306587                8.95790656               75.10361675                0.01000000               -0.30582330                0.01446176                0.20618636                1.17666910                0.59206786                0.06944024
               4.99185462                8.96895343               75.11219604                0.01000002                0.07754647               -0.12361782                0.06239196                1.19124310                1.06679049                0.09395670
               5.99461680                8.98385284               75.12760471                0.01678615                0.16485018                0.02537835                0.09525235                1.20722958                1.06053734                0.46754607
               6.99515162                8.99529170               75.13572884                0.01353445                0.07476258               -0.17109708                0.11618819                0.62193450                0.75689886               -0.02197971
               7.99611205                9.00034903               75.14595219                0.09851139                0.02375314               -0.02303181                0.14795382                0.40970933                0.42349339                0.28219502
               8.99562668                8.99848583               75.14813187                0.98895736               -0.05282527               -0.05309587                0.17635359                0.00475321                0.00752443                0.00955279
               9.99505555                8.99664933               75.15006316                1.00000000               -0.05711364               -0.05998318                0.20609777                0.00027724               -0.00531046               -0.00805923
               0.01002440                9.98072541               75.09495979                1.00000000               -0.04468853               -0.03787135                0.13064408               -0.00168547                0.01435765                0.01596989
               1.00957752                9.96994576               75.09653535                0.99032068               -0.04683449               -0.04119328                0.14693002               -0.00384909                0.01509094               -0.00484009
               2.00908771                9.95921921               75.09809791                1.00000000               -0.04620669               -0.04080126                0.14613393               -0.00127727                0.01041729               -0.01448645
               3.00865338                9.94856542               75.09959317                0.41146281               -0.74899057               -0.03502557                0.13803438                1.06908099                0.33842109               -0.00394565
               3.99410790                9.95923623               75.10775188                0.01000000               -1.06851204                0.13296699                0.32916487                1.10237706                0.72260917                0.09233576
               4.98728314                9.96852890               75.11773966                0.02468082               -0.33501655               -0.04245239                0.14692714                0.75714815                1.08141389                0.18157819
               5.98740757                9.98352215               75.13181583                0.08818642                0.11512748               -0.03306921                0.18871303                0.47421925                0.82625312                0.20407919
               6.98958569                9.99243175               75.13717356                0.11182081                0.53305772               -0.28599532                0.23538550                0.26031258                0.63247674               -0.06302834
               7.99806872                9.99986025               75.14749598                0.60562088                0.39838883               -0.04887763                0.17259677                0.47024847                0.43900639                0.00503674
               8.99755347                9.99792338               75.14974686                1.00000000               -0.05844513               -0.05624572                0.20179697               -0.00087641                0.02112592                0.00511140
               9.99689982                9.99598916               75.15167780                0.99507269               -0.06536469               -0.06601743                0.23153986               -0.00899447                0.00514459               -0.00492342
              -0.09048380               -0.01992828               76.07434187                1.00000000               -0.02226810               -0.02321053                0.08715006                0.00334897                0.00401474               -0.00279745
               0.90929352               -0.02418541               76.07705015                0.75345703               -0.01446798               -0.03265880                0.09084745                0.00890566                0.00789994                0.00107231
               1.90922684               -0.02810240               76.07981764                0.37118169                0.04394452               -0.02721553                0.09496263                0.07934287                0.01954818                0.00060454
               2.91017241               -0.02999865               76.08268022                0.26404513                0.12850643               -0.01942612                0.09683806                0.12853089               -0.00208710               -0.00392937
               3.91179697               -0.02728281               76.08487247                0.25243102                0.08201786               -0.01017339                0.10118666                0.05316859               -0.06896054               -0.00721089
               4.91181277               -0.02114652               76.08652920                0.34613275               -0.04180142               -0.02270728                0.10357026                0.04260155               -0.06582465               -0.00206958
               5.91096094               -0.01548208               76.08878735                0.73425056               -0.06391883               -0.03272041                0.10303547                0.04549202               -0.02171443               -0.00074739
               6.91053439               -0.01076905               76.09149572                0.99901465               -0.03990365               -0.03398905                0.10533625                0.00592286               -0.00012613               -0.00051059
               7.91016287               -0.00618716               76.09424084                0.99999999               -0.03635223               -0.03498084                0.10788657                0.00108725                0.00065213               -0.00042628
               8.90980735               -0.00162593               76.09698635                0.99110391               -0.03489356               -0.03663749                0.11084619               -0.00010772                0.00012926                0.00053587
               9.90946500                0.00298622               76.09972828                1.00000000               -0.03423488               -0.03791609                0.11462847               -0.00354783                0.00006074                0.00173279
              -0.08619318                0.97983961               76.07642164                0.74738102               -0.03371821               -0.01605856                0.09688711                0.01034269               -0.00322500               -0.00006453
               0.91346964                0.97548800               76.07911300                0.01047059               -0.04399625               -0.04394427                0.10043715                0.03086264               -0.00539485                0.00387356
               1.91292689                0.97162545               76.08176755                0.01000000               -0.12108535               -0.00860343                0.10375967                0.16827440               -0.01495961                0.00084810
               2.91104793                0.96980709               76.08434010                0.01000000               -0.25121500                0.06485508                0.10702482                0.39604790               -0.05633347               -0.00020567
               3.90790259                0.97261545               76.08632418                0.01090686               -0.23547566                0.05850869                0.11506110                0.57146624               -0.10008937                0.01861535
               4.90633842                0.97862641               76.08782908                0.01000000               -0.08377324               -0.08506799                0.12017988                0.57332264               -0.10086020                0.06324373
               5.90622713                0.98419072               76.08989968                0.01000001               -0.01961261               -0.06809278                0.12137017                0.36450198               -0.04146487                0.05948657
               6.90594616                0.98889106               76.09254963                0.38427072               -0.03124725               -0.03542073                0.12467694                0.01468120               -0.00757572               -0.00960925
               7.90560218                0.99346303               76.09527226                0.97934003               -0.03632909               -0.03857760                0.12954089                0.00326183               -0.00220676               -0.00151071
               8.90521958                0.99800769               76.09802071                1.00000000               -0.03924058               -0.04021590                0.13329407               -0.00072322               -0.00056943                0.00235643
               9.90481737                1.00260706               76.10077035                0.98918061               -0.04022102               -0.04129983                0.13659771               -0.00415766                0.00007677                0.00503962
              -0.08157373                1.97975055               76.07853620                0.36156796               -0.03013333                0.04324240                0.10672338                0.08669451               -0.00216895                0.02522405
               0.91812494                1.97493571               76.08124002                0.01000000               -0.00765133               -0.12430672                0.11029544                0.17216568               -0.01293111                0.01407507
               1.91827325                1.97172553               76.08370551                0.01000001               -0.05107877               -0.05542753                0.11086011                0.49346856               -0.03155774                0.01008110
               2.91710336                1.97129845               76.08606159                0.01000000               -0.19331338                0.06292382                0.11186214                0.85800335               -0.05049343                0.01983463
               3.91440698                1.97388736               76.08828541                0.01000000               -0.26997051                0.07565906                0.11811102                1.14312598               -0.07574660                0.07257266
               4.91170395                1.97715212               76.09040370                0.01000001               -0.32103244               -0.10062697                0.12916142                1.26527752               -0.08744844                0.12158914
               5.90798633                1.98315607               76.09221911                0.01114176               -0.50741242                0.04195308                0.14077525                1.00268955               -0.12601091                0.11643768
               6.90155571                1.98852253               76.09342177                0.01535799               -0.34374291                0.06948872                0.14831225                0.52593341               -0.07389322                0.06704943
               7.90111147                1.99304129               76.09628118                0.02521942               -0.04534239                0.07461745                0.15319852                0.17400503                0.00624233                0.09017314
               8.90064886                1.99756975               76.09909420                0.89167439               -0.04641765               -0.04681848                0.15565100               -0.00008629                0.00297659                0.00749482
               9.90018312                2.00216022               76.10188051                0.98917249               -0.04657389               -0.04773913                0.15764066               -0.00360597                0.00292873                0.00912771
              -0.07482961                2.98070446               76.08103941                0.24761769               -0.02324259                0.12824685                0.11066737                0.15424060               -0.00626652                0.04973404
               0.92493796                2.97300187               76.08357690                0.01000000                0.06315657               -0.25843271                0.11631933                0.42757413               -0.01662744                0.02101006
               1.92643352                2.97051690               76.08587861                0.01000000                0.05541036               -0.18246961                0.11214390                0.87219700               -0.02859344                0.02216182
               2.92604617                2.97106556               76.08835374                0.01000000               -0.07610372               -0.05316837                0.11681765                1.19249631               -0.01745994                0.04893250
               3.92491144                2.97412863               76.09093816                0.01213217               -0.18354560               -0.06965391                0.12332440                1.32975815               -0.02079917                0.08056430
               4.92237526                2.97661387               76.09336275                0.01000000               -0.50004707                0.00654865                0.13423977                1.59837452               -0.06244386                0.11564560
               5.91491050                2.98502978               76.09507971                0.01000001               -0.78978222                0.13354142                0.15399181                1.75229172               -0.14323026                0.18380531
               6.90657961                2.99028083               76.09600124                0.01000000               -0.74377179                0.21650940                0.19865813                1.65310549               -0.11273332                0.30467468
               7.90003507                2.99495538               76.09914872                0.01685267               -0.52403453                0.23898638                0.09682664                1.17099828               -0.21864885                0.24348055
               8.89609892                2.99707132               76.10023097                0.01000001               -0.22353788               -0.32662922                0.17755696                1.09865040               -0.08637313                0.23485562
               9.89556431                3.00165227               76.10299858                0.28447328               -0.05346123               -0.86421437                0.17864424                1.35058860                0.00013379                0.25649564
              -0.06308373                3.98231548               76.08350329                0.22736279               -0.00522802                0.04715491                0.10007569                0.07964577               -0.00944252                0.02244639
               0.93686399                3.96976705               76.08599549                0.01089344                0.03686124               -0.21296000                0.10923209                0.62587885               -0.02252122                0.01211200
               1.93765349                3.96807614               76.08823442                0.01000000                0.02387833               -0.22446595                0.11446406                1.16019856               -0.01001995                0.00211767
               2.93734155                3.97023508               76.09086577                0.01213800               -0.10998255               -0.14586850                0.12009429                1.30978076                0.00124208                0.03471338
               3.93545384                3.97249428               76.09354083                0.01000000               -0.22856284               -0.21508535                0.12935404                1.52093742                0.00553175                0.06235899
               4.93277030                3.97728309               76.09636675                0.01000001               -0.30443212                0.00110976                0.13659369                1.94726715                0.01162816                0.12195626
               5.92936520                3.98582690               76.09919813                0.01000000               -0.40390394                0.04323338                0.14703236                2.37190852                0.01789538                0.25073209
               6.92469222                3.99285272               76.10214244                0.01287559               -0.58121256                0.10921095                0.15146985                2.44522460               -0.05524844                0.36288146
               7.91774095                3.99782102               76.10341524                0.01336871               -0.43836227                0.02375762                0.19162070                1.91368765               -0.08247386                0.40129606
               8.91592497                3.99103717               76.10583933                0.01000000                0.01460217               -0.30036397                0.13592350                1.43947909                0.02147557                0.48410120
               9.91803299                3.98487593               76.10902697                0.01000000                0.21080183               -1.12377840                0.15336530                1.43777852                0.10549796                0.63773269
              -0.04813984                4.98164756               76.08555848                0.32781150               -0.01652848               -0.09762904                0.08870005                0.09738016               -0.00299352                0.01182327
               0.95169488                4.96874267               76.08797252                0.01000000               -0.13453533               -0.03169094                0.10267165                0.59520073               -0.00216502               -0.03160213
               1.94916946                4.96602758               76.09038612                0.01000001               -0.19356185               -0.22924888                0.11736804                1.21286694                0.00351869               -0.02753302
               2.94782364                4.96814819               76.09314839                0.01000000               -0.04436369               -0.42739089                0.12590327                1.49494391                0.02542041               -0.00803902
               3.94828218                4.96982693               76.09624669                0.01000001                0.00821705               -0.31542308                0.13194894                1.85481246                0.06710079                0.02919606
               4.94798798                4.97663606               76.09989104                0.01000000               -0.07515711               -0.13690219                0.13015466                2.40122827                0.12395329                0.11267835
               5.94677904                4.98589445               76.10409083                0.01299910               -0.22489990               -0.10021291                0.12081209                2.48702137                0.09976780                0.18580906
               6.94348999                4.99246505               76.10718680                0.01207883               -0.33273329               -0.13372277                0.13715979                2.29550829                0.03516999                0.27222419
               7.94012438                4.99543053               76.10995868                0.01000000               -0.28282006               -0.17501650                0.14471898                2.07180903                0.07935362                0.53317098
               8.93783358                4.99106404               76.11404246                0.01000002               -0.17410163                0.27356514                0.10397470                1.51815242                0.18767007                0.94677950
               9.93664234                4.97917671               76.11898221                0.03205205               -0.11912411               -0.08940312                0.10298343                1.02082048                0.24817562                1.06120929
              -0.03532635                5.98036290               76.08761727                0.69370605               -0.02856654               -0.08750565                0.09031899                0.07597504               -0.00294932                0.00920893
               0.96438798                5.96913323               76.08975027                0.01000001               -0.10841715                0.01063164                0.10741098                0.34763162                0.01144477               -0.02849688
               1.96250530                5.96349116               76.09216549                0.01112077               -0.04734504               -0.38597333                0.12145195                0.92848086                0.02168020               -0.06626318
               2.96344108                5.96168727               76.09501687                0.01000001                0.07784590               -0.63463530                0.12819428                1.54478659                0.06922766               -0.09042629
               3.96406222                5.96618582               76.09871817                0.01000000                0.06431285               -0.44298765                0.13131509                2.10732645                0.16270707               -0.06870895
               4.96472734                5.97454505               76.10353636                0.01298880               -0.03927939               -0.30084841                0.11651352                2.36794276                0.20488683               -0.01368312
               5.96327663                5.98382264               76.10804007                0.01227629               -0.18305191               -0.25158609                0.11364904                2.25482742                0.18443456                0.10211975
               6.96106630                5.99017827               76.11268201                0.01000000               -0.13492500               -0.15124868                0.09942975                2.16429664                0.22776856                0.32887485
               7.96057813                5.99432069               76.11877825                0.01000000                0.07377731                0.07554799                0.06743845                2.29024571                0.54336593                0.82724911
               8.96254185                5.99650847               76.12995496                0.01777521                0.08229706                0.30348117               -0.04120584                1.53618632                0.44771137                0.94907372
               9.96222407                5.98308787               76.13483757                0.01000000               -0.03177705                0.35117858                0.02918816                0.69556780                0.12029385                0.85474410
              -0.02416100                6.97989744               76.08974577                0.99079352               -0.03197531               -0.04216141                0.09781017                0.00985286               -0.00100286                0.01278426
               0.97551925                6.96895530               76.09173426                0.33602961               -0.03269807               -0.02356866                0.11708729                0.02196568               -0.01218838               -0.01319193
               1.97518504                6.95830811               76.09350524                0.01534921                0.02527335               -0.27837939                0.13806289                0.50056682                0.01851798               -0.04471655
               2.97602472                6.95545549               76.09611352                0.01000000                0.11929443               -0.50492767                0.12881068                1.28776285                0.12356431               -0.11720056
               3.97757093                6.96096717               76.10058550                0.01287078                0.08426511               -0.59317839                0.12977258                1.99297485                0.24421562               -0.30287920
               4.97771002                6.97061909               76.10589737                0.01207129               -0.06642800               -0.40574021                0.11246550                2.12579784                0.31834181               -0.14527678
               5.97624237                6.98086273               76.11218750                0.01000000               -0.07160739               -0.22283696                0.09542585                2.11922423                0.41097393                0.12307873
               6.97627787                6.98944008               76.11998361                0.01000002                0.16783587                0.09170548                0.06427691                2.21007232                0.68031670                0.63287075
               7.97959909                6.99694149               76.13256960                0.01000001                0.17561264                0.14440380               -0.12937697                1.83506227                0.41182378                0.63207933
               8.97979013                6.99713367               76.13827980                0.01625674               -0.11020971                0.03966573                0.11307841                0.91106506                0.11936748                0.78602178
               9.97739489                6.98620028               76.14160528                0.14035186               -0.23952308                0.61498722                0.19981121                0.34467034                0.05286419                0.62274225
              -0.01324501                7.97951967               76.09190836                0.99999999               -0.03383606               -0.03701586                0.10636015                0.00332676                0.00000066                0.01530787
               0.98641663                7.96866186               76.09377945                0.99964775               -0.03692683               -0.03321252                0.12489816                0.00695732                0.00142625               -0.00337759
               1.98601645                7.95792358               76.09565198                0.01000000                0.00603222               -0.04150149                0.14210691                0.22871592                0.04464107               -0.01718172
               2.98653727                7.95158871               76.09840891                0.01685485                0.13708302               -0.43717956                0.15846393                0.83985344                0.00496667               -0.20775841
               3.98875811                7.95432225               76.10071540                0.01337079                0.04052330               -0.34143119                0.07748880                1.42060587                0.22651904               -0.37896048
               4.98734774                7.96643024               76.10851264                0.01000000               -0.09589904               -0.36338875                0.11571532                1.90807587                0.67232957               -0.22141962
               5.98684013                7.97936590               76.11778376                0.01000000                0.09206204               -0.00595094                0.06749054                2.14909263                0.91805849                0.41791219
               6.98918898                7.99201238               76.13202266                0.01000001                0.13728281                0.11612114               -0.11034932                1.75227046                0.69390908                0.38088169
               7.98958579                7.99720876               76.14013672                0.01610574                0.11576901                0.08908882                0.18303112                0.98423585                0.55795273                0.53230076
               8.99150436                7.99730178               76.14800788                0.11705386                0.06992361               -0.01687472                0.15661443                0.59419204                0.27355104                0.40008915
               9.99098426                7.99538762               76.15038595                0.63934810               -0.05200994                0.43284539                0.18533056                0.58512316               -0.00056313                0.33297202
              -0.00237883                8.97915713               76.09409910                0.99104004               -0.03666720               -0.03605557                0.11343423                0.00232131                0.00575288                0.01476397
               0.99725450                8.96829105               76.09590777                0.99999999               -0.03943295               -0.03967319                0.13439004                0.00184705               -0.00199214                0.00038613
               1.99683251                8.95747808               76.09751048                0.74463990               -0.04156927               -0.04674913                0.15971122                0.00339190               -0.03952645               -0.02528955
               2.99642311                8.94671190               76.09857015                0.01000001               -0.28454955               -0.26952641                0.19128482                0.86446989                0.23438178               -0.09881887
               3.99114152                8.95413855               76.10579257                0.01000000               -0.27976101                0.03539738                0.16755742                0.98936336                0.80841564               -0.53260878
               4.99082789                8.96335132               76.11237551                0.01000002                0.12502866               -0.15502538                0.06278808                1.28581519                1.08538525               -0.10621806
               5.99364209                8.98074371               76.12832815                0.01763605                0.13262649                0.07126839               -0.00086109                1.37620078                1.01247708                0.37240807
               6.99348042                8.99176250               76.13663783                0.01454017                0.01761541               -0.11736421                0.13890511                0.83385009                0.80824752                0.06802533
               7.99399440                8.99872327               76.14742105                0.09479403                0.00073459                0.05176122                0.14748058                0.57350522                0.43737255                0.27992443
               8.99349511                8.99679617               76.14989748                0.98862172               -0.05343531               -0.05345599                0.17667150                0.00776369                0.00737292                0.00619175
               9.99292569                8.99485719               76.15212334                1.00000000               -0.05694190               -0.05958363                0.20595960                0.00042267               -0.00509778               -0.01169837
               0.00853357                9.97879856               76.09622509                1.00000000               -0.04009511               -0.03585654                0.12257843               -0.00177645                0.01849188                0.01327867
               1.00813262                9.96786840               76.09803133                0.99015043               -0.04350617               -0.04226554                0.14658036               -0.00268619                0.00888437               -0.00061537
               2.00766345                9.95698859               76.09956071                0.97110527               -0.04832078               -0.04894873                0.17116903               -0.00041685               -0.01379317               -0.02423067
               3.00716620                9.94619818               76.10089216                0.43329108               -0.78787428               -0.05137132                0.19979690                0.97638959                0.43142808               -0.01719467
               3.99190596                9.95503020               76.11157209                0.01000002               -1.03536589                0.08916502                0.12479157                0.93302188                1.41152113               -0.62458342
               4.98645888                9.96332974               76.11833809                0.02478772               -0.29764972               -0.00215824                0.10222328                0.85115287                1.02854715                0.11311357
               5.98595297                9.98079127               76.13338198                0.08877011                0.07137691                0.00475588                0.05919731                0.54785536                0.78530682                0.11329471
               6.98788642                9.98966509               76.13954052                0.11246509                0.50346278               -0.20974088                0.21547469                0.31323622                0.57915583                0.02088781
               7.99602222                9.99824399               76.14920920                0.60260600                0.38196476               -0.04792829                0.17168754                0.53116084                0.39170519                0.00397659
               8.99552572                9.99623266               76.15176679                1.00000000               -0.05757653               -0.05635099                0.20227627                0.00065850                0.02175600                0.00505385
               9.99487069                9.99419594               76.15399261                0.99516742               -0.06550272               -0.06612425                0.23157602               -0.00917222                0.00503559               -0.00515835
              -0.09316913               -0.02208588               77.07521199                1.00000000               -0.02130129               -0.02217093                0.08688271                0.00335524                0.00424688               -0.00295303
               0.90661786               -0.02628566               77.07795568                0.75722578               -0.01193508               -0.03309013                0.09023579                0.01034389                0.00840512                0.00105271
               1.90659217               -0.03009037               77.08076235                0.38850905                0.04913667               -0.02633496                0.09391339                0.08195293                0.01941773                0.00057847
               2.90760059               -0.03174843               77.08364167                0.28323467                0.12834153               -0.01881207                0.09536773                0.12042030               -0.00354222               -0.00380878
               3.90915900               -0.02887222               77.08588081                0.26472644                0.07868011               -0.00974983                0.10018928                0.05872791               -0.06956446               -0.00659865
               4.90917419               -0.02254728               77.08757089                0.35294651               -0.04606755               -0.02099898                0.10417725                0.04464030               -0.06869241               -0.00175359
               5.90823765               -0.01668809               77.08982721                0.73300852               -0.06954927               -0.03280803                0.10421924                0.05122640               -0.02522233               -0.00005765
               6.90778321               -0.01192008               77.09255271                0.99456985               -0.04186345               -0.03401084                0.10571180                0.00684723               -0.00236656                0.00008353
               7.90740038               -0.00732172               77.09532231                0.99999999               -0.03713432               -0.03509551                0.10764800                0.00064441               -0.00110440                0.00126847
               8.90704052               -0.00276245               77.09809727                0.99041090               -0.03504787               -0.03703741                0.11032091               -0.00094632               -0.00117187                0.00136686
               9.90669942                0.00184618               77.10087046                1.00000000               -0.03410992               -0.03829167                0.11332358               -0.00401703               -0.00033444                0.00115532
              -0.08893579                0.97769241               77.07738464                0.75131729               -0.03406642               -0.01339317                0.09567122                0.01167233               -0.00342303               -0.00009047
               0.91072354                0.97338344               77.08011002                0.01000000               -0.04605622               -0.04598030                0.09889714                0.03645217               -0.00571935                0.00392871
               1.91014308                0.96964628               77.08279678                0.01000000               -0.12639141               -0.01038111                0.10200416                0.17985056               -0.01558529               -0.00199779
               2.90819571                0.96806345               77.08540238                0.01000000               -0.24986919                0.05916734                0.10538554                0.40354505               -0.05243757               -0.00097256
               3.90514570                0.97103029               77.08746783                0.01114255               -0.23335909                0.05589012                0.11366437                0.57353025               -0.09517216                0.01558777
               4.90352853                0.97724273               77.08903133                0.01000000               -0.08546919               -0.09659644                0.12041436                0.58170334               -0.09943007                0.06202894
               5.90343632                0.98298383               77.09111865                0.01000001               -0.01800192               -0.08210779                0.12276826                0.37575270               -0.04196901                0.06381037
               6.90316849                0.98773981               77.09379616                0.37077828               -0.03041543               -0.03532982                0.12547946                0.01706968               -0.00651210               -0.00621822
               7.90282801                0.99232732               77.09656798                0.97818309               -0.03606949               -0.03886063                0.13013570                0.00279750               -0.00081501                0.00145640
               8.90244710                0.99686718               77.09935090                0.99999999               -0.03886951               -0.04055503                0.13322037               -0.00179091               -0.00037351                0.00257659
               9.90205062                1.00146327               77.10212723                0.98908259               -0.03964883               -0.04149918                0.13554913               -0.00458898               -0.00018973                0.00295759
              -0.08431773                1.97764626               77.07959291                0.37878815               -0.02892352                0.04851359                0.10453104                0.08873242               -0.00225053                0.02245327
               0.91539304                1.97279473               77.08233083                0.01000000               -0.00865504               -0.12944790                0.10774860                0.18276435               -0.01637238                0.01214572
               1.91550917                1.96970201               77.08476136                0.01000001               -0.05527761               -0.06101251                0.10826809                0.51116922               -0.03372148                0.00601770
               2.91428748                1.96943491               77.08720811                0.01000000               -0.20294272                0.05143743                0.11514439                0.88251933               -0.04768374                0.01603006
               3.91145032                1.97224559               77.08948895                0.01000000               -0.27163834                0.06012034                0.12216181                1.15514450               -0.07082951                0.06807743
               4.90885472                1.97552080               77.09173117                0.01000001               -0.30973440               -0.12690313                0.13432997                1.27788035               -0.07475200                0.11746349
               5.90525563                1.98166975               77.09368732                0.01104958               -0.50368052                0.01372514                0.14800858                1.03226255               -0.10922997                0.12577785
               6.89878111                1.98737332               77.09491437                0.01517351               -0.34633325                0.05552630                0.15178282                0.55346975               -0.07021764                0.10725879
               7.89832896                1.99190107               77.09781427                0.01446798               -0.04561735                0.05397141                0.15526120                0.18508788                0.00790830                0.03700751
               8.89786876                1.99642645               77.10063360                0.90704263               -0.04567522               -0.04685404                0.15341759               -0.00114612                0.00207724                0.00499502
               9.89741546                2.00101620               77.10342953                0.97177117               -0.04533010               -0.04716096                0.15319652               -0.00397563                0.00241324                0.00406123
              -0.07745809                2.97866268               77.08212814                0.26680632               -0.02188276                0.12879535                0.10718564                0.14334074               -0.00612729                0.03581938
               0.92232308                2.97079448               77.08472419                0.01000000                0.05921870               -0.25718912                0.11308868                0.43002696               -0.01950275                0.01385162
               1.92372629                2.96842603               77.08702723                0.01000000                0.04897183               -0.19563580                0.11534486                0.89291214               -0.03278493                0.01846562
               2.92330252                2.96909219               77.08955196                0.01000000               -0.07817890               -0.06575323                0.12272895                1.20824978               -0.01746156                0.04439197
               3.92216271                2.97223269               77.09222436                0.01216905               -0.18202735               -0.09298798                0.13307861                1.34325531               -0.01652226                0.07651114
               4.91966197                2.97470467               77.09477391                0.01000000               -0.49668331               -0.01918908                0.14488805                1.60911229               -0.04860159                0.10756365
               5.91222904                2.98325833               77.09669722                0.01000000               -0.78276983                0.10011684                0.16578934                1.77896933               -0.07497178                0.17197278
               6.90400658                2.98885034               77.09842823                0.01000000               -0.73762022                0.15356069                0.20900409                1.67832543               -0.05129688                0.29941342
               7.89747664                2.99340675               77.09978152                0.01727620               -0.53487643                0.21412546                0.14313839                1.18524968                0.06258486                0.15490522
               8.89330905                2.99593010               77.10195819                0.01000001               -0.23425178               -0.38010448                0.16968204                1.14987062               -0.03306813                0.19527096
               9.89279160                3.00052005               77.10473509                0.30807666               -0.05174474               -0.89720354                0.16963871                1.39125868                0.00223145                0.23114683
              -0.06571450                3.98022217               77.08449813                0.24020904               -0.00552676                0.04926211                0.09905464                0.08317351               -0.00902846                0.00085615
               0.93423023                3.96765095               77.08708795                0.01111285                0.03920985               -0.21437682                0.10903551                0.62174043               -0.02294956               -0.00063213
               1.93506970                3.96578929               77.08940315                0.01000000                0.02077912               -0.23490608                0.11932240                1.16450997               -0.01062562               -0.00378202
               2.93464581                3.96811985               77.09212461                0.01217358               -0.11833759               -0.15860228                0.13116910                1.31821901                0.00062697                0.03237290
               3.93270294                3.97038583               77.09490304                0.01000000               -0.23172452               -0.23929564                0.14224674                1.51763563                0.00450070                0.05896809
               4.93001132                3.97513701               77.09781282                0.01000000               -0.30067969               -0.03207325                0.15136548                1.94173609                0.01526638                0.11031592
               5.92668935                3.98367209               77.10081092                0.01000000               -0.39060645               -0.00701898                0.16371342                2.35573426                0.03378659                0.21446025
               6.92219919                3.99044454               77.10383290                0.01305852               -0.58675772                0.03783842                0.17717258                2.46750249                0.03250846                0.25587802
               7.91495420                3.99618358               77.10567685                0.01378490               -0.42231596               -0.03962987                0.21628818                1.91885260                0.04666213                0.25321747
               8.91375287                3.98882436               77.10704295                0.01000000                0.05532642               -0.40690828                0.19295369                1.43282270                0.14629543                0.43725483
               9.91606072                3.98307213               77.11054416                0.01000000                0.23078495               -1.20364018                0.18546851                1.50009101                0.19755826                0.60874436
              -0.05065218                4.97964793               77.08644400                0.33613960               -0.01570473               -0.09579080                0.08898712                0.09315170               -0.00275647               -0.00581570
               0.94919077                4.96650694               77.08900844                0.01000000               -0.14001157               -0.03660354                0.10484089                0.59979036               -0.00020143               -0.03971635
               1.94654758                4.96372791               77.09160570                0.01000001               -0.20602029               -0.22969463                0.12580007                1.21619879                0.00445249               -0.02939572
               2.94507036                4.96592015               77.09448015                0.01000000               -0.05246649               -0.44737098                0.14003881                1.49102740                0.02194921               -0.00613615
               3.94549825                4.96744678               77.09767042                0.01000000                0.00700346               -0.35836468                0.15226720                1.83715134                0.05778253                0.03234698
               4.94521043                4.97406321               77.10134610                0.01000000               -0.07310248               -0.19407156                0.15910793                2.38157934                0.10205579                0.10220065
               5.94403620                4.98311795               77.10545512                0.01327329               -0.21826454               -0.15441294                0.15060639                2.46201489                0.08488661                0.15266495
               6.94084514                4.98960710               77.10871821                0.01253081               -0.32811706               -0.18321321                0.15172704                2.25346920                0.03905697                0.17844656
               7.93747386                4.99261416               77.11155052                0.01000000               -0.28840969               -0.24865470                0.15549942                2.01388644                0.03574919                0.36137371
               8.93507695                4.98779193               77.11512595                0.01000002               -0.15879920                0.17191156                0.11600952                1.40159355                0.13068023                0.75221402
               9.93429788                4.97644725               77.11999859                0.03041207               -0.07790676               -0.23591645                0.15383939                0.91200688                0.23628927                0.93482677
              -0.03756950                5.97830635               77.08850735                0.69609573               -0.02844443               -0.09133205                0.08833017                0.08153910               -0.00175522                0.00095976
               0.96214606                5.96691888               77.09083648                0.01000001               -0.12250195                0.01288736                0.10966922                0.35646406                0.01274099               -0.03108491
               1.95998046                5.96119540               77.09345700                0.01104334               -0.06992856               -0.38131882                0.13537382                0.94006781                0.02292761               -0.06341421
               2.96074749                5.95917243               77.09646157                0.01000000                0.06612244               -0.67953791                0.15827090                1.52629468                0.06418220               -0.07647816
               3.96130291                5.96321853               77.10026957                0.01000000                0.06121250               -0.53731870                0.17457396                2.07972665                0.14040314               -0.04416068
               4.96197174                5.97125558               77.10496073                0.01327249               -0.04585808               -0.38227582                0.16823800                2.35217352                0.16549478               -0.00672972
               5.96038575                5.98058383               77.10939111                0.01277795               -0.20996811               -0.30858538                0.15378773                2.23137811                0.13333572                0.07322271
               6.95777238                5.98678027               77.11376942                0.01000000               -0.16693264               -0.18212708                0.12175223                2.12468744                0.16589971                0.27035928
               7.95704710                5.99121048               77.11962910                0.01000002                0.00896400               -0.00740534                0.08227881                2.09143587                0.33106502                0.65344271
               8.95795166                5.99226259               77.12855825                0.01000001               -0.00284339                0.41819097               -0.16104873                1.44331498                0.16918363                0.75157538
               9.95699023                5.97835380               77.13398363                0.01000000               -0.09614247                0.40153598               -0.09754769                0.62510707               -0.06533289                0.74597409
              -0.02624646                6.97782129               77.09070641                0.98692738               -0.03225388               -0.04342219                0.09486362                0.01232768               -0.00074693                0.00693116
               0.97343100                6.96676469               77.09291044                0.32502521               -0.03290760               -0.02172215                0.11948776                0.02974894               -0.01097198               -0.01367365
               1.97309539                6.95610153               77.09490936                0.01515825                0.00710584               -0.27421661                0.14374092                0.48155460                0.02357839               -0.04276687
               2.97357312                6.95232939               77.09780058                0.01000000                0.09571222               -0.55096813                0.18991271                1.16749213                0.12786119               -0.10792527
               3.97500963                6.95670041               77.10238531                0.01307855                0.06577425               -0.85289087                0.22076468                1.89121538                0.19687170               -0.24399846
               4.97488860                6.96641769               77.10743046                0.01251770               -0.09352774               -0.55804282                0.18886623                2.20284433                0.23400693               -0.12573866
               5.97313908                6.97694624               77.11330770                0.01000000               -0.10881822               -0.26758316                0.13376584                2.18067612                0.34518856                0.09812501
               6.97271224                6.98596456               77.12094777                0.01000002                0.03405909                0.00184166                0.09649506                2.14579239                0.49809343                0.48830527
               7.97382026                6.99246605               77.13084279                0.01000001                0.20438436                0.24524874               -0.09935811                2.06932935                0.45296416                0.77389361
               8.97679993                6.99615575               77.13951663                0.01760711                0.03986698                0.15534018                0.05691608                1.15203791                0.27455264                0.78290404
               9.97461760                6.98447797               77.14325240                0.13859935               -0.21823268                0.74881989                0.10171550                0.40540393                0.07475911                0.74347345
              -0.01520975                7.97743791               77.09293628                0.99999999               -0.03294571               -0.03693056                0.10084407                0.00494134               -0.00053565                0.00901248
               0.98446079                7.96648444               77.09504616                0.99612220               -0.03716983               -0.03255728                0.12804559                0.01269191               -0.00202474               -0.00633036
               1.98404685                7.95571106               77.09711211                0.01000000               -0.04811698               -0.04444139                0.15265326                0.17653272                0.02296330               -0.00957387
               2.98349845                7.94815307               77.09974706                0.01727819                0.04960334               -0.39366729                0.15085875                0.56265781               -0.06099885               -0.12484905
               3.98503892                7.94616072               77.10244329                0.01378604                0.11421658               -1.01513551                0.28967144                1.61804234                0.14935778               -0.28773145
               4.98578279                7.96009473               77.10998418                0.01000000               -0.02932593               -0.47070369                0.17094662                2.26047956                0.58542640               -0.23831782
               5.98445240                7.97523217               77.11881539                0.01000002               -0.03071828               -0.06217297                0.11558955                2.20936573                0.76313973                0.30066019
               6.98516842                7.98681710               77.13060085                0.01000001                0.18950481                0.15848925               -0.07124031                2.01973591                0.81277560                0.47518118
               7.98824250                7.99611546               77.14250977                0.01761065                0.19060385                0.22044977                0.06810044                1.31659421                0.64604929                0.63547952
               8.98898050                7.99536939               77.14956282                0.11875030                0.01056896               -0.06524925                0.15610620                0.57433324                0.21859917                0.39979040
               9.98845388                7.99333020               77.15221157                0.63900009               -0.05266193                0.41653705                0.18371036                0.59029391               -0.00152349                0.32885242
              -0.00424069                8.97708267               77.09519054                0.99037955               -0.03476279               -0.03494537                0.10580657                0.00266265                0.00208460                0.00884683
               0.99541168                8.96611354               77.09724854                0.99999999               -0.04009489               -0.03990436                0.13587688                0.00444084                0.00122687               -0.00210032
               1.99495741                8.95521270               77.09927696                0.76998365               -0.05175292               -0.05384657                0.17800743                0.01233298               -0.00870594               -0.01107870
               2.99437662                8.94445605               77.10118677                0.05016054                0.02357042               -0.22877872                0.25144980                0.14785497                0.17085729               -0.04732246
               3.99542882                8.93639770               77.10696790                0.01000000               -0.16749401               -0.54875985                0.09858870                1.62005244                0.65463253               -0.71460888
               4.99102674                8.95700362               77.11345181                0.01000002               -0.24124023               -0.06143550                0.15861452                1.97832522                0.93534111               -0.08228091
               5.99060402                8.97570279               77.12758748                0.01000001                0.05984633                0.02241077               -0.08759681                1.47947989                0.97421165                0.18514970
               6.99222367                8.98913435               77.13850694                0.01581598                0.04979194                0.01135125                0.18317317                1.06727129                0.92563201                0.33703502
               7.99159985                8.99687504               77.14890181                0.09048531               -0.05759104                0.01240178                0.15057511                0.55752406                0.40398276                0.22119252
               8.99107185                8.99485076               77.15166530                0.98811345               -0.05489925               -0.05417760                0.17692486                0.00791722                0.00722202                0.00397161
               9.99050187                8.99280871               77.15418236                1.00000000               -0.05699797               -0.05913689                0.20588700                0.00054494               -0.00514559               -0.01291661
               0.00678177                9.97673900               77.09741135                1.00000000               -0.03621838               -0.03436761                0.11490960               -0.00301941                0.01028271                0.00883213
               1.00641958                9.96568635               77.09946696                0.99010715               -0.04153774               -0.04271953                0.14530681               -0.00445321                0.01144537               -0.00130776
               2.00595101                9.95463413               77.10152129                0.99264385               -0.05745115               -0.05785690                0.19356651               -0.00608282                0.01077098               -0.00971106
               3.00527056                9.94357749               77.10358911                0.48031285               -0.05293068               -0.08785529                0.25510944                0.11696291                0.23489870               -0.00798447
               4.00489240                9.93518552               77.11024771                0.01137573               -0.96131796               -0.12121767               -0.04564552                1.71078397                1.31416103               -0.83971245
               4.98604420                9.95886602               77.11978412                0.02564526               -1.14905642                0.18623999                0.13347806                1.52648893                1.03490181                0.12271672
               5.98191127                9.97568038               77.13299978                0.01000001               -0.03513065               -0.00224017               -0.07867801                0.53963101                0.82305388               -0.01914569
               6.98534159                9.98704413               77.14148305                0.11222423                0.58826463               -0.20902178                0.26494217                0.34594718                0.84639913                0.16814204
               7.99367656                9.99636349               77.15092973                0.59855721                0.39317956               -0.05115513                0.17554393                0.56975645                0.36712715                0.00210050
               8.99320518                9.99428584               77.15379239                1.00000000               -0.05638347               -0.05649215                0.20289545                0.00253142                0.02247327                0.00505263
               9.99254889                9.99214746               77.15630932                0.99519894               -0.06562859               -0.06612445                0.23185274               -0.00913578                0.00502655               -0.00514623
              -0.09588625               -0.02433265               78.07607952                1.00000000               -0.02024889               -0.02104749                0.08661346                0.00334554                0.00439166               -0.00301201
               0.90391126               -0.02847303               78.07885487                0.76154966               -0.00922723               -0.03355397                0.08955975                0.01183370                0.00876931                0.00100711
               1.90392921               -0.03215968               78.08169591                0.40663377                0.05359223               -0.02538428                0.09272329                0.08320197                0.01902841                0.00052610
               2.90498311               -0.03359624               78.08458757                0.30251742                0.12736326               -0.01825566                0.09377457                0.11304427               -0.00495346               -0.00354951
               3.90647647               -0.03058882               78.08687625                0.27661758                0.07547081               -0.00921057                0.09874007                0.06406067               -0.06922936               -0.00602460
               4.90649252               -0.02410248               78.08861274                0.36027359               -0.05008997               -0.01908172                0.10366661                0.04678209               -0.07082885               -0.00125142
               5.90547467               -0.01806612               78.09087173                0.73316969               -0.07502823               -0.03270658                0.10398304                0.05723482               -0.02852666                0.00068805
               6.90499196               -0.01325428               78.09360996                0.98954375               -0.04392273               -0.03406889                0.10486800                0.00811233               -0.00486509                0.00087394
               7.90459622               -0.00865313               78.09639380                0.99999999               -0.03780974               -0.03466638                0.10551743                0.00091323               -0.00314770                0.00343231
               8.90423576               -0.00410585               78.09919277                0.99999998               -0.03421385               -0.03712446                0.10558546               -0.00084370               -0.00198174                0.00235080
               9.90391194                0.00049579               78.10199475                1.00000000               -0.03238229               -0.03886459                0.10693215               -0.00493727                0.00007201                0.00032674
              -0.09171241                0.97545688               78.07833507                0.75579970               -0.03444782               -0.01056196                0.09437899                0.01303839               -0.00353769               -0.00003997
               0.90794311                0.97119143               78.08109094                0.01000000               -0.04823818               -0.04812586                0.09722348                0.04236915               -0.00588915                0.00393353
               1.90732283                0.96758648               78.08380763                0.01000000               -0.13074960               -0.01124450                0.10009260                0.19110572               -0.01570620               -0.00092319
               2.90532812                0.96622121               78.08644781                0.01000000               -0.24763144                0.05328559                0.10366078                0.40857934               -0.04771271               -0.00020031
               3.90237020                0.96931907               78.08859747                0.01135417               -0.23145660                0.05405993                0.11226342                0.57381748               -0.08872324                0.01509982
               4.90069899                0.97570670               78.09023737                0.01000000               -0.08736408               -0.10693573                0.12073483                0.59028832               -0.09581627                0.06210070
               5.90062292                0.98160682               78.09235505                0.01000001               -0.01661999               -0.09204113                0.12481857                0.39210938               -0.04109136                0.06796873
               6.90036659                0.98640503               78.09505922                0.35764003               -0.02958906               -0.03550425                0.12775663                0.02129139               -0.00496776               -0.00195772
               7.90003114                0.99100020               78.09787498                0.97691448               -0.03568620               -0.03894832                0.13141150                0.00360312                0.00140397                0.00558838
               8.89965287                0.99552290               78.10068512                0.99999999               -0.03851047               -0.04158912                0.13384306               -0.00268411                0.00071281                0.00305084
               9.89926093                1.00010714               78.10348133                0.98912350               -0.03919387               -0.04310990                0.13563795               -0.00519698               -0.00007055                0.00126177
              -0.08709458                1.97545611               78.08062682                0.39698898               -0.02763771                0.05293783                0.10220069                0.08924052               -0.00226654                0.01960367
               0.91262904                1.97056445               78.08339499                0.01000000               -0.00919386               -0.13348228                0.10499319                0.19325098               -0.01557437                0.01044873
               1.91272154                1.96761543               78.08587087                0.01000001               -0.06034707               -0.06710325                0.10983779                0.52661240               -0.03302559                0.00545884
               2.91142210                1.96746947               78.08836448                0.01000000               -0.21271090                0.04078468                0.11615468                0.90243121               -0.04533164                0.01719047
               3.90846733                1.97049238               78.09072865                0.01000000               -0.27057798                0.04628474                0.12459940                1.16390863               -0.06441232                0.06991387
               4.90601054                1.97375880               78.09309030                0.01000001               -0.29243989               -0.15116085                0.13602082                1.29160325               -0.06410407                0.11805862
               5.90261853                1.98009306               78.09517928                0.01096271               -0.49930702               -0.01305900                0.14819642                1.07053319               -0.09713795                0.13455707
               6.89602440                1.98603564               78.09645743                0.01496422               -0.35340586                0.04727695                0.15702669                0.62888090               -0.06384029                0.11133578
               7.89555041                1.99056790               78.09938640                0.01000000               -0.04746293               -0.04046478                0.16144735                0.33761980                0.01060118                0.06190603
               8.89507514                1.99506236               78.10216255                0.92870551               -0.04554435               -0.04777567                0.15488959               -0.00515919                0.00100590                0.00097447
               9.89463952                1.99963359               78.10494444                1.00000000               -0.04356200               -0.04732810                0.15142239               -0.00316655               -0.00143130               -0.00075691
              -0.08014427                2.97651564               78.08318313                0.28614164               -0.02069158                0.12803150                0.10401399                0.13314569               -0.00577762                0.02337319
               0.91964882                2.96852178               78.08583868                0.01000000                0.05471614               -0.25471419                0.10973666                0.42998508               -0.02011000                0.00911398
               1.92095005                2.96624442               78.08818550                0.01000000                0.04254943               -0.20967013                0.11640731                0.90989461               -0.03193252                0.01639132
               2.92049980                2.96703690               78.09080831                0.01000000               -0.07955054               -0.07575632                0.12706319                1.22162281               -0.01276426                0.04758414
               3.91935904                2.97024477               78.09359973                0.01221672               -0.17847170               -0.11323965                0.13980753                1.35174499               -0.01064360                0.08119226
               4.91693037                2.97268348               78.09626051                0.01000000               -0.48011469               -0.04207870                0.15094080                1.61290362               -0.03628208                0.10801085
               5.90975675                2.98134564               78.09839550                0.01000000               -0.72304997                0.06325690                0.16388511                1.80347062               -0.05646231                0.16582872
               6.90246937                2.98735057               78.10018132                0.01000000               -0.59999717                0.08223322                0.16553952                1.66486614               -0.00265520                0.30782065
               7.89775681                2.99019091               78.10201148                0.01000001               -0.59926878                0.02742324                0.20506396                1.35652713                0.12204384                0.05724740
               8.89048399                2.99456739               78.10362461                0.01000001               -0.38508288               -0.42239301                0.16018170                1.39390469               -0.05554118                0.22979014
               9.89005515                2.99916058               78.10639135                0.34019915               -0.04288464               -0.89231365                0.15871828                1.47642980               -0.00244491                0.24152472
              -0.06844396                3.97801674               78.08548439                0.25286205               -0.00560757                0.05031924                0.09857585                0.08636379               -0.00864193               -0.01795295
               0.93149997                3.96547017               78.08817620                0.01136591                0.04241392               -0.21609839                0.10837429                0.61428113               -0.02096891               -0.00913507
               1.93240432                3.96342203               78.09062087                0.01000000                0.01771212               -0.24292984                0.12263630                1.16604584               -0.00566867               -0.00274905
               2.93185421                3.96595435               78.09348915                0.01221748               -0.12743394               -0.16741951                0.13958103                1.32518256                0.00484080                0.04032549
               3.92985564                3.96822758               78.09638577                0.01000000               -0.23432323               -0.25687158                0.15178641                1.50878657                0.00537642                0.06898862
               4.92716774                3.97291723               78.09939406                0.01000000               -0.29173940               -0.05756575                0.16240635                1.92223248                0.01289873                0.11845051
               5.92402085                3.98135820               78.10247240                0.01000000               -0.33456431               -0.04890392                0.16690394                2.30554885                0.02901068                0.20606156
               6.92047646                3.98768030               78.10568589                0.01332865               -0.42783579               -0.06265547                0.15465265                2.27322590                0.05751324                0.23709856
               7.91546414                3.99111636               78.10774100                0.01429840               -0.32464452               -0.07425774                0.15654990                1.78045108                0.26063587                0.03761019
               8.91398357                3.98661450               78.10969840                0.01000000               -0.02411985               -0.49871782                0.26360236                1.60930375                0.29175999                0.45659138
               9.91498174                3.98178732               78.11273634                0.01000000                0.09981733               -1.23634054                0.36286442                1.59566602                0.11605717                0.63484030
              -0.05332384                4.97752202               78.08733822                0.34483530               -0.01470110               -0.09485306                0.09076071                0.08899130               -0.00242653               -0.02373833
               0.94652915                4.96419981               78.09006934                0.01000000               -0.14446862               -0.04303179                0.10720649                0.60284927                0.00375250               -0.04494170
               1.94378679                4.96138582               78.09290213                0.01000001               -0.21656244               -0.22514081                0.13107043                1.22115683                0.01136387               -0.02182485
               2.94219790                4.96368851               78.09594916                0.01000000               -0.06074488               -0.45585357                0.15016854                1.48897308                0.02573391                0.01500919
               3.94257189                4.96510733               78.09929203                0.01000000                0.00232499               -0.38199314                0.16817498                1.81795743                0.05675330                0.06382404
               4.94224440                4.97153217               78.10307320                0.01000000               -0.07336188               -0.22955699                0.18200016                2.35040889                0.08264806                0.13342063
               5.94110466                4.98036756               78.10710295                0.01364995               -0.20343396               -0.19618455                0.17722279                2.38395486                0.04150632                0.17660974
               6.93817572                4.98609746               78.11022134                0.01306461               -0.33365152               -0.21622016                0.15044921                2.10040166               -0.01477078                0.13829562
               7.93443162                4.98870575               78.11306867                0.01000000               -0.30883021               -0.15095485                0.11819417                1.77210215               -0.09156674                0.27579832
               8.93199912                4.98459303               78.11636265                0.01000002               -0.14043897                0.02673969                0.11694596                1.16577170               -0.00382812                0.69352933
               9.93162285                4.97443377               78.12205900                0.03105784               -0.03762739               -0.35168833                0.21559737                0.73831855                0.17994646                0.91778257
              -0.04001972                5.97611968               78.08938388                0.69986965               -0.02871264               -0.09574419                0.08875695                0.08597731               -0.00084768               -0.00939844
               0.95969315                5.96460953               78.09194366                0.01000001               -0.13207584                0.01361687                0.11251538                0.36836203                0.01716901               -0.03211167
               1.95733876                5.95891921               78.09487297                0.01095991               -0.08904996               -0.37940795                0.14310327                0.96037122                0.04038419               -0.05281305
               2.95791215                5.95683728               78.09818229                0.01000000                0.05161836               -0.68385071                0.17453632                1.52882991                0.07824680               -0.02245089
               3.95837113                5.96058772               78.10220965                0.01000000                0.05017713               -0.55969244                0.19914396                2.03977034                0.13427986                0.04327646
               4.95891570                5.96832609               78.10690112                0.01364048               -0.06182364               -0.42256481                0.21107443                2.30350746                0.12994021                0.06627525
               5.95713466                5.97743451               78.11111583                0.01340186               -0.23846988               -0.34833094                0.18981823                2.17769920                0.06665699                0.10155058
               6.95414630                5.98335590               78.11511705                0.01000000               -0.23620231               -0.18613525                0.15213738                2.05958436                0.07655506                0.27090195
               7.95241061                5.98809727               78.12042382                0.01000002               -0.12876565                0.04164710                0.08740022                1.97256438                0.08435876                0.57900987
               8.95157099                5.98714930               78.12673398                0.01000001               -0.11719853                0.35970722               -0.07523094                1.37643683                0.02131472                0.79894480
               9.95006664                5.97475355               78.13288662                0.01000000               -0.15043455                0.42040225               -0.07812420                0.75020994                0.00005908                0.80193444
              -0.02858399                6.97560714               78.09164305                0.99900297               -0.03191525               -0.04519419                0.09272967                0.01371375                0.00004604               -0.00059391
               0.97109686                6.96447215               78.09412401                0.31652260               -0.03247718               -0.02061901                0.12073618                0.03488377               -0.01090648               -0.01352144
               1.97076647                6.95379766               78.09638006                0.01496519                0.00045674               -0.27773590                0.15079307                0.49876970                0.04221574               -0.04255119
               2.97110600                6.95001149               78.09991178                0.01000000                0.05560079               -0.55658692                0.20402921                1.10948969                0.17680679               -0.03945845
               3.97187849                6.95391349               78.10500080                0.01333998                0.01808839               -0.83013415                0.25241518                1.81032022                0.16915367                0.00250433
               4.97146776                6.96308087               78.10967469                0.01306991               -0.11248271               -0.63417748                0.23193239                2.16279606                0.12720698               -0.02810922
               5.96962883                6.97340094               78.11486281                0.01000000               -0.13815559               -0.31675922                0.17640183                2.18227425                0.24568796                0.12826702
               6.96870465                6.98237476               78.12191351                0.01000002                0.02303405                0.03004666                0.11182126                2.18707840                0.36389350                0.43075363
               7.97008951                6.98953869               78.13058244                0.01000001                0.20834617                0.18810363                0.02877240                2.02733068                0.44489173                0.77311074
               8.97287158                6.99178718               78.13941812                0.01000001                0.06645146                0.29998114               -0.05943226                1.39533403                0.06181064                0.78668431
               9.97141854                6.98284181               78.14363959                0.12882594               -0.14530334                0.81405780                0.08261950                0.88494616               -0.15289531                0.68906654
              -0.01747548                7.97521580               78.09392524                1.00000000               -0.03242187               -0.03740729                0.09762842                0.00467704               -0.00169326                0.00002158
               0.98220030                7.96419715               78.09634037                0.99275745               -0.03748549               -0.03219552                0.12943944                0.01222204               -0.00379337               -0.00787285
               1.98177481                7.95336450               78.09870505                0.01000000               -0.11070920               -0.04751681                0.16202924                0.17310367                0.01077421               -0.00232487
               2.97998612                7.94570554               78.10142608                0.01000001               -0.01333290               -0.40440441                0.18955918                0.58319348                0.04838418                0.01520793
               3.98150816                7.94398504               78.10650883                0.01430545                0.13490207               -1.09357700                0.34146640                1.50138262                0.13970015                0.11942362
               4.98268416                7.95564254               78.11193157                0.01000000               -0.00109493               -0.55875578                0.20919665                2.22808238                0.35164077               -0.07987619
               5.98148626                7.97109932               78.12009556                0.01000002               -0.04670242               -0.15693129                0.13361558                2.33783247                0.59151286                0.20278108
               6.98175011                7.98395683               78.13059785                0.01000001                0.10292741                0.26231209                0.03579539                2.13670513                0.72003755                0.59356706
               7.98354480                7.99185934               78.14149873                0.01000001                0.22122169                0.25942342               -0.06301679                1.40091347                0.54512330                0.57378663
               8.98617455                7.99314892               78.15113001                0.12248763                0.10557427                0.04294294                0.15452734                0.73313951                0.33326073                0.46619460
               9.98565629                7.99103470               78.15406016                0.63670124               -0.05182571                0.38296464                0.18303427                0.60708481               -0.00032524                0.38807223
              -0.00645315                8.97485899               78.09621523                0.99999998               -0.03542470               -0.03411143                0.10111505                0.00209940                0.00052871                0.00090346
               0.99319260                8.96382824               78.09862531                0.99999999               -0.04133474               -0.03958749                0.13724475                0.00198073                0.00212909               -0.00279687
               1.99272016                8.95284732               78.10107063                0.79877056               -0.05216399               -0.05293905                0.17767426                0.00385360                0.00730842               -0.00115866
               2.99214932                8.94192341               78.10359914                0.06347108               -0.03755107               -0.22358531                0.23237956                0.11731293                0.09409732               -0.01863648
               3.99196914                8.93204195               78.10776435                0.01000000               -0.16171006               -0.61543603                0.11869711                1.52341803                0.27980094               -0.14601002
               4.98891512                8.95190576               78.11554780                0.01000002               -0.19489726               -0.12615496                0.20160171                1.99705303                0.70490292                0.09051123
               5.98807119                8.97026232               78.12657621                0.01000001                0.08818073               -0.07577815               -0.02599201                1.74720492                0.94361414                0.10481583
               6.99067874                8.98762100               78.14030130                0.01740647                0.04222511                0.15594394                0.05875001                1.47995947                0.86887033                0.40436794
               7.98891569                8.99472716               78.15043255                0.08871104               -0.11598686                0.11854041                0.15084012                0.62678281                0.37142570                0.33596561
               8.98835900                8.99264603               78.15343598                0.98734363               -0.05635117               -0.05346910                0.17722661                0.00974951                0.00480439                0.00107806
               9.98778867                8.99050111               78.15624108                0.99993405               -0.05703321               -0.05978044                0.20592318               -0.00043921               -0.00516715               -0.01547467
               0.00462801                9.97453357               78.09852328                1.00000000               -0.03764234               -0.03254198                0.10833056               -0.00470118                0.00371804                0.00300376
               1.00425159                9.96340540               78.10093746                0.99011185               -0.04356444               -0.04228405                0.14532262               -0.00549460                0.00738441               -0.00059419
               2.00375672                9.95230572               78.10343204                0.96867838               -0.05569148               -0.05416080                0.18684585               -0.00492209                0.01401210                0.00146472
               3.00313776                9.94123383               78.10599435                0.51532215               -0.08812778               -0.06895749                0.23032036                0.06737320                0.12666776                0.00329408
               4.00199417                9.93167632               78.11065918                0.01230646               -0.93664515               -0.03656298                0.08106801                1.59678346                0.47942583               -0.03291456
               4.98440485                9.95311944               78.12100765                0.02644731               -1.06395262                0.12136838                0.10446231                1.44434522                0.79820274                0.13425896
               5.98071511                9.96958376               78.13180842                0.01000001                0.12398014               -0.06785541               -0.08448974                0.96220571                0.94594878                0.02264391
               6.98688446                9.98707571               78.14483937                0.11041271                0.51701563               -0.05452895                0.15070194                0.85289115                0.80603196                0.22872404
               7.99105543                9.99423015               78.15272008                0.59501472                0.18555692               -0.04970136                0.17493045                0.46416473                0.27358978                0.00482432
               8.99059559                9.99207954               78.15582470                0.99992010               -0.05590301               -0.05664966                0.20365114                0.00410671                0.02020456                0.00503517
               9.98993737                9.98983910               78.15862966                0.99513761               -0.06582294               -0.06620093                0.23234669               -0.00917461                0.00499015               -0.00520243
              -0.09863199               -0.02665720               79.07694426                1.00000000               -0.01911510               -0.01984815                0.08629757                0.00332114                0.00443556               -0.00296071
               0.90117686               -0.03073767               79.07974688                0.76633632               -0.00639899               -0.03403444                0.08879448                0.01332786                0.00897219                0.00093870
               1.90124003               -0.03430330               79.08261682                0.42547818                0.05721561               -0.02438484                0.09140990                0.08309479                0.01840523                0.00045524
               2.90232117               -0.03553990               79.08551717                0.32154423                0.12546043               -0.01775698                0.09218973                0.10645343               -0.00640176               -0.00318300
               3.90374924               -0.03243514               79.08785561                0.28798004                0.07204831               -0.00849735                0.09720347                0.06916145               -0.06863023               -0.00547424
               4.90376214               -0.02582155               79.08964422                0.36814124               -0.05396710               -0.01712650                0.10276341                0.04895725               -0.07331421               -0.00074059
               5.90266990               -0.01964097               79.09190687                0.73558508               -0.07991515               -0.03233816                0.10267830                0.06329439               -0.03309179                0.00171502
               6.90216384               -0.01480112               79.09465007                0.98397275               -0.04576405               -0.03456906                0.10283827                0.00981468               -0.00930788                0.00143868
               7.90175462               -0.01021543               79.09743266                1.00000000               -0.03819515               -0.03380845                0.10137295                0.00260709               -0.00838534                0.00422108
               8.90139993               -0.00570013               79.10020898                0.99999999               -0.03288618               -0.03414635                0.09783101                0.00025661               -0.00693058                0.00468220
               9.90109689               -0.00112044               79.10300910                1.00000000               -0.03030392               -0.03407399                0.09769554               -0.00604315               -0.00411597                0.00147106
              -0.09451831                0.97314432               79.07927222                0.76084771               -0.03485025               -0.00762645                0.09301390                0.01439575               -0.00356360                0.00011202
               0.90513319                0.96892198               79.08205449                0.01000000               -0.05048005               -0.05031779                0.09543325                0.04845805               -0.00587582                0.00388614
               1.90447209                0.96545285               79.08479863                0.01000000               -0.13407837               -0.01316913                0.09805465                0.19998426               -0.01522095                0.00035094
               2.90245162                0.96428253               79.08747560                0.01000000               -0.24452069                0.04790581                0.10182029                0.41144713               -0.04203973                0.00215819
               3.89958168                0.96747989               79.08971310                0.01162660               -0.22984986                0.05383706                0.11073762                0.57058305               -0.08065146                0.01582400
               4.89785463                0.97400719               79.09144603                0.01000000               -0.08945236               -0.11598139                0.12108551                0.59578104               -0.08968154                0.06152625
               5.89779263                0.98003565               79.09361502                0.01000001               -0.01527071               -0.10192935                0.12683761                0.40609188               -0.03876862                0.06836738
               6.89754921                0.98485318               79.09635129                0.34574889               -0.02812205               -0.03604706                0.13078260                0.02720907               -0.00336713                0.00161643
               7.89723019                0.98944649               79.09919621                0.97565179               -0.03471038               -0.03909453                0.13310523                0.00932331                0.00328794                0.00954773
               8.89685501                0.99395841               79.10202776                0.99999999               -0.03867090               -0.03967138                0.13288123                0.00116221                0.00206762                0.00155958
               9.89645677                0.99853882               79.10483999                0.98922356               -0.03982320               -0.03942593                0.13313229               -0.00565000                0.00065504               -0.00501466
              -0.08989941                1.97319027               79.08163693                0.41600107               -0.02631016                0.05641312                0.09980154                0.08824837               -0.00221757                0.01697275
               0.90983749                1.96825597               79.08443070                0.01000000               -0.01107130               -0.13632164                0.10208642                0.20141787               -0.01420367                0.00902636
               1.90987917                1.96543331               79.08695812                0.01000001               -0.06572092               -0.07244927                0.10787906                0.54040753               -0.03071724                0.00619488
               2.90852307                1.96541822               79.08953120                0.01000000               -0.22214617                0.03183387                0.11631358                0.91948361               -0.04083598                0.02136563
               3.90543625                1.96864160               79.09198094                0.01000000               -0.27005380                0.03597663                0.12521385                1.16782854               -0.05956702                0.07473410
               4.90312200                1.97185883               79.09445159                0.01000001               -0.27452521               -0.17230306                0.13649681                1.29823876               -0.05898712                0.11951074
               5.89994574                1.97832044               79.09665125                0.01087723               -0.49124092               -0.03769280                0.14839349                1.10027260               -0.09380560                0.12636796
               6.89329718                1.98447793               79.09805490                0.01475973               -0.35549395                0.04625537                0.16320472                0.67352572               -0.05172419                0.10068901
               7.89283586                1.98900268               79.10104322                0.01000000               -0.04831678               -0.16246914                0.16600947                0.41362707                0.01382872                0.06268520
               8.89233084                1.99350644               79.10373139                0.74758451               -0.05063969               -0.04841779                0.17075553                0.00258538               -0.00198368               -0.01748918
               9.89182307                1.99809104               79.10645797                0.99778157               -0.05077764               -0.04900890                0.17127629               -0.00391797               -0.00705870               -0.02226727
              -0.08288474                2.97427258               79.08420842                0.30551383               -0.01967500                0.12588707                0.10125759                0.12371927               -0.00528412                0.01314706
               0.91691851                2.96619555               79.08691893                0.01000000                0.05013703               -0.25091923                0.10628351                0.42840802               -0.01804913                0.00636562
               1.91811800                2.96400386               79.08935538                0.01000000                0.03572497               -0.22078133                0.11644054                0.92439311               -0.02722527                0.01755174
               2.91763301                2.96491921               79.09209322                0.01000000               -0.08101776               -0.08163545                0.12884853                1.23251066               -0.00660086                0.05418975
               3.91649764                2.96819942               79.09502051                0.01230977               -0.17462226               -0.12841532                0.14286126                1.35556141               -0.00500944                0.08957201
               4.91414056                2.97056113               79.09779273                0.01000000               -0.46593328               -0.05827498                0.15418239                1.60715202               -0.03627732                0.11201207
               5.90717898                2.97928179               79.09997492                0.01000000               -0.69015353                0.03827126                0.16200749                1.81245817               -0.07722544                0.15975977
               6.90033749                2.98577829               79.10173902                0.01000000               -0.53523761                0.03342796                0.16133457                1.58494929               -0.06172819                0.25431511
               7.89647422                2.98619710               79.10388280                0.01000000               -0.62595689               -0.15620439                0.20242717                1.52651473               -0.05307231                0.09059472
               8.88781835                2.99299005               79.10516182                0.01000001               -0.46325033               -0.41441450                0.22158944                1.68117149               -0.05800847                0.24933324
               9.88720922                2.99755864               79.10790945                0.36716205               -0.06091348               -0.89948757                0.21399298                1.48100538               -0.00791642                0.38169823
              -0.07127096                3.97570801               79.08646964                0.26518107               -0.00546654                0.05005455                0.09869937                0.08904754               -0.00823181               -0.03284095
               0.92867437                3.96323759               79.08925544                0.01158754                0.04571669               -0.21774530                0.10714692                0.60465407               -0.01724564               -0.01375797
               1.92964337                3.96101769               79.09185588                0.01000000                0.01516780               -0.24822784                0.12349098                1.16624793                0.00284058                0.00046951
               2.92897773                3.96378551               79.09491623                0.01229654               -0.13689084               -0.16960098                0.14331608                1.33088676                0.01205695                0.05189232
               3.92690556                3.96607330               79.09793877                0.01000000               -0.23975314               -0.26500210                0.15664242                1.49597274                0.00681169                0.08380757
               4.92418267                3.97069333               79.10106095                0.01000000               -0.29639072               -0.06682826                0.16930694                1.89622424                0.00354326                0.13648214
               5.92097774                3.97908587               79.10414900                0.01000000               -0.30509053               -0.06375377                0.17740917                2.24961934               -0.03351305                0.22483092
               6.91808086                3.98514649               79.10692595                0.01368317               -0.24116713               -0.14182216                0.14097290                2.05196210               -0.12286149                0.26685941
               7.91615440                3.98587859               79.10880784                0.01495712               -0.17440593               -0.03749027                0.14154111                1.65493261               -0.10604176                0.16656260
               8.91459274                3.98521815               79.11231500                0.01000002               -0.19242017               -0.41815568                0.16104598                1.62071983               -0.56740522                0.86241785
               9.91230600                3.98010129               79.11780145                0.01000000               -0.22867421               -1.14530115                0.30692937                1.45305776               -0.69438479                1.30708606
              -0.05616294                4.97527367               79.08825921                0.35412398               -0.01351408               -0.09472276                0.09418645                0.08494453               -0.00204628               -0.03968289
               0.94370191                4.96184065               79.09115257                0.01000000               -0.14710102               -0.05078102                0.10924941                0.60458015                0.00817385               -0.04598570
               1.94089504                4.95903931               79.09422711                0.01000001               -0.22533915               -0.21782427                0.13238474                1.22963453                0.02041616               -0.01339731
               2.93919513                4.96152719               79.09748352                0.01000000               -0.06928775               -0.45123556                0.15412719                1.49290448                0.03261589                0.03731324
               3.93950928                4.96289938               79.10103392                0.01000000               -0.00713290               -0.38489974                0.17528632                1.80307480                0.06162289                0.09831604
               4.93905247                4.96922456               79.10498610                0.01000000               -0.08955412               -0.23568645                0.19482262                2.32945184                0.07027684                0.18545851
               5.93771820                4.97800672               79.10899958                0.01410777               -0.22342322               -0.21154427                0.20616259                2.31212510               -0.02185816                0.23648747
               6.93458401                4.98294185               79.11172720                0.01377245               -0.41084898               -0.23201803                0.18636405                1.96776023               -0.18113941                0.23095471
               7.92950122                4.98544730               79.11391440                0.01000000               -0.42869781               -0.03008408                0.12231889                1.63240181               -0.32998124                0.47700765
               8.92601005                4.98462694               79.11746487                0.01170074               -0.14985591               -0.00160696                0.18607262                1.02638699               -0.09526115                0.83079553
               9.92650410                4.97465262               79.12431054                0.03034247                0.04940468               -0.36446935                0.24960220                0.62157544                0.16643078                0.67595738
              -0.04270602                5.97381356               79.09028249                0.70588103               -0.02936381               -0.10028155                0.09199085                0.08861472                0.00022875               -0.02027969
               0.95700034                5.96222197               79.09308679                0.01000001               -0.13722318                0.01284542                0.11545722                0.38107934                0.02101674               -0.03252297
               1.95454952                5.95666120               79.09631906                0.01087249               -0.10122990               -0.38104366                0.14453603                0.98978683                0.05326349               -0.04365547
               2.95497575                5.95476080               79.09995230                0.01000000                0.03600806               -0.66153822                0.17407781                1.55037446                0.09507992                0.01221133
               3.95526968                5.95837530               79.10425245                0.01000000                0.03443093               -0.52240348                0.20629291                2.01696547                0.14450451                0.10876214
               4.95566436                5.96597960               79.10918222                0.01412362               -0.08833608               -0.41997538                0.23609949                2.24989671                0.11408505                0.14411694
               5.95350296                5.97485498               79.11318747                0.01420265               -0.28344420               -0.37374306                0.22766180                2.13111770                0.01474436                0.17108054
               6.94999548                5.98050613               79.11681217                0.01000000               -0.31928054               -0.19215068                0.19778848                2.00542016               -0.02209618                0.33276364
               7.94711735                5.98527691               79.12137711                0.01000002               -0.20401615                0.07030292                0.15591357                2.01960751               -0.00508219                0.65303725
               8.94591516                5.98518601               79.12705363                0.01000001               -0.12156026                0.14332364                0.06741693                1.32519630               -0.03073349                0.91582395
               9.94468614                5.97281190               79.13242115                0.01000000               -0.12290157                0.12165693               -0.00914457                0.59322170               -0.03990550                0.85637118
              -0.03120747                6.97326804               79.09256101                0.99838597               -0.03166698               -0.04737013                0.09326453                0.01455923                0.00043220               -0.00848884
               0.96847586                6.96209755               79.09532516                0.31009826               -0.03202934               -0.01981443                0.12080704                0.03775850               -0.00803957               -0.01308849
               1.96815194                6.95141843               79.09792522                0.01476719                0.00063310               -0.28436002                0.15558486                0.54129866                0.05197312               -0.03772671
               2.96848852                6.94829643               79.10188116                0.01000000                0.02389245               -0.49954697                0.18831041                1.13597409                0.19530929               -0.00401951
               3.96862979                6.95245131               79.10743361                0.01368813               -0.04588970               -0.62948319                0.23067305                1.72931941                0.18769169                0.08065847
               4.96757073                6.96082506               79.11206911                0.01376308               -0.14078864               -0.66777506                0.25129076                2.08225313                0.09628952                0.04246613
               5.96581402                6.97053186               79.11683574                0.01000000               -0.16501204               -0.36402970                0.21863181                2.11935995                0.17266677                0.16602306
               6.96427049                6.97909884               79.12318419                0.01000002               -0.03002646               -0.01027352                0.17765255                2.22460085                0.31349147                0.45260473
               7.96521349                6.98685336               79.13141824                0.01000000                0.03542516                0.12320820                0.12485952                1.99450196                0.29493223                0.73262711
               8.96497899                6.98749341               79.13832798                0.01000001               -0.10483657                0.27447082               -0.00928177                1.37007645                0.03430312                0.96609250
               9.96311676                6.97708576               79.14490479                0.12439532               -0.18622316                0.78391252                0.08943109                0.85428135               -0.00168349                0.76437977
              -0.02007386                7.97286615               79.09488885                1.00000000               -0.03210169               -0.03826687                0.09678595                0.00381207               -0.00111878               -0.00781350
               0.97960512                7.96182568               79.09763495                0.98954933               -0.03747604               -0.03185230                0.12932570                0.01154267               -0.00242823               -0.00673628
               1.97917662                7.95097400               79.10035270                0.01000000               -0.14713863               -0.04779489                0.16435910                0.24609946                0.01957152                0.00556280
               2.97666235                7.94476986               79.10353825                0.01000000               -0.09245904               -0.43906887                0.21610291                0.79439842                0.12746454                0.04073690
               3.97732744                7.94578564               79.10927262                0.01496214                0.12832644               -1.15620820                0.26561923                1.41503151                0.17279690                0.06758075
               4.97922888                7.95262410               79.11416811                0.01000000                0.01444695               -0.55436459                0.22672178                2.02654801                0.27097358                0.02775492
               5.97761638                7.96757439               79.12148770                0.01000002               -0.05314410               -0.22228083                0.18335958                2.32926742                0.46931826                0.19408598
               6.97816600                7.98030066               79.13131676                0.01000000                0.04982172                0.19406793                0.11763881                2.08204694                0.61007652                0.48627148
               7.97861281                7.98774108               79.14124944                0.01000001                0.24591446                0.27598264                0.01661980                1.55274831                0.61262304                0.66540292
               8.98308429                7.99067543               79.15265337                0.12593261                0.19871317                0.13421132                0.15095303                1.05647483                0.40706251                0.58356010
               9.98258707                7.98849015               79.15587225                0.63497576               -0.04972113                0.54219751                0.18012845                0.86505043               -0.00052142                0.40056791
              -0.00905028                8.97250270               79.09721284                0.99999999               -0.03508535               -0.03415941                0.09951197                0.00086185                0.00023468               -0.00660559
               0.99059887                8.96146051               79.09999344                0.99999999               -0.04099843               -0.03877593                0.13561186                0.00066101                0.00344620               -0.00274335
               1.99012975                8.95046253               79.10283045                0.83155178               -0.05170074               -0.05167001                0.17373174                0.00261437                0.01532414                0.00643701
               2.98956485                8.93951505               79.10583436                0.06422890               -0.05267840               -0.29584525                0.21835395                0.13895163                0.05010920               -0.00575519
               3.98907618                8.92932714               79.10934184                0.01000002               -0.16259581               -0.85240424                0.20137821                1.61814477                0.29324940               -0.11399408
               4.98631293                8.94973776               79.11748384                0.01180063               -0.21766910               -0.09962999                0.21305055                1.91946193                0.59264291                0.18606772
               5.98472280                8.96608624               79.12706764                0.01000001               -0.02840981               -0.09527674                0.08247311                1.63122905                0.76545042                0.11053137
               6.98574474                8.98298019               79.13968194                0.01000001                0.05854433                0.11209054               -0.06297115                1.43356706                0.75596599                0.10159171
               7.98589369                8.99237301               79.15191861                0.08573431               -0.01926654                0.20719280                0.14707318                0.83738294                0.46033404                0.41089438
               8.98535941                8.99017764               79.15520983                0.98630062               -0.05526835               -0.05331586                0.17758449                0.00860484                0.00489300                0.00028345
               9.98478832                8.98792971               79.15830082                0.99899346               -0.05710877               -0.06119487                0.20609144               -0.00220841               -0.00519132               -0.01643760
               0.00202777                9.97218297               79.09957796                1.00000000               -0.03692545               -0.03197372                0.10451728               -0.00547573               -0.00097018               -0.00412387
               1.00165851                9.96105016               79.10237341                0.99024345               -0.04267008               -0.04103472                0.14130251               -0.00615360                0.00432952               -0.00044486
               2.00117437                9.94994060               79.10525821                1.00000000               -0.05408704               -0.05219336                0.17858597               -0.00539884                0.01280417                0.00598097
               3.00057677                9.93885295               79.10819551                0.53514606               -0.08533735               -0.06620946                0.21457216                0.04103974                0.05469172                0.00065434
               3.99946762                9.92873755               79.11186907                0.01284369               -0.98588748               -0.05895916                0.17005383                1.62807072                0.41449419               -0.01982705
               4.98085902                9.95063150               79.12187337                0.02716108               -1.12345450                0.08937331                0.14392022                1.30117382                0.55156403                0.23968095
               5.97699853                9.96566885               79.13130999                0.09029309               -0.01542267               -0.04173854               -0.04049133                0.82312157                0.77711845                0.02890095
               6.98055057                9.98254247               79.14449709                0.10841755                0.55822498               -0.04377208                0.01064383                0.79138683                0.60967482               -0.09083761
               7.98816303                9.99188493               79.15442834                0.58964167                0.35745583               -0.04880784                0.17235614                0.58026604                0.36718668                0.00387355
               8.98769969                9.98960911               79.15786541                0.99898853               -0.05621314               -0.05685239                0.20457838                0.00309396                0.02256908                0.00503556
               9.98703877                9.98726625               79.16095625                0.99497026               -0.06609203               -0.06634521                0.23308228               -0.00924124                0.00498356               -0.00523989
              -0.10140278               -0.02904778               80.07780548                1.00000000               -0.01790738               -0.01857646                0.08587942                0.00328535                0.00438433               -0.00279644
               0.89841815               -0.03306949               80.08063076                0.77155662               -0.00350988               -0.03451819                0.08792316                0.01478396                0.00903149                0.00084445
               1.89852702               -0.03651419               80.08352410                0.44492026                0.05990637               -0.02336086                0.09002209                0.08166461                0.01766805                0.00036834
               2.89961628               -0.03757676               80.08643137                0.34007232                0.12248958               -0.01729066                0.09075738                0.10070387               -0.00762389               -0.00274913
               3.90097682               -0.03441328               80.08882032                0.29857991                0.06793532               -0.00764937                0.09605673                0.07378487               -0.06759945               -0.00495816
               4.90097498               -0.02772091               80.09066801                0.37688598               -0.05849155               -0.01492307                0.10235866                0.05110282               -0.07650630               -0.00002467
               5.89980698               -0.02144812               80.09292530                0.74136129               -0.08474858               -0.03220871                0.10203689                0.06817785               -0.03900984                0.00283595
               6.89928001               -0.01662795               80.09566673                0.99920764               -0.04686937               -0.03395261                0.09942418                0.01142021               -0.01624313                0.00211982
               7.89886960               -0.01209582               80.09842126                1.00000000               -0.03796497               -0.03235807                0.09622224                0.00399128               -0.01739721                0.00452867
               8.89852071               -0.00764977               80.10114939                0.99999999               -0.03201064               -0.03185399                0.09152942                0.00093617               -0.01498768                0.00215976
               9.89822938               -0.00313656               80.10394866                1.00000000               -0.02913267               -0.03054632                0.09076625               -0.00665894               -0.01027481               -0.00773319
              -0.09734822                0.97076645               80.08019534                0.76640058               -0.03525851               -0.00464215                0.09156810                0.01570345               -0.00349755                0.00039415
               0.90229919                0.96658533               80.08299961                0.01000000               -0.05272350               -0.05249850                0.09354732                0.05456901               -0.00566036                0.00377844
               1.90159731                0.96325220               80.08576873                0.01000000               -0.13631674               -0.01516124                0.09592264                0.20723373               -0.01412199                0.00215293
               2.89957286                0.96225034               80.08848422                0.01000000               -0.24052828                0.04279591                0.09979281                0.41121591               -0.03562462                0.00538862
               3.89678674                0.96551023               80.09081222                0.01188327               -0.22847117                0.05464603                0.10895389                0.56291535               -0.07082121                0.01741965
               4.89500343                0.97212986               80.09265908                0.01000000               -0.09222298               -0.12383875                0.12117042                0.59525336               -0.08094492                0.06062015
               5.89494228                0.97822979               80.09489180                0.01000001               -0.01426871               -0.11456752                0.12882622                0.41173897               -0.03420720                0.06744347
               6.89471806                0.98303253               80.09767487                0.33743977               -0.02609295               -0.03551835                0.13078026                0.03343761               -0.00113743                0.00457448
               7.89442042                0.98758060               80.10053708                0.97454325               -0.03338067               -0.03845830                0.13290892                0.01400324                0.00158988                0.00833893
               8.89405045                0.99203169               80.10334274                0.99999999               -0.03854188               -0.03858533                0.13185689                0.00386859               -0.00076788                0.00520325
               9.89364959                0.99655797               80.10614398                0.98947194               -0.04008608               -0.03723293                0.13111814               -0.00658162               -0.00067227               -0.00526094
              -0.09272647                1.97085937               80.08262285                0.43566211               -0.02497480                0.05897053                0.09738882                0.08597990               -0.00211229                0.01484755
               0.90702378                1.96588054               80.08543672                0.01000000               -0.01334161               -0.13804894                0.09910452                0.20824468               -0.01189480                0.00787545
               1.90700670                1.96318258               80.08802845                0.01000001               -0.07206082               -0.07772558                0.10647254                0.55162803               -0.02596893                0.00874076
               2.90558256                1.96327916               80.09069075                0.01000000               -0.23255480                0.02426634                0.11577855                0.93134263               -0.03589714                0.02641059
               3.90235560                1.96667964               80.09323293                0.01000000               -0.27110374                0.02840738                0.12543934                1.16478795               -0.05497102                0.08060780
               4.90016049                1.96980231               80.09582024                0.01000001               -0.26082519               -0.19077495                0.13774813                1.29139330               -0.05344277                0.11988682
               5.89713910                1.97626053               80.09814715                0.01078960               -0.47812697               -0.05933523                0.15248786                1.10915191               -0.08827237                0.11925174
               6.89059795                1.98266168               80.09972153                0.01457611               -0.34942978                0.02666495                0.16854235                0.67416783               -0.04115640                0.08938754
               7.89015050                1.98713502               80.10270659                0.01000000               -0.04886193               -0.16712147                0.16924643                0.38844854                0.02350709                0.07031032
               8.88962071                1.99157852               80.10557766                0.79916292               -0.05526610               -0.05306222                0.18375177                0.01152452                0.01266908                0.01899447
               9.88904518                1.99611878               80.10836996                0.99254066               -0.05755326               -0.05534523                0.18723129               -0.00837514                0.00783489               -0.00064334
              -0.08567097                2.97194586               80.08520828                0.32459415               -0.01881564                0.12248785                0.09890900                0.11516334               -0.00470381                0.00559858
               0.91414088                2.96382435               80.08796435                0.01000000                0.04511103               -0.24595881                0.10282929                0.42484299               -0.01420739                0.00507157
               1.91523125                2.96169769               80.09051431                0.01000000                0.02808870               -0.23114472                0.11560898                0.93524746               -0.02020967                0.01881011
               2.91470265                2.96273566               80.09338529                0.01000000               -0.08359528               -0.08386336                0.12958247                1.24052929                0.00082369                0.06049846
               3.91355935                2.96607838               80.09645696                0.01241636               -0.17261161               -0.13946594                0.14405048                1.35351259                0.00003422                0.09580092
               4.91125042                2.96831436               80.09934415                0.01000000               -0.46466989               -0.06744046                0.15631562                1.59162980               -0.03424244                0.11483556
               5.90426595                2.97704308               80.10163565                0.01000000               -0.69617458                0.02848180                0.17391474                1.77989791               -0.09650848                0.15993832
               6.89732693                2.98356582               80.10340802                0.01000000               -0.54966954                0.01838141                0.18498792                1.49787586               -0.09414778                0.20971004
               7.89327256                2.98423817               80.10606003                0.01000001               -0.60148753               -0.13595022                0.20652331                1.26041862               -0.10579986                0.17962412
               8.88529717                2.99097044               80.10805640                0.02984019               -0.44354957               -0.00093520                0.26903763                0.76170215               -0.02775017                0.14768275
               9.88440157                2.99545107               80.11067121                0.43144807               -0.08956082               -0.22954148                0.25694917                0.50186105               -0.00036273                0.29490393
              -0.07418019                3.97330913               80.08745837                0.27711460               -0.00509969                0.04848277                0.09915780                0.09119892               -0.00765497               -0.04292156
               0.92576881                3.96096137               80.09031914                0.01188557                0.04902630               -0.21878012                0.10541095                0.59172090               -0.01162695               -0.01519196
               1.92680034                3.95855969               80.09309069                0.01000000                0.01218231               -0.25214989                0.12323893                1.16367135                0.01452988                0.00160835
               2.92601246                3.96160189               80.09635547                0.01240956               -0.14765912               -0.16684786                0.14373323                1.33356961                0.01950128                0.06061045
               3.92384716                3.96389032               80.09951862                0.01000000               -0.24920417               -0.26592016                0.15797439                1.47970204                0.00896628                0.09261364
               4.92102838                3.96845350               80.10278020                0.01000000               -0.31807830               -0.05971436                0.17261099                1.86868534                0.00302465                0.15025288
               5.91748559                3.97683016               80.10602058                0.01000000               -0.38339992               -0.04921246                0.19597539                2.21181257               -0.06787167                0.25156736
               6.91336038                3.98302931               80.10850534                0.01415836               -0.47656667               -0.13677419                0.23548861                1.99485155               -0.24474366                0.30809857
               7.90795426                3.98441601               80.11057182                0.01580051               -0.98592605                0.07192355                0.22950023                1.86761375               -0.53827823                0.33297241
               8.89364186                3.99155982               80.11291932                0.01000002               -0.89165546               -0.22500636                0.16199719                2.07562618               -1.19115238                0.82028653
               9.89012115                3.99152795               80.11887493                0.01000000               -0.35207114               -1.10589282                0.08352439                1.83974094               -0.94439727                1.37253054
              -0.05915147                4.97291552               80.08922195                0.36448830               -0.01237988               -0.09484167                0.09847425                0.08114549               -0.00122631               -0.05258770
               0.94072473                4.95944875               80.09225432                0.01000000               -0.14921891               -0.05874471                0.11069199                0.60236349                0.01305544               -0.04361517
               1.93786415                4.95665469               80.09554982                0.01000001               -0.23406644               -0.21058504                0.13243287                1.23440672                0.02916342               -0.00823819
               2.93604341                4.95939870               80.09903171                0.01000000               -0.07811896               -0.44590151                0.15467689                1.49865946                0.03896444                0.05070079
               3.93630178                4.96075997               80.10279776                0.01000000               -0.01795596               -0.37635261                0.17453267                1.79527568                0.06738088                0.12331081
               4.93568429                4.96712007               80.10696966                0.01000000               -0.11876920               -0.21640420                0.19401021                2.32664291                0.07566745                0.22859117
               5.93392639                4.97605884               80.11122621                0.01474456               -0.30230903               -0.19051039                0.22950324                2.30121363               -0.02937343                0.28684736
               6.92963811                4.98083034               80.11394862                0.01468047               -0.59160311               -0.22375693                0.28824583                2.08860842               -0.25756899                0.32219815
               7.92209433                4.98567664               80.11551505                0.01000000               -0.49701718               -0.03809181                0.25937087                1.98766137               -0.39450234                0.59920507
               8.91969776                4.98647032               80.12008410                0.01409917               -0.04171044               -0.34785773                0.25380207                1.69634907               -0.10399786                0.88382503
               9.92126012                4.97333321               80.12705105                0.02979983                0.15623586               -1.01206118                0.16659900                1.10690653                0.08403214                0.50327294
              -0.04562375                5.97141230               80.09122369                0.71503271               -0.02993409               -0.10422592                0.09677406                0.08980834                0.00127491               -0.03009488
               0.95407691                5.95978647               80.09425280                0.01000001               -0.14188670                0.01067364                0.11768129                0.38914040                0.02482143               -0.03083487
               1.95153852                5.95434799               80.09776369                0.01079714               -0.10982728               -0.38225982                0.14526582                1.01415822                0.05836902               -0.03776311
               2.95188037                5.95268386               80.10166385                0.01000000                0.02463915               -0.65267732                0.17209366                1.57378360                0.10932659                0.01762241
               3.95203130                5.95636327               80.10633551                0.01000000                0.01910038               -0.51267424                0.20423258                2.02920793                0.16916489                0.14081727
               4.95226237                5.96412542               80.11162311                0.01474674               -0.11158546               -0.40878842                0.23983761                2.24819104                0.12047569                0.20996948
               5.94979959                5.97301995               80.11566906                0.01524528               -0.33738173               -0.38188332                0.22767067                2.12347201                0.00938317                0.23084819
               6.94551474                5.97855417               80.11907282                0.01000000               -0.38660419               -0.19540379                0.26005026                2.06940482               -0.00982701                0.36321801
               7.94206751                5.98365418               80.12354210                0.01107257               -0.28012344               -0.06788690                0.30138293                2.23992628                0.00277687                0.69216934
               8.93991227                5.98460266               80.12808232                0.01000000               -0.17670134               -0.04805138                0.17816306                1.40029395               -0.07047469                0.89435022
               9.93853348                5.97128672               80.13270372                0.01000000               -0.13787884                0.06725455                0.05397287                0.51696363               -0.06959595                0.69269331
              -0.03410366                6.97083100               80.09350834                0.99315977               -0.03244937               -0.05022992                0.09717718                0.01480754                0.00121061               -0.01586285
               0.96557185                6.95966222               80.09654015                0.30520092               -0.03232068               -0.01961610                0.12249035                0.03947381               -0.00370105               -0.01173301
               1.96524993                6.94900949               80.09949176                0.01455361               -0.00340289               -0.28887304                0.15708985                0.57036791                0.05420250               -0.02921246
               2.96550379                6.94634516               80.10367798                0.01000000                0.00972227               -0.50583940                0.17263992                1.16160601                0.19958836               -0.01337784
               3.96544438                6.95050649               80.10961426                0.01416699               -0.07561838               -0.64674227                0.25445381                1.74510365                0.22218912                0.08635896
               4.96399143                6.95894430               80.11470051                0.01468040               -0.17386490               -0.66712578                0.29670734                2.07704251                0.11923257                0.07313345
               5.96196708                6.96842117               80.11923545                0.01000000               -0.17997226               -0.41354063                0.26619925                2.09511725                0.14033409                0.23402735
               6.96039198                6.97692227               80.12546656                0.01179299               -0.05613552               -0.06848290                0.25437382                2.22864547                0.30444430                0.47484226
               7.96084437                6.98431891               80.13307963                0.01000000               -0.01604439                0.05064283                0.18049547                2.04900850                0.25640417                0.63909219
               8.96007109                6.98550929               80.13923249                0.01000001               -0.13065508                0.16678059                0.11570260                1.50700534                0.13035004                1.03246105
               9.95823127                6.97467830               80.14542821                0.12330602               -0.18398261                0.71816522                0.09481454                0.95063167                0.15977437                0.98501112
              -0.02299005                7.97040770               80.09586096                0.99999998               -0.03220596               -0.03966181                0.09826783                0.00334564                0.00037052               -0.01522278
               0.97668789                7.95939415               80.09892688                0.98658029               -0.03735050               -0.03136583                0.12896352                0.01174471                0.00018504               -0.00519102
               1.97626294                7.94857053               80.10199223                0.01000000               -0.15362010               -0.04694723                0.16246151                0.25543509                0.03508922                0.01265380
               2.97361549                7.94256707               80.10574814                0.01000001               -0.09643566               -0.45970606                0.21673843                0.79971138                0.16301849               -0.00179442
               3.97433423                7.94342843               80.11182122                0.01580649                0.11365263               -1.16704410                0.23224155                1.44780508                0.22010246               -0.10225089
               4.97588854                7.95078290               80.11646601                0.01000000               -0.03051268               -0.55112242                0.26890330                2.01857323                0.25228124                0.04336851
               5.97372398                7.96474914               80.12376275                0.01109217               -0.08493160               -0.28852534                0.29765749                2.28083159                0.43479875                0.22685940
               6.97418991                7.97718452               80.13295063                0.01000000                0.03683402               -0.02248826                0.17840825                2.02365025                0.47766662                0.39200703
               7.97446066                7.98466703               80.14183113                0.01000001                0.27515336                0.27236213                0.05637744                1.62519344                0.58633906                0.65601776
               8.97969298                7.98793827               80.15414907                0.12968967                0.23737134                0.09651847                0.14782529                1.14932764                0.43782362                0.60033754
               9.97920808                7.98565003               80.15766272                0.63609843               -0.04848960                0.52050263                0.17676515                0.93475567               -0.00082985                0.44894009
              -0.01200965                8.97003776               80.09820547                0.99999999               -0.03464332               -0.03434294                0.09896333                0.00010233                0.00034906               -0.01307685
               0.98764392                8.95903491               80.10133755                0.99999999               -0.04023194               -0.03788014                0.13284974                0.00014122                0.00463436               -0.00258757
               1.98718571                8.94807055               80.10454526                0.86898695               -0.05018976               -0.05003558                0.16868924                0.00219457                0.02025175                0.01189691
               2.98664012                8.93715104               80.10796622                0.06733007               -0.05005314               -0.30212258                0.20813734                0.15501469                0.05318254               -0.00652425
               3.98618465                8.92716561               80.11179191                0.01000002               -0.17989725               -0.86015609                0.25628010                1.65213913                0.28928076               -0.10751827
               4.98304218                8.94792186               80.11980881                0.01423989               -0.25012742               -0.08244492                0.22001709                1.77958664                0.55920273                0.14848371
               5.98118210                8.96265066               80.12822568                0.01000000               -0.10475410               -0.15360221                0.16103097                1.42302137                0.64082067                0.07249035
               6.98094709                8.97647250               80.13904187                0.01000001                0.07061902               -0.07779297                0.02571505                1.44425870                0.79521013                0.11014576
               7.98259448                8.98976615               80.15337402                0.08186756                0.05637775                0.23105631                0.14582136                1.07686684                0.55405051                0.44040063
               8.98207465                8.98743966               80.15698767                0.98491235               -0.05458058               -0.05345916                0.17812177                0.00741457                0.00687453                0.00085039
               9.98150287                8.98508836               80.16036291                0.99778875               -0.05717810               -0.06132974                0.20649529               -0.00276634               -0.00530986               -0.01641670
              -0.00098229                9.96972084               80.10061363                1.00000000               -0.03597783               -0.03169233                0.10224853               -0.00569297               -0.00523688               -0.00946224
               0.99865793                9.95863655               80.10376351                0.99051196               -0.04135024               -0.03983582                0.13635323               -0.00614966                0.00027137               -0.00049448
               1.99819070                9.94756982               80.10700376                0.98714088               -0.05186019               -0.05007333                0.17030879               -0.00509689                0.00860958                0.00940758
               2.99762073                9.93652462               80.11028579                0.56965970               -0.07922553               -0.06264140                0.20339424                0.03083514                0.03816037                0.00203623
               3.99660619                9.92622531               80.11406026                0.01502816               -1.08127530               -0.09403013                0.24356924                1.67262384                0.37365670               -0.01091037
               4.97599522                9.94913401               80.12388605                0.02806622               -1.14862177                0.12121516                0.15048136                1.06789414                0.42830369                0.22537932
               5.97363376                9.96167710               80.13099859                0.01000001               -0.00178109               -0.09735648                0.00773937                0.56989845                0.70129812               -0.05159671
               6.97595960                9.97562866               80.14505224                0.10758199                0.56985387               -0.08438431                0.05319654                0.88180366                0.85839787                0.07489339
               7.98503084                9.98928816               80.15616720                0.58167878                0.42797315               -0.04779892                0.17518040                0.80565732                0.41293099                0.00328797
               8.98451906                9.98686909               80.15991626                0.99777900               -0.05877392               -0.05705668                0.20577140                0.00120512                0.02409347                0.00495095
               9.98385536                9.98442343               80.16329131                0.99470805               -0.06637048               -0.06649217                0.23413979               -0.00931659                0.00487371               -0.00539353
              -0.10419487               -0.03149286               81.07866185                1.00000000               -0.01662690               -0.01723084                0.08529225                0.00324602                0.00426276               -0.00252934
               0.89563886               -0.03545848               81.08150534                0.77720648               -0.00061735               -0.03499241                0.08691848                0.01615809                0.00900500                0.00072560
               1.89579278               -0.03878518               81.08441726                0.46468713                0.06168070               -0.02232630                0.08860953                0.07912168                0.01701939                0.00027180
               2.89687248               -0.03970058               81.08733231                0.35788713                0.11839117               -0.01685023                0.08961528                0.09567021               -0.00804797               -0.00227410
               3.89816061               -0.03651810               81.08977675                0.30854424                0.06272823               -0.00662229                0.09552026                0.07779943               -0.06557332               -0.00439129
               4.89812704               -0.02980416               81.09169139                0.38724865               -0.06348093               -0.01284702                0.10292886                0.05295262               -0.07924792                0.00096642
               5.89689099               -0.02351726               81.09394761                0.75170659               -0.08920145               -0.03200777                0.10248450                0.07162725               -0.04654982                0.00434841
               6.89634301               -0.01877502               81.09663855                0.99289198               -0.04834887               -0.03351021                0.09814015                0.01185542               -0.02560048                0.00212260
               7.89592401               -0.01435650               81.09935710                0.99999998               -0.03851182               -0.03155690                0.09386451                0.00358018               -0.02721575                0.00482546
               8.89557278               -0.01004364               81.10203957                0.99999999               -0.03155812               -0.03221656                0.08850100                0.00053587               -0.02433950                0.00094282
               9.89529285               -0.00566574               81.10482443                0.99999327               -0.02799264               -0.03219635                0.08698051               -0.00740911               -0.01857917               -0.01495060
              -0.10019679                0.96833483               81.08110358                0.77234931               -0.03566084               -0.00164244                0.09003003                0.01695043               -0.00335314                0.00082805
               0.89944660                0.96419159               81.08392544                0.01000000               -0.05490816               -0.05463861                0.09158576                0.06059292               -0.00525964                0.00362178
               1.89870505                0.96099156               81.08671708                0.01000000               -0.13754826               -0.01761388                0.09371617                0.21261519               -0.01252169                0.00483651
               2.89669564                0.96013092               81.08947145                0.01000000               -0.23573255                0.03729690                0.09759302                0.40761541               -0.02884102                0.00996484
               3.89399040                0.96341568               81.09189218                0.01225436               -0.22697439                0.05635615                0.10683532                0.54915865               -0.05978638                0.02082944
               4.89215615                0.97006737               81.09386943                0.01000000               -0.09488527               -0.13121756                0.12075566                0.58794280               -0.06904853                0.06084529
               5.89209269                0.97616266               81.09619155                0.01000001               -0.01374816               -0.12605542                0.12950601                0.41052648               -0.02947939                0.06787316
               6.89188119                0.98088988               81.09896690                0.33269438               -0.02492844               -0.03462172                0.13005771                0.03684355               -0.00022340                0.00889730
               7.89159412                0.98532793               81.10185439                0.97343284               -0.03242172               -0.03787787                0.13149212                0.01350861                0.00232744                0.00901224
               8.89123275                0.98963419               81.10466490                0.99999999               -0.03766342               -0.03918445                0.13090781                0.00162273               -0.00137657                0.00658463
               9.89084085                0.99401230               81.10746235                0.99002259               -0.03918976               -0.03916636                0.13027044               -0.00707315               -0.00071110               -0.01063817
              -0.09556939                1.96847429               81.08358470                0.45583078               -0.02366164                0.06071007                0.09500410                0.08273742               -0.00196483                0.01345103
               0.90419399                1.96344874               81.08641279                0.01000000               -0.01624253               -0.13885126                0.09615250                0.21349883               -0.00833807                0.00698210
               1.90410576                1.96086254               81.08908757                0.01000001               -0.07966658               -0.08368614                0.10681335                0.55922190               -0.01960204                0.01216023
               2.90260066                1.96104536               81.09184677                0.01000000               -0.24492107                0.01667703                0.11675282                0.93788425               -0.03046491                0.03299570
               3.89920734                1.96460902               81.09448972                0.01000000               -0.27308730                0.02070356                0.12654332                1.15375917               -0.04932743                0.08703632
               4.89713892                1.96757148               81.09720655                0.01000001               -0.24641641               -0.20847444                0.13913831                1.27367371               -0.04276258                0.12109661
               5.89427901                1.97396163               81.09970100                0.01074975               -0.46121508               -0.07777636                0.15824179                1.10266571               -0.07444902                0.12225253
               6.88791461                1.98053254               81.10142575                0.01440348               -0.34145722                0.01493989                0.17038558                0.65366430               -0.03054882                0.09436662
               7.88744986                1.98488594               81.10442814                0.01000000               -0.04968775               -0.17017864                0.17150534                0.33779242                0.03124491                0.06376939
               8.88692086                1.98917267               81.10740642                0.85554536               -0.05273458               -0.05160726                0.17854845                0.00422035                0.02213491                0.03232423
               9.88639517                1.99355094               81.11020260                0.99163939               -0.05256857               -0.05302725                0.17654014               -0.00559917                0.01734191               -0.00070515
              -0.08849096                2.96954903               81.08618660                0.34315928               -0.01807186                0.11808113                0.09688295                0.10774424               -0.00411643                0.00091090
               0.91132832                2.96141457               81.08897551                0.01000000                0.03919120               -0.24024859                0.09952361                0.41921669               -0.00825300                0.00483468
               1.91229287                2.95931783               81.09166755                0.01000000                0.01892567               -0.24240969                0.11623213                0.94208868               -0.00992853                0.01908194
               2.91170684                2.96046446               81.09468487                0.01000000               -0.08767048               -0.08470326                0.13126690                1.24255411                0.00884632                0.06452296
               3.91053946                2.96382975               81.09790152                0.01256735               -0.17149100               -0.15121298                0.14667964                1.34431122                0.00674024                0.09683555
               4.90827702                2.96589788               81.10091904                0.01000000               -0.46772555               -0.07493004                0.15984168                1.56898308               -0.02223111                0.11225105
               5.90118495                2.97460713               81.10345321                0.01000000               -0.71234289                0.02825161                0.18376858                1.74534766               -0.07962003                0.16584315
               6.89403016                2.98118867               81.10543878                0.01000000               -0.57375523                0.01176599                0.21344650                1.40186756               -0.09224673                0.25935926
               7.88970984                2.98192436               81.10801327                0.01000001               -0.56889990               -0.09014609                0.19508034                1.04691846               -0.08087661                0.17023175
               8.88265216                2.98860205               81.11054258                0.05423733               -0.38687521                0.02117566                0.23382351                0.32865639               -0.00265878                0.14898855
               9.88197234                2.99295176               81.11304843                0.50506315               -0.06798243               -0.11894347                0.22318483                0.19055412                0.00965929                0.18878956
              -0.07714558                3.97083591               81.08845280                0.28875525               -0.00448935                0.04537857                0.09962763                0.09272324               -0.00682561               -0.04817565
               0.92280952                3.95864377               81.09136366                0.01221085                0.05216105               -0.21899463                0.10348202                0.57426334               -0.00378673               -0.01425802
               1.92389764                3.95601435               81.09432066                0.01000000                0.00651518               -0.25581485                0.12389049                1.15577892                0.02750013                0.00182299
               2.92293983                3.95935130               81.09779090                0.01256895               -0.16187447               -0.16158162                0.14525046                1.32950299                0.02543721                0.06413741
               3.92066015                3.96158477               81.10109825                0.01000000               -0.25993162               -0.26405238                0.15769980                1.45505388                0.00961534                0.09021454
               4.91774119                3.96607288               81.10451317                0.01000000               -0.33824907               -0.04721986                0.17250895                1.84011285                0.01426370                0.14203300
               5.91389517                3.97452666               81.10806850                0.01000000               -0.45532264               -0.02559750                0.20242909                2.18308998                0.00217731                0.26616236
               6.90863474                3.98076786               81.11163573                0.01480355               -0.64601541               -0.11851699                0.31289291                1.98349925               -0.14627854                0.38312681
               7.90097486                3.98308302               81.11339785                0.01694488               -1.30840769                0.12683853                0.36134299                1.72970846               -0.27196856                0.18459221
               8.88246659                3.98959618               81.11555494                0.01393886               -0.97340080               -0.07308050                0.20795889                1.89154923               -0.48053643                0.30692011
               9.88150684                3.99117207               81.11947194                0.01133103               -0.09597456               -1.10312393                0.07604549                1.77151402               -0.24756889                0.56929608
              -0.06225222                4.97045660               81.09022870                0.37669825               -0.01126275               -0.09553176                0.10268642                0.07814953                0.00008220               -0.06225720
               0.93763515                4.95703467               81.09336641                0.01000000               -0.15234301               -0.06621655                0.11181914                0.59460930                0.01983160               -0.03827552
               1.93470092                4.95420154               81.09687577                0.01000001               -0.24543370               -0.20251730                0.13350462                1.23031876                0.04010538               -0.00345293
               2.93272648                4.95723283               81.10057706                0.01000000               -0.08909862               -0.44421636                0.15649447                1.49989010                0.04181285                0.05767262
               3.93291895                4.95854870               81.10452458                0.01000000               -0.02945509               -0.36048068                0.17019347                1.78771072                0.06294848                0.13030764
               4.93213738                4.96495348               81.10886630                0.01000000               -0.13835908               -0.18123740                0.18413104                2.32728046                0.07790897                0.22703245
               5.93015177                4.97409518               81.11358964                0.01558718               -0.34967954               -0.15319792                0.21690592                2.31052976                0.06195807                0.25810676
               6.92514379                4.97881833               81.11749212                0.01585976               -0.73380389               -0.22576583                0.34248867                2.18285556               -0.03408624                0.31440022
               7.91547569                4.98446113               81.11910182                0.01000000               -0.63748447               -0.07636511                0.38593521                2.27553182               -0.07448799                0.33257488
               8.91239410                4.98714044               81.12254091                0.01742356               -0.06124194               -0.28357764                0.25396129                1.96527983               -0.12844272                0.59431308
               9.91425085                4.97088928               81.12764252                0.03050456                0.18567527               -1.14417330                0.14708868                1.00211236               -0.05401974                0.34515582
              -0.04873874                5.96892527               81.09221797                0.72853401               -0.03044842               -0.10715424                0.10163964                0.08968297                0.00279983               -0.03903197
               0.95095677                5.95731944               81.09544041                0.01000001               -0.14777002                0.00770719                0.11953949                0.39109943                0.03033294               -0.02735406
               1.94830586                5.95196400               81.09922438                0.01072377               -0.11831557               -0.37979446                0.14979261                1.02723840                0.06380841               -0.03307064
               2.94859046                5.95046697               81.10339417                0.01000000                0.01939280               -0.66441289                0.17396958                1.60212292                0.12243101                0.01089880
               3.94869371                5.95437515               81.10833710                0.01000000                0.00749304               -0.49279624                0.19256748                2.05566325                0.19004743                0.19102128
               4.94874032                5.96244814               81.11397897                0.01559034               -0.12264025               -0.37543254                0.21092058                2.26421793                0.10268544                0.27698933
               5.94624091                5.97146270               81.11774088                0.01656678               -0.34072072               -0.34882318                0.22614713                2.07536427               -0.04066491                0.15685507
               6.94192591                5.97625255               81.12201317                0.01000000               -0.40387596               -0.20502292                0.27005252                2.07322092               -0.03270229                0.36901835
               7.93816339                5.98155572               81.12740476                0.01328433               -0.32909371               -0.15574788                0.36345327                2.43860232                0.04148360                0.54508188
               8.93534403                5.98392463               81.13061689                0.01000000               -0.20559881               -0.25322778                0.28887961                1.47880964                0.03148353                0.57208013
               9.93405141                5.96828860               81.13350061                0.01000000               -0.12926217                0.04688511                0.09315700                0.41989413               -0.05560657                0.62015098
              -0.03724689                6.96831352               81.09450455                0.98690847               -0.03346897               -0.05303535                0.10167848                0.01455318                0.00161903               -0.02344573
               0.96241842                6.95718882               81.09777497                0.30228733               -0.03274722               -0.01974887                0.12449089                0.04064577                0.00229072               -0.00951060
               1.96209816                6.94660565               81.10106702                0.01438448               -0.00303137               -0.28952144                0.15832858                0.57535183                0.05272484               -0.01939835
               2.96235779                6.94394457               81.10533396                0.01000000               -0.00235563               -0.50106178                0.18166198                1.17951997                0.22740891               -0.04900341
               3.96205105                6.94869278               81.11252269                0.01481927               -0.10118017               -0.64060925                0.27731974                1.79090839                0.31756945                0.10181964
               4.96033418                6.95744483               81.11800325                0.01584459               -0.20982029               -0.70324849                0.31294037                2.10092970                0.13823070                0.21193920
               5.95785464                6.96711872               81.12215973                0.01000000               -0.19094962               -0.41706762                0.27179449                2.04299338                0.19769821                0.15686431
               6.95651519                6.97471787               81.12827167                0.01417095               -0.06394959               -0.08435260                0.31498754                2.09762465                0.37267881                0.50910033
               7.95657565                6.98134617               81.13502815                0.01000002               -0.06388932               -0.04943371                0.21729320                1.91678881                0.26188258                0.44880469
               8.95523741                6.98207588               81.14064204                0.01000001               -0.13274292                0.05011833                0.13622294                1.55729683                0.09798594                0.80156542
               9.95392079                6.97182698               81.14680108                0.12105174               -0.13166137                0.71228267                0.13840620                1.04969715                0.18347703                1.00047891
              -0.02619829                7.96786457               81.09685421                0.99874414               -0.03241568               -0.04125079                0.10025371                0.00296145                0.00190169               -0.02271847
               0.97347756                7.95692446               81.10021422                0.98283193               -0.03722871               -0.03083477                0.12851311                0.01211743                0.00334149               -0.00385378
               1.97305714                7.94617357               81.10360193                0.01000000               -0.16919136               -0.04583535                0.15960246                0.26646113                0.04933869                0.01878708
               2.97009373                7.94044573               81.10787302                0.01000001               -0.10227577               -0.45488300                0.20681610                0.82067293                0.24778545               -0.12548293
               3.97101162                7.94156297               81.11391745                0.01694044                0.11196223               -1.18775205                0.28069226                1.44527961                0.09183422               -0.00499469
               4.97233297                7.94838317               81.11954618                0.01000000               -0.05919476               -0.60787181                0.33163428                2.11437120                0.16073443                0.16260483
               5.96982773                7.96312135               81.12744085                0.01329677               -0.13410119               -0.34092581                0.34565422                2.33169176                0.37400155                0.21343745
               6.96965095                7.97456549               81.13488492                0.01000002               -0.03432867               -0.08181889                0.21319261                1.87155505                0.31150834                0.39094184
               7.96914116                7.98056704               81.14237699                0.01000001                0.31791048                0.27493897                0.05610068                1.64073782                0.52476162                0.59418304
               8.97600916                7.98492700               81.15560987                0.13325095                0.32010037                0.11757823                0.14280211                1.26189052                0.46854238                0.59023578
               9.97554316                7.98253426               81.15940756                0.63666514               -0.04659974                0.50729057                0.17107082                0.96126804               -0.00040466                0.45459640
              -0.01530746                8.96748850               81.09919210                0.99999999               -0.03407807               -0.03435829                0.09807857               -0.00056029                0.00064063               -0.01929512
               0.98435176                8.95657212               81.10265043                0.99999998               -0.03932132               -0.03680610                0.12965883               -0.00016546                0.00586526               -0.00258935
               1.98390611                8.94568894               81.10620424                0.91216817               -0.04849531               -0.04809087                0.16277607                0.00209627                0.02363565                0.01639667
               2.98338185                8.93484691               81.10999711                0.07685798               -0.04434523               -0.30956016                0.19718083                0.17192732                0.07162697               -0.00771474
               3.98301921                8.92493774               81.11446744                0.01363536               -0.11593145               -0.87901600                0.26140486                1.63846752                0.25679649               -0.09063320
               4.98106322                8.94528739               81.12188418                0.01753014               -0.23565296               -0.06992839                0.22657245                1.77581290                0.47468718                0.05220230
               5.97830615                8.96030020               81.13028826                0.01000000               -0.22813112               -0.20151301                0.24677470                1.39123385                0.43466450                0.12038518
               6.97650060                8.97308150               81.14019624                0.01000001                0.03613767               -0.12729444                0.12020549                1.47218568                0.69259650                0.18662037
               7.97902890                8.98684495               81.15483504                0.07837628                0.10037012                0.28986408                0.14546216                1.18812111                0.55731093                0.47082187
               8.97850800                8.98442745               81.15877227                0.98310411               -0.05486324               -0.05380280                0.17850800                0.00880645                0.00845641                0.00265010
               9.97793164                8.98197279               81.16243073                0.99625893               -0.05763656               -0.06163314                0.20678536               -0.00331624               -0.00490290               -0.01477275
              -0.00437674                9.96717740               81.10162294                0.99999916               -0.03494524               -0.03110981                0.09940549               -0.00583384               -0.00935215               -0.01408005
               0.99527381                9.95618834               81.10510048                0.99099923               -0.03994924               -0.03837808                0.13106920               -0.00607744               -0.00410988               -0.00050223
               1.99482428                9.94521176               81.10866439                0.97928854               -0.04951644               -0.04771845                0.16129964               -0.00487436                0.00341841                0.01186889
               2.99428348                9.93425453               81.11226340                0.61601339               -0.07418904               -0.05923814                0.19114383                0.02870718                0.05231685                0.00361806
               3.99334049                9.92398265               81.11674046                0.01906809               -1.08983566               -0.09550904                0.26085542                1.66863193                0.29201400               -0.00413603
               4.97248677                9.94698460               81.12488299                0.02978107               -1.17410966                0.16972058                0.18182073                0.89777643                0.31868621                0.09236363
               5.96985830                9.95909109               81.13146477                0.01000000                0.00315763               -0.12091123                0.08354941                0.40696552                0.63369921               -0.04710283
               6.97254992                9.97201961               81.14556102                0.10768835                0.58496626               -0.10618918                0.08973979                0.96859336                0.97496853                0.19541959
               7.98155763                9.98636432               81.15793195                0.57670601                0.42537645               -0.04806246                0.17525467                0.84443920                0.45836283                0.00285369
               8.98105745                9.98385094               81.16198084                0.99625415               -0.05857372               -0.05765061                0.20684248                0.00180777                0.02445682                0.00541018
               9.98038615                9.98130159               81.16563905                0.99428948               -0.06712951               -0.06711983                0.23511600               -0.00948353                0.00539604               -0.00491990
              -0.10700451               -0.03398184               82.07951132                1.00000000               -0.01526505               -0.01580020                0.08445251                0.00321882                0.00410673               -0.00218151
               0.89284284               -0.03789517               82.08236913                0.78309895                0.00224768               -0.03545101                0.08575303                0.01743869                0.00898501                0.00059368
               1.89304044               -0.04110840               82.08529629                0.48462296                0.06264953               -0.02129814                0.08722893                0.07577435                0.01677423                0.00018166
               2.89409583               -0.04190052               82.08822367                0.37480743                0.11329159               -0.01643075                0.08882539                0.09133326               -0.00723995               -0.00181266
               3.89530627               -0.03873196               82.09073073                0.31817254                0.05616680               -0.00541976                0.09550648                0.08081822               -0.06182704               -0.00365775
               4.89521916               -0.03205767               82.09272659                0.39997474               -0.06887233               -0.01107224                0.10429416                0.05453877               -0.08149791                0.00240329
               5.89392883               -0.02584904               82.09497499                0.76766172               -0.09303299               -0.03171069                0.10385746                0.07341505               -0.05323221                0.00569578
               6.89335850               -0.02124218               82.09762953                1.00000000               -0.05022810               -0.03345445                0.09920733                0.01198228               -0.03391237                0.00290147
               7.89292426               -0.01699388               82.10029855                0.99579654               -0.03959517               -0.03163114                0.09409397                0.00250030               -0.03692266                0.00579752
               8.89256660               -0.01288158               82.10291941                1.00000000               -0.03180864               -0.03218949                0.08837017               -0.00104137               -0.03254634                0.00081688
               9.89228809               -0.00871142               82.10568827                0.99876826               -0.02785089               -0.03215425                0.08556248               -0.00774649               -0.02485209               -0.02053797
              -0.10305900                0.96586016               82.08199594                0.77857567               -0.03604992                0.00136102                0.08837527                0.01814541               -0.00316226                0.00142133
               0.89658050                0.96175032               82.08483133                0.01000000               -0.05700707               -0.05673594                0.08957440                0.06648911               -0.00472743                0.00345083
               1.89580086                0.95867862               82.08764305                0.01000001               -0.13797807               -0.02081445                0.09149618                0.21625417               -0.01061194                0.00994197
               2.89382094                0.95793517               82.09043608                0.01000000               -0.23039141                0.03130860                0.09534438                0.40052531               -0.02212171                0.01747411
               3.89119303                0.96121384               82.09294893                0.01262393               -0.22489253                0.05714912                0.10448471                0.52997171               -0.04801219                0.02743986
               4.88932309                0.96783161               82.09507419                0.01000000               -0.09688995               -0.13838458                0.11986978                0.57474027               -0.05560891                0.06311622
               5.88925523                0.97383386               82.09748192                0.01000001               -0.01361708               -0.13535260                0.12886820                0.40468762               -0.02282982                0.07203605
               6.88905075                0.97842327               82.10027603                0.33067706               -0.02431336               -0.03403426                0.12919203                0.03786404                0.00201048                0.01360453
               7.88876897                0.98268981               82.10316692                0.97091606               -0.03178958               -0.03772948                0.13024945                0.01218578                0.00280002                0.01123018
               8.88841496                0.98679653               82.10596090                0.99999999               -0.03642481               -0.03855455                0.12797404               -0.00002093               -0.00153045                0.00827920
               9.88804047                0.99096704               82.10874939                0.99070218               -0.03744877               -0.03849943                0.12551329               -0.00737035               -0.00004832               -0.01579007
              -0.09842194                1.96604538               82.08452293                0.47628925               -0.02239081                0.06179145                0.09267731                0.07886713               -0.00179318                0.01287403
               0.90135416                1.96097011               82.08735977                0.01000001               -0.01986953               -0.13900725                0.09334174                0.21721450               -0.00214296                0.00637941
               1.90118067                1.95847531               82.09016472                0.01000001               -0.08915219               -0.09161924                0.11059529                0.56390011               -0.00941516                0.01860553
               2.89957111                1.95872565               82.09302581                0.01000000               -0.25856987                0.00734105                0.12392152                0.93801888               -0.02318290                0.03884905
               3.89600928                1.96241102               82.09576379                0.01000000               -0.27385775                0.00963568                0.12927882                1.13579660               -0.04417081                0.10251722
               4.89409396                1.96517464               82.09860301                0.01000001               -0.22891813               -0.22894249                0.13957718                1.24819503               -0.02763933                0.12655376
               5.89143091                1.97144391               82.10131199                0.01071178               -0.44170614               -0.09207044                0.16270039                1.09005362               -0.05795106                0.13134217
               6.88525983                1.97807713               82.10312924                0.01432046               -0.33180930                0.00598814                0.17041581                0.63394040               -0.02008616                0.11045753
               7.88479473                1.98225153               82.10613670                0.01000000               -0.04854399               -0.20083523                0.16930132                0.30262312                0.03914100                0.05931939
               8.88428895                1.98634733               82.10914863                0.91335364               -0.04975307               -0.04974159                0.16950922                0.00304674                0.02833724                0.03653965
               9.88379967                1.99051859               82.11190076                0.99699756               -0.04892884               -0.05047557                0.16308696               -0.00574562                0.01942275               -0.00582468
              -0.09133113                2.96709599               82.08714594                0.36097329               -0.01740160                0.11290687                0.09508409                0.10159506               -0.00351857               -0.00108588
               0.90849486                2.95897018               82.08995482                0.01000000                0.03272238               -0.23423993                0.09655494                0.41106574                0.00089121                0.00540445
               1.90932332                2.95684624               82.09283896                0.01000000                0.00753750               -0.25436872                0.12274471                0.94271232                0.00030714                0.02045279
               2.90864561                2.95808200               82.09601062                0.01000000               -0.09316706               -0.08666014                0.13487074                1.23664099                0.01604899                0.06454048
               3.90745998                2.96140656               82.09939055                0.01279258               -0.16957525               -0.16697306                0.15031147                1.32393368                0.01419596                0.10103599
               4.90525410                2.96325276               82.10254099                0.01000000               -0.46530851               -0.09138663                0.16959672                1.54176676               -0.00083480                0.10147835
               5.89815381                2.97199245               82.10531102                0.01000000               -0.71660825                0.02865359                0.18756951                1.71329734               -0.04802838                0.16696442
               6.89092194                2.97854304               82.10767695                0.01000000               -0.58012901                0.02806915                0.21484684                1.32631430               -0.06864860                0.30554914
               7.88655123                2.97867310               82.10996163                0.01000000               -0.53565534               -0.26161142                0.22775001                1.05297996               -0.04916871                0.25027344
               8.88020883                2.98580169               82.11273287                0.05762225               -0.34840963               -0.03237225                0.20924548                0.24762553                0.01952400                0.09761855
               9.87958304                2.98995752               82.11513491                0.56041323               -0.06257941               -0.10994021                0.19906851                0.09238894                0.00790823                0.10422148
              -0.08013842                3.96830352               82.08945093                0.30026851               -0.00363605                0.04046086                0.09983622                0.09347435               -0.00568779               -0.04910031
               0.91982522                3.95628532               82.09238878                0.01258581                0.05307606               -0.21818462                0.10171294                0.55319318                0.00738267               -0.01101775
               1.92092310                3.95338794               82.09556850                0.01000000               -0.00408048               -0.25821625                0.12668828                1.14197102                0.05116379               -0.00060341
               2.91974361                3.95699245               82.09926048                0.01279753               -0.18029569               -0.15665578                0.14860292                1.31344335                0.03709906                0.06343870
               3.91731719                3.95907156               82.10267261                0.01000000               -0.27001046               -0.26396381                0.16418091                1.40829885                0.00939580                0.07989902
               4.91434340                3.96334690               82.10623038                0.01000001               -0.34553035               -0.05289176                0.17476822                1.79343594                0.01343634                0.12089503
               5.91040658                3.97201698               82.11006916                0.01000000               -0.46189685               -0.02219281                0.18952035                2.18387703                0.06421061                0.22256830
               6.90510546                3.97863851               82.11476320                0.01570836               -0.59054568               -0.09010694                0.26023911                1.87622896                0.04420117                0.44547730
               7.89859567                3.97701930               82.11779868                0.01000000               -1.35742106               -0.01759385                0.37256431                1.80329573               -0.02839768                0.07403378
               8.87795704                3.98569988               82.11707850                0.01000000               -1.06299417               -0.12535310                0.21732248                1.98399322               -0.23907830                0.26819874
               9.87733578                3.98831979               82.12039584                0.01826718               -0.06212589               -1.18749336                0.14923933                1.78166363               -0.04215276                0.46229261
              -0.06542524                4.96790520               82.09127568                0.39168051               -0.01004638               -0.09738555                0.10595287                0.07641723                0.00206567               -0.06895352
               0.93447430                4.95460649               82.09449071                0.01000000               -0.15595788               -0.07272433                0.11300336                0.58143244                0.02886035               -0.03011735
               1.93145561                4.95168191               82.09821991                0.01000001               -0.26217240               -0.19463101                0.13518563                1.21401101                0.05515945                0.00408563
               2.92923085                4.95494888               82.10216160                0.01000000               -0.10920508               -0.44237566                0.16721702                1.49590130                0.03891524                0.06582431
               3.92927150                4.95612728               82.10620163                0.01000001               -0.05267252               -0.34429886                0.17052207                1.75881540                0.05380025                0.10869543
               4.92817740                4.96219492               82.11065228                0.01000000               -0.13658818               -0.14093240                0.17635383                2.29951039                0.06709620                0.18686028
               5.92653974                4.97154859               82.11556432                0.01671318               -0.23666010               -0.22150065                0.21380820                2.25457425                0.08797392                0.17130174
               6.92344420                4.97674090               82.12079839                0.01740405               -0.54919830               -0.17417650                0.23348608                1.84319923                0.00754168                0.31848079
               7.91555577                4.97832123               82.12323375                0.01000000               -0.74279940                0.08050920                0.33562315                2.11257681                0.12379517                0.01927884
               8.90858821                4.98329463               82.12516333                0.01000001               -0.27896329               -0.38783731                0.28203328                2.21877430               -0.18501115                0.68580341
               9.90997651                4.96620766               82.12999282                0.03215330                0.13882977               -1.18942996                0.13082296                1.00720885               -0.19292200                0.67971110
              -0.05201264                5.96635581               82.09325649                0.74804389               -0.03101993               -0.10896774                0.10545843                0.08815845                0.00434473               -0.04651765
               0.94767716                5.95483083               82.09664359                0.01000001               -0.15632165                0.00458622                0.12152114                0.38602035                0.04039444               -0.02156040
               1.94486093                5.94949532               82.10075954                0.01070820               -0.12304471               -0.37189651                0.15721261                1.03019697                0.07927650               -0.02335117
               2.94521627                5.94814494               82.10514324                0.01000000                0.01932636               -0.70313154                0.17684998                1.60278593                0.12581411                0.01493401
               3.94524745                5.95218558               82.11018686                0.01000000               -0.01519840               -0.45823727                0.17477324                2.11191441                0.16063639                0.20030528
               4.94491230                5.96052826               82.11584152                0.01670644               -0.21476817               -0.22895200                0.20001732                2.21714931                0.06257358                0.22979667
               5.94095209                5.96758697               82.12019201                0.01000001               -0.48577425               -0.48450530                0.29866642                2.18698061               -0.08595250                0.05082695
               6.93519681                5.97515498               82.12447387                0.01000000               -0.33293115               -0.12541859                0.23478033                2.12877237               -0.04817065                0.44652028
               7.93429347                5.97862948               82.13081116                0.01612832               -0.03753579                0.00007763                0.19201965                2.04720171                0.06131669                0.38366480
               8.93444610                5.97794314               82.13385991                0.01000002               -0.13197784               -0.33735097                0.28844073                1.37856878                0.01655336                0.34732708
               9.93165391                5.96453119               82.13456687                0.01000000               -0.27921867                0.12866374                0.37889996                0.63911553               -0.08255595                0.70508890
              -0.04061211                6.96572585               82.09554191                0.99895980               -0.03326924               -0.05450155                0.10305733                0.01426640                0.00243992               -0.03041691
               0.95905519                6.95469821               82.09902997                0.30340897               -0.03212253               -0.01946063                0.12393674                0.04239876                0.00979491               -0.00615241
               1.95874544                6.94424398               82.10265833                0.01432400               -0.02294449               -0.28431314                0.16023822                0.54590154                0.06934851               -0.01141828
               2.95859630                6.94088625               82.10731122                0.01000000                0.01905194               -0.63753358                0.21250761                1.28789840                0.26541456               -0.04080445
               3.95912647                6.94696254               82.11516065                0.01570644               -0.07386507               -0.54009011                0.21688582                1.79899657                0.39884106                0.17010542
               4.95711900                6.95761588               82.12095932                0.01740171               -0.17369248               -0.51870918                0.21291144                1.77817379                0.21948778                0.13574455
               5.95565262                6.96185848               82.12467134                0.01000000               -0.10709354               -0.33488082                0.23724097                2.07649075                0.34468742                0.06377026
               6.95497713                6.97423252               82.13176632                0.01721568               -0.09704847               -0.10381005                0.30654032                2.33757142                0.47663276                0.57569169
               7.95371166                6.97832278               82.13742549                0.01000002               -0.23596232               -0.09428376                0.23147537                1.61262796                0.25141132                0.34132398
               8.95025789                6.97654761               82.14195694                0.01000000               -0.20644654                0.18348090                0.17071848                1.40226551                0.17235806                0.74339489
               9.94958272                6.96878093               82.14819634                0.11904028               -0.06751610                0.72905613                0.10354257                1.22086722                0.23017959                0.99078571
              -0.02967204                7.96526577               82.09786604                0.99378034               -0.03209614               -0.04213588                0.10019937                0.00251536                0.00352952               -0.03067991
               0.97000700                7.95444162               82.10149714                0.97755625               -0.03685232               -0.03006750                0.12723023                0.01185891                0.00697739               -0.00284602
               1.96959092                7.94380906               82.10518428                0.02059295               -0.08756617               -0.04539792                0.15831489                0.12594790                0.06080409                0.02406734
               2.96825568                7.93539427               82.10988447                0.01000000               -0.25465825               -0.41399443                0.19562207                0.93939391                0.29791821               -0.13445590
               3.96449775                7.94138378               82.11743506                0.01000000               -0.13379277               -1.22163022                0.32372948                1.75334194                0.03964908                0.10042771
               4.96557982                7.95015407               82.12309869                0.01000000                0.06837547               -0.69933989                0.29495737                1.95508322               -0.01394858                0.20840775
               5.96586526                7.96088935               82.13067583                0.01613866               -0.00479382               -0.04120190                0.18443592                1.94177086                0.29797804                0.15209941
               6.96548395                7.97307878               82.13721448                0.01000002               -0.08171617               -0.23518584                0.22799751                1.55647884                0.25460076                0.32979914
               7.96423094                7.97674381               82.14295314                0.01000000                0.32746532                0.26524230                0.13874544                1.49934939                0.65374435                0.70374211
               8.97203325                7.98161276               82.15700511                0.13773606                0.36868390                0.22870385                0.13203581                1.33793502                0.49334921                0.58467893
               9.97160462                7.97911231               82.16108414                0.63861724               -0.04286374                0.48902397                0.15960063                0.97521373                0.00145451                0.45868061
              -0.01891349                8.96488313               82.10016704                1.00000000               -0.03374194               -0.03440988                0.09663275               -0.00124617                0.00128615               -0.02559688
               0.98074909                8.95409686               82.10393073                0.99999998               -0.03873837               -0.03576026                0.12700781               -0.00099139                0.00726176               -0.00264618
               1.98031174                8.94333602               82.10780078                0.95844930               -0.04698177               -0.04610815                0.15678834                0.00073684                0.02511901                0.01990264
               2.97980946                8.93260636               82.11190984                0.08565735               -0.04391178               -0.16649270                0.18546866                0.07646106                0.08809260               -0.00733990
               3.97943351                8.92252993               82.11702001                0.01000000               -0.15471795               -0.98936167                0.28226180                1.81759239                0.24959046               -0.13143492
               4.97671510                8.94362908               82.12434026                0.01000001               -0.39350881               -0.25852087                0.30156713                2.02846613                0.59099009               -0.10767650
               5.97156333                8.96103445               82.13316117                0.01000002               -0.32314220               -0.12536659                0.26794135                1.28320892                0.29623162                0.06305348
               6.97025225                8.96952881               82.14144598                0.01000001                0.18006698               -0.21356478                0.17061473                1.30505133                0.67069758                0.23051122
               7.97516467                8.98362762               82.15628326                0.07526898                0.21979172                0.32038005                0.14346657                1.25701079                0.55443965                0.49986507
               8.97464809                8.98112169               82.16055783                0.99999997               -0.05383878               -0.05263037                0.17459245                0.01008152                0.01115965                0.00755193
               9.97408789                8.97856141               82.16449862                0.99438220               -0.05601918               -0.06019580                0.20207382               -0.00391547               -0.00387928               -0.00967098
              -0.00812442                9.96457758               82.10260174                0.99874793               -0.03412990               -0.03055535                0.09526900               -0.00620937               -0.01303837               -0.01801481
               0.99153428                9.95372641               82.10638490                0.99165983               -0.03897144               -0.03704488                0.12608062               -0.00601494               -0.00878104               -0.00034534
               1.99109615                9.94288689               82.11022975                0.98145999               -0.04716456               -0.04491296                0.15197604               -0.00465880               -0.00285649                0.01249996
               2.99059099                9.93206441               82.11410867                0.66865646               -0.06346381               -0.05419476                0.17753422                0.01363653                0.06577614                0.00421007
               3.98982688                9.92159655               82.11927737                0.02477130               -1.14731808               -0.09333815                0.27028545                1.68529917                0.30356237               -0.01668522
               4.96764463                9.94498366               82.12752247                0.03196312               -1.20985805                0.13545717                0.22795670                0.93222706                0.58723267               -0.14998657
               5.96562972                9.95838202               82.13266958                0.01000000                0.06735830               -0.26524253                0.40526481                0.59783019                0.70451374               -0.07210489
               6.96899180                9.96880749               82.14684704                0.10820603                0.60742783               -0.07213197                0.11210547                1.11242390                0.97885358                0.24966718
               7.97777827                9.98315141               82.15967229                0.57228383                0.41546505               -0.04762139                0.17282886                0.84899328                0.46853839                0.00330647
               8.97730110                9.98056015               82.16405311                0.99437686               -0.05657044               -0.05615406                0.20279499                0.00315022                0.02652621                0.00621975
               9.97664686                9.97790839               82.16799363                0.99373644               -0.06542336               -0.06530186                0.23027316               -0.00927870                0.00629465               -0.00377991
              -0.10982835               -0.03650574               83.08035090                1.00000000               -0.01380611               -0.01426164                0.08326147                0.00322929                0.00396303               -0.00178521
               0.89003359               -0.04037100               83.08322040                0.78895085                0.00510373               -0.03590299                0.08439246                0.01867009                0.00909136                0.00045457
               1.89027372               -0.04347506               83.08616184                0.50470183                0.06298277               -0.02029739                0.08593233                0.07190169                0.01718827                0.00010767
               2.89129324               -0.04416163               83.08910882                0.39076951                0.10737135               -0.01600960                0.08829587                0.08777834               -0.00497810               -0.00138518
               3.89242115               -0.04102765               83.09168688                0.32776328                0.04797909               -0.00409354                0.09579496                0.08260591               -0.05630695               -0.00266073
               4.89225283               -0.03445130               83.09377727                0.41639732               -0.07488724               -0.00954307                0.10575025                0.05633683               -0.08252323                0.00445160
               5.89092341               -0.02841722               83.09602476                0.79043369               -0.09558114               -0.03164043                0.10542233                0.07315021               -0.05963604                0.00726777
               6.89034120               -0.02400999               83.09862270                0.99824084               -0.05138634               -0.03277513                0.09988599                0.01151505               -0.04182946                0.00301261
               7.88989568               -0.01997730               83.10123898                0.99999999               -0.04045391               -0.03083178                0.09296834                0.00194292               -0.04441926                0.00796889
               8.88953212               -0.01611028               83.10380697                1.00000000               -0.03188007               -0.03191677                0.08713902               -0.00231562               -0.03875450                0.00108869
               9.88925808               -0.01219872               83.10653568                0.99717236               -0.02740463               -0.03172694                0.08316424               -0.00836136               -0.02988185               -0.02437959
              -0.10593080                0.96335164               83.08287109                0.78493437               -0.03642553                0.00437575                0.08655473                0.01930360               -0.00296511                0.00217456
               0.89370495                0.95926997               83.08571693                0.01000000               -0.05905730               -0.05880800                0.08754120                0.07230406               -0.00411441                0.00332866
               1.89288806                0.95632197               83.08854700                0.01050711               -0.13788117               -0.02430985                0.08939316                0.21929974               -0.00858507                0.01945585
               2.89094732                0.95567827               83.09137834                0.01000000               -0.22480080                0.02047157                0.09323592                0.39270668               -0.01576380                0.03290848
               3.88839204                0.95893141               83.09398187                0.01306601               -0.22181736                0.06227002                0.10226728                0.50502881               -0.03612486                0.03866011
               4.88651098                0.96545327               83.09626683                0.01000000               -0.09788925               -0.14564721                0.11878002                0.55600351               -0.04053311                0.06770651
               5.88643426                0.97126638               83.09876891                0.01000001               -0.01372913               -0.14117044                0.12792728                0.39396678               -0.01607362                0.07963396
               6.88623639                0.97566226               83.10155074                0.33248383               -0.02345012               -0.03246169                0.12640023                0.03974910                0.00454647                0.02123213
               7.88596525                0.97971438               83.10445938                0.96635669               -0.03083577               -0.03725399                0.12792998                0.01129511                0.00511641                0.01565069
               8.88561968                0.98357055               83.10722438                0.99999999               -0.03511730               -0.03791154                0.12455980               -0.00194791               -0.00150471                0.00958678
               9.88526291                0.98748401               83.10997261                0.99144263               -0.03567715               -0.03761788                0.11954751               -0.00759003               -0.00054405               -0.02071157
              -0.10127893                1.96358177               83.08543825                0.49686411               -0.02117257                0.06238369                0.09044368                0.07469168               -0.00160640                0.01313387
               0.89850934                1.95845284               83.08827962                0.01051144               -0.02348263               -0.13881589                0.09078757                0.22025770                0.00849835                0.00611576
               1.89825142                1.95603874               83.09129947                0.01000001               -0.09857055               -0.09994267                0.11774715                0.55750548                0.00165081                0.02862272
               2.89653793                1.95624780               83.09432520                0.01000000               -0.27523468               -0.00788337                0.13020504                0.93539519               -0.00436458                0.04931032
               3.89274672                1.96021775               83.09707530                0.01000000               -0.27500010                0.00051194                0.13504808                1.11444670                0.01086164                0.08418469
               4.89103793                1.96263576               83.09999809                0.01000001               -0.20764829               -0.25766027                0.14948523                1.21852481                0.01264483                0.16073964
               5.88859376                1.96875937               83.10295501                0.01074612               -0.41748751               -0.10385640                0.16496946                1.06795907               -0.04604922                0.15551351
               6.88268818                1.97534078               83.10483407                0.01436601               -0.31902351                0.00017156                0.16708890                0.61442151               -0.01115543                0.12175292
               7.88221329                1.97927762               83.10781417                0.01000000               -0.04823206               -0.22232689                0.16844990                0.27480011                0.04510541                0.09384708
               8.88172354                1.98313149               83.11079661                0.98159877               -0.04669603               -0.04729987                0.15984652                0.00104932                0.03127243                0.03653148
               9.88127937                1.98704892               83.11346434                1.00000000               -0.04441726               -0.04714464                0.14932146               -0.00508116                0.01861271               -0.01251659
              -0.09417909                2.96459932               83.08808828                0.37799256               -0.01677773                0.10711942                0.09346664                0.09662802               -0.00292394               -0.00083702
               0.90565313                2.95649365               83.09090661                0.01000000                0.02111497               -0.22826538                0.09409798                0.40270307                0.01756603                0.00677412
               1.90624321                2.95432311               83.09412245                0.01000000               -0.00884528               -0.27087111                0.12918326                0.94123730                0.01532683                0.03408386
               2.90547622                2.95552060               83.09738229                0.01000000               -0.09750976               -0.08893497                0.14052792                1.23291480                0.02077360                0.06191996
               3.90429301                2.95894165               83.10090775                0.01312133               -0.15681882               -0.19230419                0.15564323                1.29554512                0.00521184                0.09061760
               4.90233985                2.96030007               83.10431098                0.01000000               -0.46022950               -0.11281322                0.17696595                1.49115179               -0.04833482                0.16447423
               5.89508842                2.96918925               83.10720460                0.01000001               -0.71666353               -0.00173229                0.19256850                1.67092103               -0.06325858                0.15907168
               6.88800658                2.97566569               83.10973572                0.01000000               -0.57089400                0.06075935                0.19893101                1.25898292               -0.03587582                0.28809318
               7.88367054                2.97526784               83.11256827                0.01000000               -0.50686066               -0.39930214                0.25440399                1.14185934               -0.02365762                0.34552532
               8.87786936                2.98262456               83.11472749                0.06706104               -0.31720590               -0.03008923                0.18829646                0.23188006               -0.00373532                0.11870289
               9.87732642                2.98654112               83.11702980                0.62511479               -0.05429409               -0.07444541                0.17872005                0.02914334                0.00825384                0.08821990
              -0.08313504                3.96572416               83.09044952                0.31206710               -0.00253545                0.03363277                0.09962603                0.09324336               -0.00426282               -0.04690161
               0.91683961                3.95388753               83.09339792                0.01307011                0.05921247               -0.21580699                0.10033041                0.52560788                0.02233908               -0.00562949
               1.91804921                3.95062132               83.09685442                0.01000000               -0.01309573               -0.26154570                0.13074787                1.12357908                0.04076447                0.04701595
               2.91657769                3.95446910               83.10076296                0.01311971               -0.20855255               -0.14270225                0.15449195                1.28985919                0.03743921                0.04525526
               3.91387816                3.95637166               83.10438187                0.01000000               -0.29821617               -0.28666430                0.18650002                1.35608297                0.02494751                0.08049541
               4.91061337                3.96037950               83.10800854                0.01000001               -0.36158015               -0.06102615                0.19022076                1.70649112                0.01619086                0.14335426
               5.90664656                3.96872473               83.11185891                0.01000000               -0.44120621               -0.08954369                0.19533918                2.14265881                0.06822746                0.20315501
               6.90178924                3.97655596               83.11684051                0.01697255               -0.42774743               -0.00942056                0.15541017                1.60927324                0.10054159                0.29685932
               7.89809161                3.97129158               83.12084914                0.01000000               -1.33506879               -0.17168085                0.27295943                1.79449295               -0.17198038                0.36751178
               8.87508787                3.98252970               83.11990139                0.01515481               -1.20312473                0.07252696                0.29977640                1.91669391               -0.18426481                0.34011817
               9.87402911                3.98556001               83.12245672                0.02782228               -0.10587550               -0.81143226                0.23912209                1.47338063               -0.02950111                0.36021447
              -0.06864096                4.96527197               83.09234776                0.41089088               -0.00909106               -0.09977340                0.10754302                0.07600259                0.00466361               -0.07310829
               0.93126813                4.95217751               83.09562647                0.01000000               -0.16129084               -0.07692803                0.11406466                0.56211126                0.03902415               -0.01859314
               1.92813322                4.94909220               83.09957948                0.01000001               -0.28725303               -0.17813809                0.14592510                1.19157895                0.09903431                0.03981503
               2.92552307                4.95266656               83.10392140                0.01000000               -0.13144738               -0.44265375                0.17810073                1.46089513                0.11096617                0.00411363
               3.92550427                4.95320837               83.10793502                0.01000001               -0.07032293               -0.34747143                0.18585700                1.68714919                0.08879333                0.08755809
               4.92411661                4.95907955               83.11239338                0.01000000               -0.18695712               -0.18212327                0.21710503                2.17816434                0.12398410                0.21022726
               5.92176513                4.96739838               83.11786580                0.01000000               -0.32457077               -0.26762498                0.22633977                2.28203406               -0.01856554                0.21087969
               6.91762519                4.97547728               83.12216184                0.01000000               -0.40892362               -0.11704677                0.09488989                1.64949733               -0.34901701                0.31876635
               7.91358666                4.97183423               83.12581429                0.01000000               -0.78451928                0.18728482                0.21361557                2.02549460               -0.25139989                0.24742313
               8.90193481                4.98407509               83.12818158                0.01000001               -0.64266179               -0.42260755                0.27176405                2.76548857               -0.37314974                0.68754244
               9.90073342                4.97031247               83.13025898                0.03559138               -0.12013846               -1.06865739                0.19952991                1.47160118               -0.48484094                0.93041465
              -0.05542607                5.96372869               83.09432714                0.77453834               -0.03123320               -0.10881722                0.10680436                0.08536430                0.00601001               -0.05377185
               0.94426160                5.95234897               83.09787084                0.01000001               -0.15910961                0.00173561                0.12272017                0.37798148                0.05382243               -0.01548420
               1.94139174                5.94705856               83.10236863                0.01076187               -0.12910863               -0.35698264                0.16134929                1.01688554                0.11062796               -0.01433582
               2.94167943                5.94561602               83.10693117                0.01000001               -0.00917935               -0.71396509                0.18625427                1.60021823                0.11848117               -0.00014647
               3.94120816                5.94942224               83.11183256                0.01000000               -0.08463924               -0.41808425                0.18127555                2.09982559                0.15171794                0.15700941
               4.93998665                5.95673703               83.11797932                0.01000000               -0.26593253               -0.30884979                0.20795239                2.25233178                0.13294482                0.08266481
               5.93588951                5.96337223               83.12371421                0.01000000               -0.48216528               -0.47440382                0.29246837                2.48271281                0.09009652                0.19456224
               6.93034334                5.97421503               83.12670878                0.01000000               -0.29429106               -0.09930887                0.27616745                2.36667734                0.20772706                0.39083382
               7.93000368                5.97503727               83.13124516                0.01000001                0.07880284                0.20982221                0.12424963                1.88445579                0.09323365                0.53170269
               8.93191940                5.97407755               83.13638570                0.01302432                0.04913513               -0.51382551                0.27106721                1.75642538                0.00025174                0.64892835
               9.93098639                5.96418686               83.14107861                0.01000000               -0.09330099               -0.25935259                0.44194295                1.27653993                0.16344113                0.66378805
              -0.04417423                6.96309563               83.09656570                0.99314039               -0.03278823               -0.05514295                0.10251624                0.01346743                0.00288572               -0.03791049
               0.95549789                6.95221222               83.10025370                0.30873662               -0.03109469               -0.01910898                0.12313710                0.04470904                0.01959885               -0.00307108
               1.95520388                6.94195255               83.10427179                0.01436815               -0.01670667               -0.27730479                0.16098344                0.53345938                0.10252816               -0.00397504
               2.95516376                6.93838726               83.10958411                0.01000000                0.05879495               -0.62290101                0.19830708                1.25080049                0.25048089               -0.01995073
               3.95637978                6.94484668               83.11686041                0.01696430                0.00247479               -0.38550358                0.13153354                1.59487584                0.25792930                0.16623205
               4.95521325                6.95290255               83.12226148                0.01000000               -0.12191936               -0.37833262                0.09194451                1.59451037                0.26642382               -0.25631790
               5.95394139                6.95791030               83.12690455                0.01000000               -0.09597791               -0.28493593                0.26512169                2.31852731                0.30524025                0.30455185
               6.95329369                6.97349110               83.13440248                0.01000001               -0.12640712               -0.13666091                0.20913927                2.51213449                0.25944989                0.36398934
               7.95141325                6.97603067               83.13965766                0.01423705               -0.26899852                0.03734230                0.25943769                1.63646073                0.19540196                0.56366170
               8.94791372                6.97379858               83.14405641                0.01000000               -0.26838231                0.19710697                0.21252844                1.24602471                0.26536216                0.87391198
               9.94604560                6.96512542               83.14887193                0.11899041               -0.18681221                0.56093610                0.13816824                0.95407351                0.15710506                0.65890338
              -0.03338991                7.96262584               83.09885819                0.99999999               -0.03112290               -0.04273840                0.09736961                0.00235146                0.00605533               -0.03773713
               0.96629886                7.95196679               83.10275882                0.97071427               -0.03620973               -0.02903894                0.12573970                0.01259950                0.01254633                0.00077266
               1.96588590                7.94151247               83.10676822                0.01000000               -0.12487776               -0.04555159                0.15929908                0.12083576                0.06815908                0.02873503
               2.96380131                7.93315800               83.11178546                0.01000000               -0.36477593               -0.39556735                0.26376552                1.04802110                0.33224064               -0.04881510
               3.95859038                7.94171216               83.12039204                0.01000000               -0.24940369               -1.21899740                0.26320282                1.76065971                0.34832185               -0.08365798
               4.95881323                7.94917038               83.12544532                0.01000000                0.15405607               -0.70962309                0.20850788                1.87449776                0.21550583               -0.16117353
               5.96167150                7.95767351               83.13112957                0.01000001                0.18262119                0.08286133                0.13558882                1.77475488                0.46459864                0.17801980
               6.96246566                7.97148181               83.13944487                0.01410769                0.03769575               -0.27159675                0.27246133                1.58046899                0.49238520                0.25963559
               7.96242542                7.97578412               83.14515189                0.01000000                0.26397427                0.20462136                0.19879617                1.30652437                0.69914275                0.73725123
               8.96774514                7.97801969               83.15825059                0.14207635                0.24943871                0.18659496                0.10491679                1.11117908                0.42409951                0.54183628
               9.96741419                7.97540559               83.16259957                0.64235587               -0.03309539                0.48722339                0.12838199                0.93493286                0.00909824                0.50103448
              -0.02280911                8.96224086               83.10112476                1.00000000               -0.03276414               -0.03390636                0.09251477               -0.00163733                0.00202282               -0.03189308
               0.97686325                8.95163144               83.10519059                0.99999998               -0.03807552               -0.03468492                0.12430100               -0.00140170                0.00765551               -0.00200554
               1.97642938                8.94104152               83.10934000                0.96290897               -0.04693852               -0.04543253                0.15473977                0.00009694                0.02310853                0.02164631
               2.97592448                8.93047591               83.11370648                0.10164634               -0.04243924               -0.16084688                0.18518412                0.10876470                0.13524394               -0.00341688
               3.97558060                8.92046673               83.12011268                0.01478648                0.04086917               -1.12889721                0.32903142                1.78208732                0.33511789               -0.12069013
               4.97674186                8.93871009               83.12791552                0.01000001               -0.42277698               -0.57749638                0.30867635                2.55633840                0.59013463               -0.25788992
               5.96712506                8.95956753               83.13564709                0.01277515               -0.49746996                0.04793334                0.29311158                1.61507918                0.59059101                0.05089938
               6.96679246                8.96805917               83.14360854                0.01000000                0.19403971               -0.26354841                0.23284104                1.16070957                0.83249151                0.30227303
               7.97100585                8.98012310               83.15770437                0.07135148                0.18616871                0.19341346                0.14255535                1.03841110                0.50478664                0.44780782
               8.97051584                8.97753048               83.16226412                0.99999998               -0.05166889               -0.05174621                0.17036833                0.01341412                0.01234977                0.01672189
               9.96997247                8.97486989               83.16647220                0.99208824               -0.05433647               -0.05848042                0.19701852               -0.00521836               -0.00453539               -0.00026130
              -0.01220382                9.96194771               83.10352832                0.99716270               -0.03260033               -0.02931509                0.08921391               -0.00693326               -0.01601677               -0.02351225
               0.98747017                9.95127309               83.10762209                0.99230468               -0.03764019               -0.03583520                0.12117830               -0.00650252               -0.01458622               -0.00088979
               1.98704337                9.94060381               83.11170391                0.98807246               -0.04593931               -0.04377014                0.14709630               -0.00520233               -0.01231392                0.01143484
               2.98655139                9.92994107               83.11581408                0.73107447               -0.05227126               -0.05348435                0.17368497               -0.01078917                0.10031172                0.00382789
               3.98599795                9.91913422               83.12214617                0.03250981               -0.78560884               -0.13325124                0.29826645                1.42570422                0.30267303               -0.00804881
               4.97083921                9.93762045               83.12944213                0.03562657               -1.06869704               -0.10896371                0.30000932                1.38463233                0.81708979               -0.40357749
               5.96462401                9.95863218               83.13957007                0.01000000               -0.28574661               -0.09353500                0.48424883                1.17941436                0.61623385                0.18294215
               6.96512428                9.96621084               83.14780313                0.10998155                0.45491570               -0.18483248                0.16870369                0.88419190                0.66182314                0.18085296
               7.97372232                9.97965239               83.16138852                0.56785550                0.40711803               -0.04707100                0.17228332                0.81034322                0.49410488                0.00402741
               8.97326664                9.97698477               83.16603674                0.99209551               -0.05456512               -0.05457144                0.19810667                0.00425941                0.02655816                0.00531000
               9.97263102                9.97423598               83.17024451                0.99301812               -0.06356205               -0.06339085                0.22475942               -0.00902481                0.00533628               -0.00449607
              -0.11266426               -0.03905793               84.08117655                1.00000000               -0.01220131               -0.01257774                0.08161398                0.00330864                0.00391823               -0.00133681
               0.88721372               -0.04287912               84.08405698                0.79472029                0.00800253               -0.03631996                0.08279518                0.01992495                0.00944568                0.00035176
               1.88749579               -0.04587658               84.08701494                0.52482817                0.06287508               -0.01933221                0.08472637                0.06778904                0.01833709                0.00005857
               2.88847123               -0.04646726               84.08998959                0.40578063                0.10079469               -0.01557770                0.08788555                0.08502808               -0.00135407               -0.00094397
               3.88951168               -0.04337516               84.09264663                0.33803787                0.03797967               -0.00262169                0.09608557                0.08301161               -0.04938207               -0.00133168
               4.88923082               -0.03694775               84.09484160                0.43805964               -0.08105011               -0.00873292                0.10638679                0.05861500               -0.08308719                0.00713341
               5.88789068               -0.03119199               84.09708343                0.82076552               -0.09615659               -0.03117271                0.10534027                0.07140476               -0.06508406                0.00900958
               6.88730769               -0.02703801               84.09962725                0.99311562               -0.05195378               -0.03254483                0.09995557                0.01018714               -0.05005180                0.00271632
               7.88685160               -0.02327530               84.10215791                1.00000000               -0.04064340               -0.02970696                0.09092301                0.00177347               -0.05288970                0.01248534
               8.88649482               -0.01969462               84.10466219                0.99829777               -0.03092758               -0.03067505                0.08340911               -0.00219895               -0.04410068                0.00385127
               9.88623305               -0.01607289               84.10735156                1.00000000               -0.02617670               -0.03029674                0.07861669               -0.00781979               -0.03326055               -0.02734503
              -0.10880998                0.96081630               84.08372704                0.79103024               -0.03677225                0.00743961                0.08454774                0.02051063               -0.00273460                0.00310000
               0.89082230                0.95675768               84.08658215                0.02504687               -0.06111377               -0.06090652                0.08552131                0.07814897               -0.00346612                0.00328309
               1.88996775                0.95393010               84.08943091                0.01118103               -0.13757502               -0.03255507                0.08754682                0.21458051               -0.00655938                0.03464652
               2.88807080                0.95337696               84.09230080                0.01000000               -0.21928506                0.00875863                0.09151560                0.39526453               -0.00987127                0.05038344
               3.88558204                0.95659862               84.09499427                0.01000000               -0.21727063                0.02719974                0.10062215                0.53149453               -0.02423944                0.05632040
               4.88372539                0.96296492               84.09744979                0.01000000               -0.09660954               -0.13534827                0.11796494                0.55669886               -0.02458330                0.08432562
               5.88364985                0.96849628               84.10004047                0.01000000               -0.01370878               -0.13447590                0.12601597                0.37274500               -0.00868702                0.09027353
               6.88345121                0.97263655               84.10280403                0.33762581               -0.02261032               -0.03173930                0.12469512                0.04006166                0.00790218                0.02775178
               7.88319765                0.97642763               84.10572552                1.00000000               -0.02897909               -0.03525601                0.12355917                0.01223852                0.00813104                0.02423857
               8.88287163                0.97999863               84.10845209                0.99999998               -0.03322614               -0.03652609                0.11902151               -0.00170405               -0.00167289                0.01067606
               9.88253312                0.98362414               84.11114034                0.99189862               -0.03385039               -0.03580199                0.11417393               -0.00727843               -0.00201905               -0.02727702
              -0.10413681                1.96109087               84.08633181                0.51755961               -0.02002910                0.06258383                0.08837689                0.07037358               -0.00140064                0.01416675
               0.89566290                1.95590275               84.08917552                0.01118503               -0.03475395               -0.13851550                0.08862374                0.21855836                0.02473186                0.00623325
               1.89516811                1.95347232               84.09251967                0.01000001               -0.09774519               -0.09785695                0.09865028                0.54958025                0.02030187                0.04560718
               2.89370799                1.95370791               84.09562991                0.01000000               -0.23072461               -0.02471616                0.12466810                0.89507461                0.01957041                0.07973332
               3.89055362                1.95716884               84.09846475                0.01000000               -0.26204273               -0.03431439                0.15180816                1.08454255                0.10529019                0.06533981
               4.88846714                1.96034528               84.10159271                0.01000001               -0.24398331               -0.22165609                0.16079719                1.16074114                0.06774887                0.21938947
               5.88567395                1.96611849               84.10461138                0.01097188               -0.41447868               -0.11131495                0.16377468                0.98979855               -0.04435539                0.19291853
               6.88017757                1.97232721               84.10647101                0.01465257               -0.29698289               -0.01690440                0.16375362                0.56453221               -0.00064702                0.12972235
               7.87973429                1.97601958               84.10950570                0.01000000               -0.04566665               -0.19394952                0.16013697                0.25681542                0.05062682                0.12487644
               8.87926423                1.97957486               84.11234556                0.98751924               -0.04489181               -0.04638297                0.15215984               -0.00037787                0.02781740                0.03059394
               9.87883646                1.98321107               84.11488719                0.97441261               -0.04277753               -0.04473005                0.14250577               -0.00586111                0.01380233               -0.02332413
              -0.09702627                2.96206797               84.08901527                0.39406938               -0.01617232                0.10075713                0.09199163                0.09275670               -0.00232048                0.00099853
               0.90281201                2.95398737               84.09183678                0.01000000                0.00902250               -0.22249407                0.09224408                0.40545956                0.03648845                0.00898991
               1.90315418                2.95197296               84.09542262                0.01000000               -0.02681159               -0.23005466                0.12498607                0.90502584                0.04986236                0.05225946
               2.90227578                2.95288264               84.09882118                0.01000000               -0.12593278               -0.11747362                0.14773656                1.15981629                0.04168451                0.07899360
               3.90063553                2.95591234               84.10250341                0.01000001               -0.21426114               -0.17573153                0.16415272                1.28330475               -0.00535340                0.10773858
               4.89799055                2.95853180               84.10608031                0.01000000               -0.45858143               -0.11068472                0.17702267                1.45403421               -0.12461480                0.29177289
               5.89146390                2.96626998               84.10916239                0.01000001               -0.65748975               -0.03498034                0.18874043                1.55159336               -0.09096350                0.18564303
               6.88484076                2.97229846               84.11165557                0.01000000               -0.51887946               -0.00888134                0.20443475                1.21135843               -0.00951396                0.22226686
               7.88108631                2.97254864               84.11504971                0.01059263               -0.45840860               -0.24480332                0.21618054                0.95666947               -0.02418382                0.43504720
               8.87567259                2.97907097               84.11649880                0.09054023               -0.29714154               -0.02633485                0.18344450                0.17904102               -0.02854406                0.16494552
               9.87514348                2.98272954               84.11870931                0.70892871               -0.05291092               -0.04580834                0.17120917                0.00578936                0.00878897                0.11404243
              -0.08612046                3.96310601               84.09144345                0.32475024               -0.00124361                0.02487248                0.09903524                0.09152912               -0.00254081               -0.04303590
               0.91386710                3.95145286               84.09439538                0.01000000                0.02469082               -0.21128318                0.09949152                0.54881363                0.04059528                0.00163567
               1.91437335                3.94887123               84.09818345                0.01000000               -0.04510764               -0.25044790                0.14491373                1.09463786                0.02319020                0.13908638
               2.91296495                3.95135844               84.10235032                0.01000001               -0.19013974               -0.20098536                0.16335588                1.28009169                0.06017111                0.03246655
               3.91057056                3.95365420               84.10640261                0.01000000               -0.28873841               -0.27422930                0.20063143                1.43565069                0.08293398                0.13247641
               4.90719018                3.95813159               84.11003480                0.01000000               -0.38156999               -0.10515559                0.22940397                1.72502098                0.07776080                0.27257846
               5.90293916                3.96541888               84.11397595                0.01000000               -0.45320534               -0.11795488                0.22508376                1.94770340                0.04138169                0.25248610
               6.89812607                3.97214958               84.11787141                0.01000000               -0.54219915                0.04747460                0.12450645                1.46896271                0.01854076                0.10883779
               7.89209517                3.97112352               84.12325787                0.01000000               -1.27309563                0.01625109                0.12247050                1.51601526               -0.57228964                0.70392142
               8.87266416                3.97904816               84.12307403                0.01121377               -1.02300361                0.07451019                0.30499423                1.60896597               -0.11580496                0.32311522
               9.87163510                3.98229490               84.12517828                0.03591799               -0.10290567               -0.82677368                0.26455797                1.37374461               -0.02220184                0.39348201
              -0.07188940                4.96256542               84.09342654                0.43548081               -0.00875415               -0.10217903                0.10728982                0.07665937                0.00766106               -0.07675461
               0.92802306                4.94976170               84.09677200                0.01000000               -0.14846201               -0.07794757                0.11467337                0.56217990                0.05877712               -0.00539349
               1.92514136                4.94696400               84.10113841                0.01000001               -0.24642127               -0.21774677                0.15614736                1.13705141                0.16313429                0.09694991
               2.92309464                4.94886293               84.10572361                0.01000000               -0.12829842               -0.44395722                0.18146576                1.43103777                0.24024560               -0.07513868
               3.92257539                4.95042775               84.10991877                0.01000000               -0.11841697               -0.36269100                0.22595631                1.71144318                0.22058510                0.13372649
               4.92072630                4.95642869               84.11499438                0.01000000               -0.30877108               -0.29090691                0.27542175                2.09912510                0.23545040                0.29410616
               5.91639997                4.96391088               84.12009112                0.01000001               -0.61054589               -0.14897046                0.22566071                2.39523324                0.06365452                0.30770279
               6.90851538                4.97324795               84.12269619                0.01000000               -0.59459673               -0.07092810                0.20489622                2.13285602               -0.02541552                0.21297921
               7.90450804                4.97287367               84.12750606                0.01000000               -0.59174273                0.21483237                0.20001341                2.08496327               -0.23528856                0.63493842
               8.89668052                4.98056117               84.13059861                0.01000003               -0.41915760               -0.20006414                0.27462523                2.26369613               -0.07528899                0.40491658
               9.89612489                4.96619407               84.13398342                0.04165321               -0.05556380               -1.15504523                0.20600181                1.25838049               -0.02999249                0.59627146
              -0.05897984                5.96106243               84.09539257                0.80833957               -0.03080467               -0.10644195                0.10546130                0.08109766                0.00766227               -0.06052202
               0.94071212                5.94989391               84.09909800                0.01000000               -0.15035066               -0.00064496                0.12236316                0.35859432                0.06733940               -0.00803961
               1.93801315                5.94451629               84.10398653                0.01097603               -0.12950793               -0.35995582                0.16165064                0.94548055                0.15353076               -0.01244626
               2.93812196                5.94247930               84.10886832                0.01000001               -0.03897396               -0.66149913                0.18795636                1.49033789                0.14246722               -0.04231923
               3.93723367                5.94640038               84.11381237                0.01000000               -0.12162050               -0.43500225                0.21451904                1.94332256                0.19890823                0.10194328
               4.93568955                5.95231345               84.12000057                0.01000001               -0.16045563               -0.57025843                0.20951921                2.38580658                0.24852052                0.13844346
               5.93402456                5.96243947               84.12604137                0.01000000               -0.19345686               -0.16883611                0.22003419                2.58170160                0.24689848                0.31135266
               6.93182041                5.97073102               84.12999722                0.01000000               -0.37716689               -0.22358647                0.30132509                2.59391652                0.23206672                0.28736653
               7.92648122                5.97542017               84.13329615                0.01000001               -0.36013635                0.14078048                0.29413960                2.38867923                0.16011083                0.65249482
               8.92461768                5.97504688               84.13928126                0.01000001               -0.04721475               -0.42001021                0.27580881                1.67220830               -0.03221934                0.66720258
               9.92553692                5.95919400               84.14340572                0.01000000                0.09192416               -0.28780146                0.22863698                0.76315674               -0.13348621                0.52883073
              -0.04793041                6.96043658               84.09759223                0.98905138               -0.03285038               -0.05552292                0.10162615                0.01260467                0.00319034               -0.04634165
               0.95174108                6.94974880               84.10149271                0.31708999               -0.03019981               -0.01868629                0.12343002                0.04820444                0.02778282                0.00095837
               1.95146559                6.93976489               84.10587800                0.01464701               -0.03618895               -0.26003765                0.15831039                0.48992315                0.10433910                0.00412311
               2.95101730                6.93563295               84.11127737                0.01000000                0.00710517               -0.60918513                0.19496801                1.25587701                0.19313544                0.03514479
               3.95160769                6.94172770               84.11779132                0.01000000                0.06930185               -0.49710161                0.12076401                1.49806093                0.10497264                0.04679730
               4.95240334                6.94502352               84.12279821                0.01000000               -0.09956292               -0.55184450                0.17712244                2.11346570                0.17727960                0.03898143
               5.94961643                6.96053416               84.12997377                0.01000000               -0.24951612               -0.33661345                0.28548248                2.54429176                0.22227372                0.32884563
               6.94741302                6.96877622               84.13594910                0.01000001               -0.08253336               -0.08327909                0.22156267                2.23220177                0.14708899                0.24725017
               7.94796577                6.97568928               84.14261425                0.01000001               -0.05310791               -0.09890197                0.25821865                1.81558023                0.04233697                0.43970354
               8.94635086                6.97216097               84.14620751                0.01000003               -0.24359938               -0.04025528                0.34006140                1.15993229                0.13228389                0.85515907
               9.94309378                6.96043804               84.15095970                0.11904380               -0.32570792                0.61693641                0.40403906                0.70529148                0.19020123                0.72095434
              -0.03735219                7.95995197               84.09981343                1.00000000               -0.02999154               -0.04307186                0.09293001                0.00310815                0.00913711               -0.04727358
               0.96234790                7.94952019               84.10401194                0.96113509               -0.03601754               -0.02776619                0.12517168                0.01547245                0.01856211                0.00358319
               1.96192746                7.93931554               84.10837026                0.02752685               -0.05356096               -0.04658115                0.16325986                0.07839171                0.14865985                0.03667596
               2.96127668                7.93029559               84.11515978                0.01061069               -0.20615705               -0.35617766                0.24588994                0.89335847                0.40450917               -0.04688983
               3.95780432                7.93645835               84.12269912                0.01000000               -0.10621380               -1.16828541                0.15636923                1.56500490                0.62650184               -0.46466002
               4.95915240                7.94127656               84.12726885                0.01000000                0.16766824               -0.52745176                0.20833342                1.99144437                0.59025185               -0.12401307
               5.96115769                7.95570720               84.13338761                0.01000001                0.10784632               -0.34611117                0.30320165                2.29272926                0.62636795                0.26383569
               6.96130933                7.96906544               84.14266371                0.01000001               -0.08748049               -0.07801056                0.30034960                1.75833556                0.37229471                0.18740376
               7.95940808                7.97344213               84.14692906                0.01000003                0.08791188                0.03289377                0.36269167                1.19076931                0.47363415                0.58680225
               8.96306757                7.97424177               84.15910344                0.14681355                0.18402689                0.07545038                0.03831413                0.89334934                0.37674128                0.44304905
               9.96308862                7.97153272               84.16365178                0.64684703                0.00210476                0.52366043                0.04984148                0.85345732                0.00142062                0.42139432
              -0.02700469                8.95957515               84.10201733                0.99781425               -0.03083538               -0.03258745                0.08551013               -0.00217243                0.00286814               -0.03913491
               0.97268696                8.94919348               84.10641674                0.99999998               -0.03686484               -0.03372892                0.12134774               -0.00114060                0.00897148               -0.00155773
               1.97225802                8.93883326               84.11089558                0.95766001               -0.04726493               -0.04638803                0.15755999                0.00231693                0.02605305                0.02535658
               2.97174166                8.92850940               84.11561352                0.17333457               -0.01655953               -0.11849087                0.19783706                0.02035089                0.20078563               -0.06651417
               3.97192682                8.91836200               84.12360064                0.01088038                0.06208574               -0.95448807                0.27364328                1.52065262                0.31212717               -0.05975411
               4.97298337                8.93447448               84.13051379                0.01000003               -0.21223422               -0.37088303                0.30144975                2.13300310                0.38180388               -0.04417144
               5.96768214                8.95361194               84.13902340                0.01000001               -0.40692842               -0.07561485                0.34880693                1.55886161                0.65111204                0.05281263
               6.96484481                8.96721601               84.14610280                0.01000003               -0.05386597               -0.25150404                0.41764630                1.09178441                0.79993118                0.22574134
               7.96660482                8.97634715               84.15913437                0.06739476                0.06412201                0.12107595                0.14788176                0.82363236                0.44282326                0.41966643
               8.96612725                8.97366997               84.16396519                0.99999999               -0.05119021               -0.05603337                0.17038703                0.02363995                0.01311551                0.04562098
               9.96558102                8.97091124               84.16843899                0.98938217               -0.05462296               -0.06294355                0.19692856               -0.01340137               -0.00504561                0.03205915
              -0.01663230                9.95930022               84.10438602                1.00000000               -0.03007301               -0.02749258                0.08178601               -0.00822257               -0.02117384               -0.02897777
               0.98306697                9.94884561               84.10880846                0.99266673               -0.03549072               -0.03478712                0.11595663               -0.00762106               -0.02148325               -0.00111384
               1.98265788                9.93838778               84.11317168                0.99377220               -0.04560009               -0.04454850                0.14730536               -0.00600476               -0.02009251                0.01211055
               2.98215497                9.92792578               84.11758237                0.81720401               -0.02027960               -0.05836213                0.18207632               -0.00962883                0.14401892                0.00487737
               3.98225229                9.91736859               84.12524270                0.04017724               -0.77962208               -0.09934057                0.23939414                1.32920280                0.34920169                0.00086508
               4.96656252                9.93385890               84.13352265                0.04262782               -1.13294503               -0.06155823                0.22660190                1.19923080                0.50584482               -0.03110745
               5.95959339                9.95419491               84.14235456                0.01000000               -0.30763597                0.05829692                0.30552261                0.69994799                0.50184216               -0.07517851
               6.96040981                9.96403536               84.15022111                0.11147871                0.49166845               -0.31806524                0.39641470                0.63993677                0.73779241                0.23180002
               7.96942676                9.97586364               84.16311796                0.56248594                0.42832342               -0.04835065                0.17626951                0.73648116                0.44615739                0.00548818
               8.96897627                9.97312110               84.16801525                0.98937563               -0.05443559               -0.05488718                0.19778740                0.00541315                0.02613613                0.00495118
               9.96833805                9.97027385               84.17248881                0.99995665               -0.06382253               -0.06373910                0.22435562               -0.00902178                0.00488786               -0.00491158
              -0.11551084               -0.04163345               85.08198318                0.99598213               -0.01050473               -0.01081587                0.07991689                0.00342776                0.00415025               -0.00068655
               0.88438411               -0.04541431               85.08487631                0.79989310                0.01093475               -0.03686045                0.08123265                0.02114529                0.01022150                0.00040532
               1.88470785               -0.04830583               85.08785637                0.54506793                0.06251828               -0.01839956                0.08353027                0.06360648                0.02023733                0.00004852
               2.88563448               -0.04880292               85.09086653                0.42004201                0.09368267               -0.01514581                0.08742735                0.08301877                0.00334461               -0.00048322
               3.88658151               -0.04574958               85.09360859                0.34991160                0.02599005               -0.00107278                0.09617780                0.08157052               -0.04210168                0.00034419
               4.88615428               -0.03952502               85.09590501                0.46688703               -0.08727173               -0.00863143                0.10551097                0.06180807               -0.08421605                0.01033718
               5.88483607               -0.03415110               85.09813156                0.85939634               -0.09442962               -0.03050020                0.10295502                0.06780932               -0.07050642                0.01062914
               6.88426568               -0.03030923               85.10062181                0.99026582               -0.05165626               -0.03172413                0.09772576                0.00878417               -0.05816785                0.00294714
               7.88380295               -0.02686281               85.10305744                0.99999998               -0.04046081               -0.02858204                0.08697891                0.00249512               -0.06243532                0.01381800
               8.88345647               -0.02361306               85.10547516                0.99999999               -0.02944086               -0.02862390                0.07682674               -0.00152468               -0.05172974                0.00312281
               9.88321413               -0.02032318               85.10810801                1.00000000               -0.02423395               -0.02739869                0.07087808               -0.00782092               -0.03903189               -0.03156851
              -0.11169571                0.95825839               85.08456204                0.79665043               -0.03725388                0.01051656                0.08264243                0.02169335               -0.00239001                0.00434169
               0.88793175                0.95421709               85.08742735                0.05458175               -0.06330331               -0.06314092                0.08373194                0.08418997               -0.00271425                0.00344655
               1.88703822                0.95151017               85.09029794                0.01000000               -0.13726065               -0.03674951                0.08605803                0.21618743               -0.00440069                0.02758825
               2.88518654                0.95104562               85.09320865                0.01027618               -0.21399825                0.00624992                0.09042366                0.40396477               -0.00412148                0.06333956
               3.88275826                0.95423969               85.09599431                0.01000000               -0.21067103               -0.01175088                0.10001474                0.58256345               -0.01223050                0.08845868
               4.88097312                0.96038867               85.09862613                0.01000000               -0.09259930               -0.10409766                0.11747792                0.56981063               -0.00851539                0.10332746
               5.88090627                0.96554390               85.10128923                0.01000000               -0.01318671               -0.11765423                0.12341885                0.34885660               -0.00120030                0.10062352
               6.88070938                0.96937353               85.10404464                0.34551328               -0.02132294               -0.03035400                0.12241231                0.04113527                0.01047437                0.03601974
               7.88047981                0.97285137               85.10693056                0.99416295               -0.02689877               -0.03431158                0.11927506                0.01377489                0.00911964                0.02613429
               8.88017141                0.97610070               85.10960481                0.99999998               -0.03168876               -0.03451381                0.11357475               -0.00033072               -0.00112723                0.01103410
               9.87984604                0.97940283               85.11225609                0.99127091               -0.03253689               -0.03316780                0.10863114               -0.00688538               -0.00116433               -0.03269504
              -0.10699438                1.95857688               85.08720579                0.53839008               -0.01895032                0.06246290                0.08643872                0.06595914               -0.00119381                0.01586801
               0.89281612                1.95332287               85.09005210                0.01000001               -0.04012791               -0.13817506                0.08689829                0.22130505                0.01853560                0.00689770
               1.89220307                1.95095918               85.09327248                0.01000001               -0.09159349               -0.09028297                0.07353153                0.56085169                0.04447542                0.06447664
               2.89098425                1.95132208               85.09681856                0.01000000               -0.16566706               -0.03327772                0.12056087                0.85494045                0.05944428                0.13249213
               3.88888973                1.95401540               85.10011146                0.01024503               -0.23689847               -0.05405644                0.15444539                1.06197571                0.09757536                0.13650958
               4.88624628                1.95839303               85.10321404                0.01000001               -0.30306898               -0.13476153                0.15608178                1.08479354                0.07292133                0.22485071
               5.88282835                1.96349582               85.10623051                0.01139670               -0.42326806               -0.10031791                0.15545067                0.87391393               -0.02481528                0.21780346
               6.87778092                1.96908369               85.10810914                0.01535094               -0.27385360               -0.03314466                0.16024259                0.50873678                0.00711417                0.15287337
               7.87735127                1.97245096               85.11101691                0.01000000               -0.04412648               -0.13173774                0.15369766                0.22383941                0.05553485                0.12689371
               8.87689839                1.97569666               85.11383981                1.00000000               -0.04395598               -0.04528474                0.15053218                0.00149907                0.03412234                0.03419516
               9.87647215                1.97901346               85.11631445                0.98366420               -0.04262375               -0.04359755                0.14154664               -0.00656272                0.01596558               -0.03010899
              -0.09986852                2.95950764               85.08992811                0.40936008               -0.01559318                0.09376493                0.09061876                0.08982638               -0.00170069                0.00397137
               0.89997555                2.95145359               85.09275149                0.01025013                0.00622861               -0.21689250                0.09104717                0.41461277                0.05123045                0.01212975
               1.90025605                2.94970452               85.09662217                0.01000000               -0.03732130               -0.16359614                0.12117225                0.86407482                0.10452969                0.08590299
               2.89922912                2.95038007               85.10033702                0.01000000               -0.16646170               -0.15530389                0.15400885                1.10158770                0.08582144                0.12147179
               3.89692682                2.95315857               85.10419081                0.01000001               -0.30202744               -0.12047840                0.17118052                1.31380038                0.04992521                0.17176039
               4.89318857                2.95769344               85.10785143                0.01000000               -0.46164625               -0.07380184                0.17872406                1.43639722               -0.02734476                0.29621179
               5.88769389                2.96353754               85.11097941                0.01000000               -0.56297976               -0.03250481                0.17906741                1.39132151               -0.05058107                0.24068550
               6.88192898                2.96871063               85.11382441                0.01146737               -0.46751315               -0.06957971                0.17116494                1.08881426                0.01987608                0.25222706
               7.87834363                2.97021661               85.11689188                0.01510359               -0.41450470                0.02313481                0.18790948                0.52881448                0.08419961                0.21688986
               8.87363888                2.97519500               85.11839638                0.11308592               -0.26312248               -0.04022287                0.19387269                0.11336189               -0.01532051                0.20232238
               9.87308118                2.97853088               85.12045399                0.82715036               -0.05577038               -0.04289582                0.17610322               -0.02119117                0.00707790                0.13139570
              -0.08908973                3.96045218               85.09243023                0.33908955                0.00012354                0.01400547                0.09833515                0.08777757               -0.00059587               -0.03886762
               0.91091151                3.94898502               85.09538775                0.01000000               -0.01760946               -0.20432786                0.09941345                0.59956641                0.07112910                0.01028140
               1.91055808                3.94768726               85.09975270                0.01024101               -0.06747752               -0.22381965                0.14923290                1.07096107                0.09589556                0.12806775
               2.90956196                3.94821600               85.10403007                0.01000001               -0.13528611               -0.28671440                0.17056921                1.31185398                0.12639953                0.09018630
               3.90785236                3.95160584               85.10839450                0.01000000               -0.24833533               -0.23427135                0.19700153                1.62096929                0.15952712                0.20829521
               4.90459525                3.95691700               85.11259662                0.01000000               -0.41073893               -0.13487719                0.23351844                1.83522900                0.12968531                0.33336595
               5.89963758                3.96284572               85.11636059                0.01052748               -0.58585573               -0.10252690                0.26993518                1.92088084                0.06886424                0.33640529
               6.89287813                3.96769210               85.11933064                0.01000000               -0.90971930               -0.05497944                0.20072961                1.89204462               -0.03390046                0.25479108
               7.88144319                3.97291365               85.12329855                0.01120078               -1.10133856                0.21390492                0.05247209                1.49174737               -0.23935979                0.42498324
               8.87085136                3.97489220               85.12600128                0.01440488               -0.60333093                0.03855969                0.34232084                1.27773401                0.04689677                0.38542383
               9.86937658                3.97815555               85.12774788                0.04295067               -0.14747872               -0.72602140                0.28748737                1.34047277               -0.01032967                0.29787483
              -0.07517866                4.95978775               85.09449355                0.46706348               -0.00895420               -0.10498065                0.10561300                0.07823042                0.01081076               -0.08079958
               0.92473179                4.94736703               85.09791994                0.01000000               -0.11885200               -0.07587789                0.11473150                0.57716476                0.07801145                0.00834161
               1.92244430                4.94522812               85.10270243                0.01000001               -0.15920858               -0.28086025                0.15152151                1.07063504                0.17435691                0.10533261
               2.92154762                4.94464578               85.10755072                0.01000000               -0.08995438               -0.45000578                0.18092913                1.41929980                0.24594635                0.02163152
               3.92064521                4.94847314               85.11245414                0.01000000               -0.14471778               -0.40086434                0.23334650                1.82759156                0.28091669                0.17845868
               4.91865327                4.95499590               85.11790181                0.01175278               -0.26543995               -0.26074618                0.24005903                2.05733338                0.33446121                0.38098925
               5.91533641                4.96148700               85.12237902                0.01000000               -0.44756644               -0.15645479                0.22292095                2.19041951                0.31547970                0.27829776
               6.90970194                4.96761105               85.12625976                0.01000001               -0.71789700               -0.04913247                0.34581750                2.39297336                0.39602424                0.25721369
               7.90097847                4.97449471               85.12981455                0.01000000               -0.78751328                0.00326659                0.31498584                2.54169116                0.38604388                0.33979336
               8.89395167                4.97596620               85.13367408                0.01000001               -0.38072595               -0.15397523                0.27655650                1.99149073                0.13545791                0.35921738
               9.89336395                4.96401045               85.13437901                0.05018035               -0.05877223               -1.01841752                0.17619531                1.33898306                0.00298131                0.44236351
              -0.06268367                5.95835256               85.09643636                0.84976615               -0.03018977               -0.10199077                0.10265824                0.07485412                0.00962535               -0.06766550
               0.93701443                5.94746747               85.10031810                0.01000000               -0.13121496               -0.00247884                0.12054408                0.33767371                0.08047089               -0.00080671
               1.93469203                5.94207005               85.10560164                0.01139917               -0.11557486               -0.37884206                0.15553766                0.84050657                0.18306680                0.00811763
               2.93470294                5.93921588               85.11069030                0.01000000               -0.03189794               -0.59235401                0.18123339                1.35420077                0.19519711                0.00030857
               3.93405407                5.94358855               85.11612295                0.01053821               -0.09874428               -0.57886318                0.26810700                1.93996841                0.27841591                0.12071601
               4.93272805                5.95170207               85.12216970                0.01000000               -0.16116260               -0.42909991                0.22155604                2.20256016                0.23229279                0.33643755
               5.93083082                5.95971663               85.12811490                0.01138115               -0.24990785               -0.21730141                0.19756908                2.24534670                0.22190307                0.26276757
               6.92772989                5.96670945               85.13273528                0.01000000               -0.34544770               -0.09207136                0.30745550                2.35777110                0.17197242                0.19218920
               7.92392187                5.97297899               85.13712795                0.01000000               -0.32822274               -0.16514406                0.35241709                2.30631788                0.15912667                0.26619723
               8.92116544                5.97181270               85.14190188                0.01000000               -0.19270703               -0.24433100                0.30569923                1.65352417                0.12088369                0.51349146
               9.92006773                5.95778720               85.14565135                0.01000000               -0.10977122               -0.23560021                0.23159957                0.94651476                0.01647403                0.80045417
              -0.05191139                6.95774794               85.09859822                0.98706624               -0.03208348               -0.05486516                0.09875237                0.01092561                0.00234171               -0.05638764
               0.94776778                6.94731745               85.10272230                0.32787504               -0.02913026               -0.01765213                0.12165497                0.05010913                0.03294449                0.00608360
               1.94750601                6.93765128               85.10743799                0.01535178               -0.03273190               -0.24208242                0.15574450                0.42502345                0.13082130                0.01515288
               2.94711314                6.93279870               85.11348347                0.01147792               -0.02738094               -0.56659162                0.19117579                1.10521437                0.23087152                0.05709259
               3.94695839                6.93689587               85.11927569                0.01000000               -0.02683737               -0.84894499                0.19631752                1.92862337                0.20933623                0.02049587
               4.94657639                6.94641390               85.12580393                0.01000001               -0.08612102               -0.63637673                0.31567046                2.37234167                0.24203268                0.37109355
               5.94523597                6.95714098               85.13261420                0.01000000               -0.14906964               -0.29080164                0.30534017                2.36644498                0.23346617                0.20192400
               6.94359500                6.96576962               85.13883373                0.01000000               -0.16171973               -0.08166324                0.27823187                2.13455294                0.11382608                0.19303104
               7.94200157                6.97119183               85.14482203                0.01000001               -0.06905269               -0.09894712                0.23414039                1.84232262                0.03776323                0.31754849
               8.94221395                6.97107958               85.15085763                0.01523098               -0.08281613               -0.13448528                0.37711739                1.27492143                0.09789234                0.55103836
               9.94034525                6.95929845               85.15695271                0.12120802               -0.18686950                0.42834947                0.38016380                0.73579729                0.25435417                0.55707586
              -0.04160418                7.95725526               85.10071679                0.99999998               -0.02825442               -0.04311836                0.08818230                0.00395733                0.01345543               -0.05923410
               0.95811327                7.94711442               85.10526225                0.99260574               -0.03422820               -0.02568450                0.12186983                0.01849008                0.02641818                0.00651885
               1.95771125                7.93722840               85.11003342                0.03648646               -0.02753219               -0.04520271                0.15901904                0.05086442                0.13425730                0.04853188
               2.95756263                7.92788405               85.11670326                0.01513206                0.06500436               -0.30378341                0.15891710                0.47516196                0.25465972                0.01474592
               3.95901134                7.92660965               85.12351942                0.01119474                0.11835761               -1.00839017                0.10983212                1.55274846                0.53452737               -0.19441683
               4.95992978                7.93897454               85.12961199                0.01000000               -0.01036706               -0.74205212                0.31134213                2.48348629                0.54741441                0.21273692
               5.95880400                7.95390059               85.13719361                0.01000000               -0.17798427               -0.27420731                0.35093174                2.27119769                0.37086642                0.29163296
               6.95637010                7.96507618               85.14545186                0.01000001               -0.16728192               -0.03765145                0.27711114                1.80922862                0.26694684                0.29787088
               7.95545836                7.97100004               85.15240573                0.01258782                0.10935770                0.05678494                0.47360416                1.20225816                0.21898800                0.51141344
               8.95855725                7.96912299               85.15901687                0.01000001                0.14437842               -0.07742374                0.10865204                0.73068602               -0.16901998                0.29220909
               9.95834593                7.96635418               85.16359640                0.65354634               -0.02113210                0.36877933                0.10813886                0.75205531               -0.31630359               -0.21154727
              -0.03155057                8.95688557               85.10283496                0.99999999               -0.02849982               -0.03122347                0.07840719               -0.00158167                0.00403884               -0.04790720
               0.96816444                8.94680376               85.10761754                0.99999998               -0.03478834               -0.03235216                0.11644181                0.00016126                0.01094449               -0.00249200
               1.96775367                8.93674723               85.11249120                0.96434463               -0.04646508               -0.04672896                0.15715764                0.00378141                0.03307624                0.02813976
               2.96723513                8.92672303               85.11766323                0.22743338               -0.04153968               -0.08915703                0.20962430               -0.01105204                0.18722274               -0.03057609
               3.96692287                8.91672807               85.12558554                0.01480648                0.08600204               -0.53711257                0.23496676                1.14400905                0.32551960                0.03567475
               4.96895518                8.93157286               85.13394452                0.01000001               -0.11822975               -0.39969853                0.24179012                1.94216119                0.33479639                0.09906603
               5.96455828                8.95165683               85.14262323                0.01000000               -0.31375261               -0.17171482                0.37756743                1.63010622                0.62614278                0.28518494
               6.96268012                8.96501659               85.15196146                0.01218778               -0.12791766               -0.12329768                0.55763640                1.17086628                0.63380594                0.38926211
               7.96199993                8.97232753               85.16066200                0.06422423               -0.06032985                0.03974614                0.15584839                0.69537417                0.21121059                0.20565012
               8.96147353                8.96953110               85.16567186                0.99999999               -0.05379756               -0.00696510                0.17107106                0.01038786                0.00869271                0.12192962
               9.96092397                8.96667403               85.17041077                1.00000000               -0.05495516               -0.01580461                0.19760787               -0.01392142               -0.00503597                0.12002697
              -0.02147219                9.95663079               85.10516404                1.00000000               -0.02729611               -0.02547818                0.07354613               -0.00850403               -0.02967658               -0.03546400
               0.97825484                9.94646738               85.10994122                0.99191976               -0.03300956               -0.03363826                0.11085234               -0.00780750               -0.03050596               -0.00285981
               1.97786761                9.93629382               85.11465001                0.99933696               -0.04470494               -0.04534023                0.14711180               -0.00692878               -0.02647334                0.01355976
               2.97736075                9.92610091               85.11945561                0.93759040               -0.04129583               -0.06221192                0.18874496               -0.00876029                0.11299101                0.00867806
               3.97704170                9.91586740               85.12693405                0.04912036               -0.67582488               -0.08606732                0.19562754                1.25586507                0.20564361               -0.00307794
               4.96384425                9.93098057               85.13397417                0.05331020               -0.95396534               -0.05922892                0.17146126                1.21885217                0.44440122               -0.08126808
               5.95796239                9.95046630               85.14568052                0.01000000               -0.23637627               -0.11905327                0.30824198                0.92189418                0.77320698                0.12343668
               6.95911672                9.96261023               85.15573142                0.11450533                0.34444712               -0.24063624                0.54772633                0.71009333                0.76535172                0.36169944
               7.96485133                9.97179497               85.16491391                0.55736821                0.26508910               -0.05325642                0.18511018                0.60381385                0.23957043               -0.00066690
               8.96441850                9.96898369               85.16999249                1.00000000               -0.05348482               -0.05474111                0.19756521                0.00665408                0.02188621                0.00519260
               9.96378164                9.96603809               85.17473162                0.99837820               -0.06368677               -0.06359421                0.22411344               -0.00879367                0.00499774               -0.00466688
              -0.11836752               -0.04422939               86.08277489                0.98909455               -0.00875171               -0.00900915                0.07841917                0.00353942                0.00445949               -0.00004938
               0.88154497               -0.04797311               86.08568163                0.80408189                0.01389125               -0.03760723                0.07985575                0.02224666                0.01110664                0.00053586
               1.88191031               -0.05075876               86.08868555                0.56553889                0.06204638               -0.01754919                0.08223804                0.05940989                0.02254461                0.00009412
               2.88278589               -0.05116116               86.09173814                0.43394289                0.08604312               -0.01471133                0.08674942                0.08156172                0.00887244               -0.00002781
               3.88363117               -0.04813972               86.09457018                0.36484639                0.01188150                0.00046480                0.09598910                0.07777441               -0.03530975                0.00230514
               4.88302352               -0.04218325               86.09695181                0.50497244               -0.09337107               -0.00943108                0.10347140                0.06591227               -0.08650216                0.01374868
               5.88176375               -0.03729475               86.09914253                0.90629843               -0.09025381               -0.02954438                0.09829262                0.06228519               -0.07650965                0.01223962
               6.88121845               -0.03382472               86.10158176                0.99025932               -0.05070990               -0.03056694                0.09310684                0.00757048               -0.06750995                0.00225717
               7.88074955               -0.03074517               86.10389749                0.99999999               -0.04043940               -0.02639710                0.08084641                0.00369340               -0.07515410                0.01617433
               8.88040966               -0.02789148               86.10619872                0.99999999               -0.02814212               -0.02538608                0.06862441               -0.00137345               -0.06226327                0.00339520
               9.88018671               -0.02500043               86.10876912                1.00000000               -0.02229508               -0.02357755                0.06207541               -0.00883841               -0.04721687               -0.03900499
              -0.11458840                0.95568052               86.08537989                0.80121945               -0.03794835                0.01357729                0.08098689                0.02274016               -0.00199616                0.00556699
               0.88503212                0.95165082               86.08825679                0.09155820               -0.06565835               -0.06551640                0.08230707                0.09035922               -0.00178773                0.00385915
               1.88409843                0.94906575               86.09115207                0.01000000               -0.13700606               -0.04018098                0.08504266                0.22108759               -0.00173271                0.01940520
               2.88229200                0.94869172               86.09410927                0.01116950               -0.20892377                0.01952763                0.09010842                0.40355871                0.00219916                0.07845197
               3.87991996                0.95186492               86.09699457                0.01000000               -0.20159183               -0.00788710                0.10077909                0.57545998                0.00035129                0.11047854
               4.87826016                0.95772244               86.09979935                0.01000000               -0.08563102               -0.10998791                0.11738068                0.56639413                0.00681219                0.11580100
               5.87820734                0.96240981               86.10250884                0.01023690               -0.01203967               -0.09604370                0.11954794                0.33329805                0.00519237                0.10585123
               6.87801937                0.96586961               86.10525228                0.35450169               -0.01937358               -0.02851894                0.11838411                0.04480221                0.01397164                0.04164723
               7.87781987                0.96899086               86.10811102                1.00000000               -0.02479057               -0.03293407                0.11605397                0.01749110                0.01073066                0.03104118
               8.87752355                0.97185466               86.11072359                0.99999999               -0.03062944               -0.03206627                0.10883336                0.00062066               -0.00155998                0.01174667
               9.87720728                0.97476379               86.11331296                0.98818954               -0.03162770               -0.02942877                0.10221689               -0.00809859               -0.00205945               -0.04279479
              -0.10985331                1.95604216               86.08806058                0.55938646               -0.01797746                0.06212204                0.08454749                0.06150826               -0.00095694                0.01793618
               0.88996692                1.95071656               86.09091349                0.01000001               -0.04277703               -0.13782523                0.08565528                0.22529554                0.01107021                0.00838107
               1.88929115                1.94843762               86.09399030                0.01034787               -0.09545108               -0.09274747                0.07524196                0.60368235                0.06582702                0.08243796
               2.88805790                1.94922939               86.09804113                0.01000000               -0.15907496               -0.02955783                0.11658157                0.86982418                0.10319027                0.15683393
               3.88610965                1.95170253               86.10155366                0.01085056               -0.21256870               -0.04002091                0.13712400                1.02936322                0.08075144                0.21461166
               4.88380652                1.95561699               86.10471435                0.01000001               -0.29135561               -0.13244945                0.14170395                1.07383687                0.08600548                0.21146323
               5.88028254                1.96078438               86.10772039                0.01219838               -0.41365390               -0.07280987                0.15205397                0.81299327                0.00065860                0.20791958
               6.87553345                1.96560490               86.10967587                0.01663260               -0.25841077                0.01259456                0.15682239                0.45591089                0.02438675                0.13113580
               7.87511433                1.96859614               86.11257965                0.01026365               -0.04421550               -0.21930243                0.15411836                0.31203822                0.06601724                0.13197389
               8.87464914                1.97146720               86.11535621                0.97080450               -0.04539275               -0.04493584                0.15333459                0.00476807                0.03930338                0.04023162
               9.87420647                1.97441099               86.11771813                0.99023426               -0.04426643               -0.04198839                0.14137183               -0.00749338                0.01834557               -0.04040013
              -0.10270704                2.95692296               86.09082765                0.42431073               -0.01503977                0.08605294                0.08928037                0.08742944               -0.00111489                0.00797092
               0.89714256                2.94889431               86.09365772                0.01117200                0.01831465               -0.21132578                0.09055595                0.41440668                0.06735079                0.01650273
               1.89765925                2.94721080               86.09784607                0.01000000               -0.03594948               -0.15426476                0.11598112                0.87820205                0.13081971                0.12480581
               2.89642357                2.94810057               86.10190136                0.01032072               -0.17698162               -0.16404611                0.15165526                1.13234707                0.12880864                0.16224332
               3.89411962                2.95106451               86.10592702                0.01000001               -0.28842588               -0.10728811                0.15866229                1.30288946                0.12835991                0.21957608
               4.89065505                2.95507345               86.10965479                0.01000000               -0.48201616               -0.04342354                0.17732550                1.39501902                0.11193185                0.24248934
               5.88447930                2.96095361               86.11274374                0.01000000               -0.56646181               -0.00184975                0.19093231                1.41739645                0.03051352                0.31170753
               6.87932582                2.96612150               86.11507886                0.01458144               -0.31404787               -0.03974236                0.11782650                0.93139274                0.06752921                0.17483278
               7.87819834                2.96460481               86.11880790                0.01000000               -0.37608748               -0.09478190                0.26343903                0.51787262               -0.08036559                0.33148543
               8.87180407                2.97095594               86.12037625                0.22186456               -0.35142620                0.00058680                0.21646721                0.19114207                0.00331432                0.28778928
               9.87116981                2.97392403               86.12223138                0.97878920               -0.06342532               -0.00418113                0.18944854               -0.01675030                0.00952638                0.17455470
              -0.09204742                3.95776322               86.09341015                0.35635172                0.00146311                0.00101670                0.09767146                0.08173718                0.00150085               -0.03493881
               0.90796721                3.94649004               86.09638365                0.01000000               -0.01518206               -0.19480648                0.10031624                0.59104855                0.09327583                0.02009571
               1.90764894                3.94535233               86.10116811                0.01084899               -0.05580370               -0.19945456                0.13517350                1.03984478                0.17861636                0.10624704
               2.90685114                3.94594847               86.10576170                0.01000001               -0.12271901               -0.27326158                0.15790228                1.30213579                0.17824847                0.16628432
               3.90519456                3.94955677               86.11034264                0.01005164               -0.25166686               -0.23980134                0.19268959                1.62615340                0.17916901                0.22748016
               4.90181780                3.95474852               86.11470517                0.01000000               -0.38060686               -0.02990344                0.18988476                1.90131018                0.23038359                0.25019648
               5.89758242                3.96074738               86.11937465                0.01329465               -0.56538474               -0.16155405                0.24796976                1.99669280                0.23447487                0.35142134
               6.89051010                3.96481006               86.12188600                0.01000000               -0.84725410               -0.05669622                0.26226903                1.78138181                0.23540537                0.24226464
               7.88063734                3.96670051               86.12430731                0.01000001               -1.06786731                0.06176614                0.16115449                1.66425673                0.50242078                0.22424522
               8.86915276                3.97147893               86.12992044                0.01000002               -0.63510191                0.04444874                0.29944672                1.53240093                0.19694672                0.37005510
               9.86793530                3.97432737               86.13092802                0.06294598               -0.12174575               -0.83930774                0.23746372                1.46508550               -0.00846710                0.29363735
              -0.07852596                4.95694329               86.09553880                0.50729365               -0.00996250               -0.10793827                0.10346160                0.08031969                0.01399468               -0.08506342
               0.92137442                4.94499818               86.09906663                0.01000000               -0.12381596               -0.07073157                0.11447449                0.57337298                0.09125518                0.02096461
               1.91899772                4.94322171               86.10416884                0.01000001               -0.15562866               -0.27046261                0.13777495                1.06452501                0.16582049                0.11667337
               2.91826184                4.94263534               86.10934219                0.01000000               -0.05775461               -0.46978783                0.17684588                1.38501146                0.19848787                0.16148094
               3.91784263                4.94626848               86.11458570                0.01000000               -0.03855993               -0.37818044                0.18993718                1.89840389                0.19852534                0.28571508
               4.91749065                4.95447538               86.11979556                0.01485721               -0.17455057               -0.18042197                0.16654442                1.89898518                0.17908978                0.22955744
               5.91435162                4.95772253               86.12454954                0.01000001               -0.42451584               -0.16438671                0.22407455                2.04134055                0.16126109                0.30996091
               6.90900033                4.96498758               86.12961254                0.01515726               -0.47685116               -0.14046105                0.26897426                2.19271505                0.33279932                0.18697046
               7.90481460                4.96584013               86.13380578                0.01000002               -0.70875537               -0.04819374                0.31862737                2.33585788                0.47826981                0.15980691
               8.89482522                4.97184492               86.13612974                0.01348755               -0.50199759               -0.16728897                0.30663976                2.03284715                0.47725831                0.09236917
               9.89477464                4.95713787               86.13750732                0.06157489               -0.00505769               -1.08489934                0.34020315                1.05090370                0.43605575                0.09621176
              -0.06655080                5.95560445               86.09744574                0.89864316               -0.02929444               -0.09574466                0.09862059                0.06680672                0.01108829               -0.07495383
               0.93315625                5.94507541               86.10150888                0.01017336               -0.10734567               -0.00359308                0.11652050                0.32622035                0.08861516                0.00557342
               1.93130228                5.93994308               86.10709728                0.01221217               -0.08258273               -0.37927709                0.14936122                0.79002102                0.18252283                0.03885867
               2.93150460                5.93655271               86.11249299                0.01000000                0.00101519               -0.59367439                0.18623155                1.37926412                0.26367158                0.10330341
               3.93132259                5.94199316               86.11917451                0.01331192               -0.15805732               -0.57636656                0.25377802                2.01093511                0.29887812                0.29339109
               4.92834345                5.95114008               86.12443169                0.01000001               -0.17127754               -0.47361438                0.24060132                2.09406620                0.25870118                0.19915183
               5.92789704                5.95745965               86.12999275                0.01685144               -0.10483234               -0.11142986                0.17962561                1.88825439                0.24335735                0.29236924
               6.92624680                5.96200083               86.13614633                0.01000002               -0.36999400               -0.25336586                0.26856732                1.83791785                0.18006968                0.09433858
               7.92049716                5.96573663               86.14034450                0.01000003               -0.38674229                0.04611692                0.28685466                1.90074253                0.16915235                0.14977134
               8.91851196                5.96813315               86.14539524                0.01406354               -0.10648442               -0.28890875                0.27702242                1.41227790                0.18598552                0.24261073
               9.91836747                5.95262938               86.14803772                0.01000000               -0.01444906               -0.17516853                0.20106113                0.51042650                0.05319343                0.50813293
              -0.05613175                6.95502840               86.09956728                0.98783436               -0.03080523               -0.05369527                0.09463712                0.00863207                0.00182331               -0.06671175
               0.94356020                6.94492632               86.10392581                0.33962179               -0.02737019               -0.01600432                0.11744674                0.05055755                0.03900799                0.01036132
               1.94332085                6.93563617               86.10899289                0.01662333                0.01184220               -0.23550533                0.15290990                0.38524267                0.12934490                0.02877399
               2.94379704                6.93076185               86.11510088                0.01458514                0.00765574               -0.50709752                0.14536142                1.02421272                0.16514230                0.14888111
               3.94347396                6.93474115               86.12171767                0.01000000                0.00542214               -0.78665012                0.23733481                1.92523971                0.13478376                0.32689947
               4.94390548                6.94500310               86.12911162                0.01511789               -0.11090015               -0.68746873                0.30002794                2.44179200                0.15401819                0.33898467
               5.94125596                6.95549393               86.13608058                0.01000002               -0.32118908               -0.29644093                0.28363081                1.98776364                0.11478013                0.22252298
               6.93748170                6.95992026               86.14151374                0.01000003               -0.22794140               -0.00528540                0.24821147                1.82289381                0.08546201                0.22452504
               7.93669713                6.96676247               86.14729705                0.01000000               -0.06518376                0.10468961                0.24064279                1.79360779                0.11898577                0.38089148
               8.93617803                6.96606674               86.15374986                0.02487323               -0.03532096               -0.14307121                0.17025897                0.84282848               -0.00675016                0.15954037
               9.93599071                6.95363450               86.15856298                0.12657159               -0.01873170                0.06071658                0.10581313                0.21857650                0.01420534                0.24485295
              -0.04617400                7.95453054               86.10157707                0.99999999               -0.02663644               -0.04293210                0.08368049                0.00461234                0.01469462               -0.07301319
               0.95355963                7.94475533               86.10644933                1.00000000               -0.03271954               -0.02308243                0.11599586                0.01959189                0.02792335                0.00767381
               1.95317161                7.93523297               86.11155064                0.04447194               -0.03378803               -0.04283513                0.15025069                0.06042222                0.12463964                0.05998925
               2.95288387                7.92641076               86.11833812                0.01000000                0.12072624               -0.28081622                0.18267920                0.48109618                0.21258184                0.09093173
               3.95558613                7.92626016               86.12489576                0.01731005                0.17713161               -0.95401426                0.19336986                1.48309557                0.27944103                0.36391942
               4.95642651                7.93739071               86.13349569                0.01000002               -0.14254944               -0.64547341                0.33548768                2.20034005                0.34064742                0.21171474
               5.95273514                7.95153083               86.14040624                0.01000003               -0.24951807               -0.23326054                0.31103583                2.27182571                0.27491806                0.41070921
               6.95143615                7.96189513               86.14820593                0.01000000               -0.12561567                0.24007150                0.24748548                1.91500223                0.35314157                0.51968553
               7.95022283                7.96783042               86.15640115                0.01808101               -0.14698247                0.05947501                0.35597421                1.18990544                0.18622385                0.37303457
               8.94849650                7.96527173               86.16127649                0.01000001               -0.13096737               -0.04668970                0.21916905                0.31937970               -0.19891145                0.19035730
               9.94760348                7.95384372               86.16581456                0.66538619               -0.08930121                0.42710303                0.10510438               -0.14221338               -0.28981152               -0.26989585
              -0.03648907                8.95416976               86.10358548                0.99999999               -0.02613219               -0.02988759                0.07215200               -0.00081906                0.00192516               -0.05976391
               0.96324961                8.94446467               86.10874558                0.99999998               -0.03185374               -0.03071385                0.11018215                0.00104718                0.01085613               -0.00288450
               1.96287386                8.93477947               86.11403873                0.98405360               -0.04289170               -0.04458097                0.15146033                0.00616377                0.04507663                0.03828104
               2.96239177                8.92514552               86.11980601                0.31129118               -0.03589664               -0.09480934                0.21669230                0.00641355                0.21011943                0.00954076
               3.96215592                8.91566086               86.12829997                0.01000002                0.01249201               -0.58250722                0.27220107                1.16042886                0.28790956                0.12543732
               4.96264161                8.93209363               86.13534959                0.01347076                0.00160658               -0.26082320                0.18818889                1.77227149                0.13140022                0.38316827
               5.96218805                8.95082872               86.14657475                0.01366507               -0.15797314               -0.04908866                0.25159041                1.65965954                0.49837435                0.38241854
               6.95948215                8.96472169               86.15725553                0.02147825               -0.25347092                0.09171471                0.32890810                1.10852742                0.31447358                0.54307011
               7.95711864                8.96795197               86.16225133                0.06163579               -0.14649115               -0.02419704                0.17028480                0.50727654                0.01636461                0.06188686
               8.95655233                8.96513295               86.16738662                0.99999999               -0.05580850               -0.03440169                0.17137367                0.26621928                0.00154922                0.08156881
               9.95600247                8.96217656               86.17239115                0.99896730               -0.05498630                0.38475503                0.19794192                0.27217366               -0.00495060                0.09494601
              -0.02678021                9.95393279               86.10585694                1.00000000               -0.02489221               -0.02369661                0.06653695               -0.00828808               -0.03944204               -0.04545961
               0.97297087                9.94414105               86.11102551                0.98857398               -0.03028806               -0.03236217                0.10567619               -0.00744591               -0.04129237               -0.00260343
               1.97261403                9.93434135               86.11611392                0.99999996               -0.04200602               -0.04381158                0.14135567               -0.00730622               -0.03413249                0.01922297
               2.97213075                9.92451457               86.12135727                0.99999999               -0.03837127               -0.06309498                0.18876889               -0.01266923                0.10392872                0.00872955
               3.97184661                9.91461002               86.12915525                0.06698996               -0.77133364               -0.10508464                0.22147340                1.35205186                0.23264422               -0.00050368
               4.95670408                9.93217425               86.13695188                0.06645036               -0.92731669                0.00806169                0.26238937                1.20319827                0.12834415                0.47072574
               5.95330027                9.95054906               86.14851940                0.01000000               -0.01103151               -0.02796647                0.15765016                0.68898052                0.60405321                0.10470632
               6.95648345                9.96372942               86.16117564                0.12047240                0.33284161               -0.09922711                0.36333223                0.54000084                0.65965911                0.42162725
               7.95995710                9.96734648               86.16682016                0.55447858                0.15564205               -0.06054844                0.19172712                0.32656051                0.02881113               -0.00528609
               8.95959629                9.96458369               86.17196655                0.99897860               -0.04986858               -0.05492548                0.19753197                0.01401256                0.01209478                0.00498838
               9.95895973                9.96153882               86.17697108                0.99652603               -0.06365552               -0.06377444                0.22408918               -0.00876108                0.00496114               -0.00496814
              -0.12123514               -0.04684444               87.08355156                0.97959224               -0.00692764               -0.00715245                0.07682595                0.00362398                0.00481277                0.00059307
               0.87869558               -0.05055391               87.08647342                0.80638465                0.01686885               -0.03836812                0.07845174                0.02319458                0.01188102                0.00082751
               1.87910224               -0.05323700               87.08950113                0.58635926                0.06158518               -0.01694693                0.08078852                0.05529351                0.02486971                0.00019603
               2.87992729               -0.05354574               87.09260152                0.44825001                0.07796988               -0.01425905                0.08579787                0.08031161                0.01504477                0.00031871
               3.88066163               -0.05055224               87.09552837                0.38463354               -0.00377015                0.00180318                0.09526818                0.07138849               -0.02922809                0.00454271
               4.87985188               -0.04494511               87.09797444                0.55473863               -0.09928531               -0.01127339                0.10092627                0.06998585               -0.08883065                0.01680064
               5.87867593               -0.04063893               87.10009742                0.96030266               -0.08456795               -0.02780062                0.09280195                0.05512554               -0.08193609                0.01373002
               6.87816053               -0.03760512               87.10248395                0.99558957               -0.04965119               -0.02825135                0.08692904                0.00623818               -0.07717483                0.00203059
               7.87768290               -0.03496639               87.10467437                0.99821584               -0.04104743               -0.02435798                0.07540075                0.00453264               -0.08992814                0.01797264
               8.87733958               -0.03259489               87.10684764                0.99999999               -0.02769528               -0.02269652                0.06255819               -0.00135933               -0.07515277                0.00031053
               9.87712900               -0.03019096               87.10934952                1.00000000               -0.02105776               -0.02111093                0.05537048               -0.00989680               -0.05788605               -0.05213232
              -0.11748944                0.95308403               87.08618178                0.80384805               -0.03867550                0.01661413                0.07937536                0.02362845               -0.00145227                0.00663258
               0.88212381                0.94906241               87.08907350                0.13799225               -0.06797381               -0.06782678                0.08115091                0.09608609               -0.00042237                0.00472769
               1.88115109                0.94659353               87.09199879                0.01000000               -0.13678920               -0.04245266                0.08459855                0.22694944                0.00204535                0.01452846
               2.87938803                0.94631167               87.09501082                0.01000001               -0.20379417                0.01062017                0.09055847                0.42148303                0.00984733                0.08732055
               3.87707520                0.94946579               87.09800989                0.01000000               -0.18964705               -0.00362868                0.10269810                0.59001928                0.01416022                0.12369509
               4.87559508                0.95494216               87.10097374                0.01000000               -0.07590082               -0.11440184                0.11780996                0.57825275                0.02067853                0.11835581
               5.87555719                0.95908307               87.10368019                0.01000000               -0.01042243               -0.09708791                0.11377997                0.31871404                0.00985064                0.11515927
               6.87538664                0.96211237               87.10641232                0.36482469               -0.01670356               -0.02575322                0.11254094                0.04779205                0.01823952                0.04905224
               7.87522312                0.96479003               87.10925164                1.00000000               -0.02241820               -0.03200284                0.11165304                0.01870741                0.01157447                0.03332118
               8.87493827                0.96717815               87.11178148                0.99999999               -0.02985060               -0.02782426                0.10405820                0.00071505               -0.00331968                0.01177655
               9.87462611                0.96959793               87.11430043                0.99999999               -0.03121666               -0.02609970                0.09692905               -0.00871037               -0.00273871               -0.05652303
              -0.11271933                1.95348784               87.08889674                0.58067934               -0.01728612                0.06167291                0.08268223                0.05709490               -0.00069697                0.02008126
               0.88710781                1.94808956               87.09176520                0.01000000               -0.04443520               -0.13744699                0.08497261                0.23032190                0.00685254                0.01111852
               1.88639197                1.94591395               87.09477732                0.01090841               -0.08115596               -0.07853571                0.08128079                0.60274147                0.07872156                0.09350722
               2.88548469                1.94666667               87.09915020                0.01000001               -0.12802165               -0.02036571                0.10231471                0.88987735                0.15863070                0.15356358
               3.88383153                1.94937518               87.10285394                0.01172288               -0.18425151               -0.03523402                0.12013976                1.03827855                0.12358327                0.25166074
               4.88179966                1.95276686               87.10604811                0.01000001               -0.29757682               -0.11948755                0.13062127                1.05297707                0.13436900                0.19779425
               5.87788000                1.95741931               87.10927159                0.01364786               -0.41951316               -0.04828148                0.15773338                0.82179315               -0.02939248                0.27456727
               6.87340940                1.96187982               87.11124559                0.01000001               -0.24443604               -0.10576061                0.15911832                0.44015043                0.03668635                0.10231264
               7.87299128                1.96439356               87.11409928                0.05632881               -0.04317067                0.01643135                0.15112950                0.05923089                0.07866849                0.20771742
               8.87254598                1.96684863               87.11690650                1.00000000               -0.04380242               -0.03957967                0.14932162                0.01184555                0.05038429                0.06003841
               9.87211523                1.96928704               87.11914189                0.99999999               -0.04307558               -0.03929258                0.13490590               -0.00939035                0.02368155               -0.04836085
              -0.10555097                2.95431749               87.09171372                0.43952949               -0.01448845                0.07772019                0.08794508                0.08522861               -0.00067518                0.01293406
               0.89430414                2.94631347               87.09456261                0.01000001                0.00898915               -0.20557648                0.09074034                0.43082875                0.07642958                0.02251539
               1.89462881                2.94502282               87.09894179                0.01000001               -0.02899031               -0.12122632                0.10066483                0.89756390                0.12876405                0.17774973
               2.89372434                2.94590436               87.10337012                0.01139602               -0.14441121               -0.12829074                0.12183467                1.11029971                0.14901202                0.17874155
               3.89174059                2.94876111               87.10736405                0.01000001               -0.25569216               -0.09392092                0.13374013                1.26543951                0.16308259                0.20817125
               4.88861049                2.95255241               87.11139794                0.01162346               -0.44302495               -0.04933503                0.16639260                1.38637909                0.16561715                0.25502316
               5.88288009                2.95811744               87.11479806                0.01127677               -0.56975466                0.03245190                0.18816137                1.33554992                0.16103465                0.27476461
               6.87721540                2.95999716               87.11618094                0.01000000               -0.57205796               -0.19380531                0.19601243                1.31227034                0.45058176               -0.00312540
               7.87143893                2.96511866               87.12216066                0.01304215               -0.34668518               -0.09964381                0.15622737                0.84276418               -0.09467833                0.35851400
               8.87028170                2.96638655               87.12272572                0.37012647               -0.09387318               -0.01544016                0.23365691               -0.03414915               -0.03148895                0.27851735
               9.86956146                2.96881208               87.12424296                0.87814503               -0.07202324               -0.02673490                0.19586512               -0.00360546                0.01362823                0.12411960
              -0.09500672                3.95504225               87.09438366                0.37836865                0.00257805               -0.01332968                0.09681754                0.07340537                0.00385205               -0.03103692
               0.90501906                3.94397803               87.09739407                0.01000000               -0.01204604               -0.18261890                0.10203508                0.60349418                0.10723696                0.03109774
               1.90475236                3.94348942               87.10245617                0.01170228               -0.05333338               -0.16951988                0.11869946                1.04895773                0.21858933                0.14638228
               2.90395239                3.94410085               87.10718812                0.01000001               -0.11300429               -0.23801247                0.13257701                1.26917655                0.17226845                0.19689441
               3.90249228                3.94749676               87.11224829                0.01235907               -0.18907407               -0.17027664                0.17062889                1.50505340                0.16956678                0.21464776
               4.90017091                3.95178016               87.11639431                0.01221903               -0.26730148               -0.13459434                0.18265439                1.71161597                0.25623978                0.18101383
               5.89714625                3.95806835               87.12131998                0.01729696               -0.37586670               -0.05246589                0.15257451                1.60440605                0.28857508                0.16060398
               6.89265358                3.95800371               87.12457602                0.01200145               -0.68445400               -0.14535185                0.21487680                1.71093060                0.31557649                0.12097113
               7.88345717                3.96240068               87.12652164                0.01000000               -1.22419963               -0.17324962                0.33701059                2.05619248                0.39992858                0.30631833
               8.86816959                3.96653982               87.13199021                0.01000000               -0.81325464               -0.20238849                0.19489348                1.79326311                0.22128672                0.36161499
               9.86719207                3.96875234               87.13249716                0.03646789               -0.09775138               -0.99935398                0.14978446                1.70967352                0.01655508                0.27283871
              -0.08195443                4.95405090               87.09656278                0.55851999               -0.01187147               -0.11086193                0.10137943                0.08194628                0.01658365               -0.08833943
               0.91792685                4.94266110               87.10020943                0.01000000               -0.12802120               -0.06291392                0.11427978                0.58488239                0.09448049                0.03166434
               1.91548514                4.94163242               87.10545792                0.01000001               -0.14131641               -0.27331189                0.12625357                1.05445144                0.15778193                0.16082644
               2.91510052                4.94114411               87.11108764                0.01161020               -0.06613962               -0.42887932                0.16442016                1.38349519                0.21457788                0.20938283
               3.91416235                4.94535557               87.11625289                0.01221875               -0.14146497               -0.25861824                0.18140474                1.71585361                0.12817144                0.31840854
               4.91227123                4.94986052               87.12123270                0.01000000               -0.27088504               -0.27055521                0.16740167                1.93127295                0.00048342                0.06982886
               5.90874465                4.95706812               87.12686051                0.01554033               -0.25847709               -0.20176894                0.18220051                1.70333402               -0.03264308                0.23451064
               6.90710168                4.95709012               87.13163925                0.01000000               -0.23589909               -0.06543476                0.15615059                1.64557592                0.11949470               -0.01592358
               7.90402667                4.96165367               87.13618710                0.01385583               -0.36531939                0.00412289                0.20019385                1.99237515                0.08308388                0.52423390
               8.89979530                4.96233878               87.13980688                0.01405146               -0.23483886               -0.37475174                0.31837860                1.80968350                0.37712154               -0.00765632
               9.89932989                4.94882500               87.14118308                0.01000000               -0.04654043               -1.09290718                0.39035970                1.08135002                0.26886208                0.27726966
              -0.07058819                5.95282501               87.09840878                0.95401506               -0.02766235               -0.08842658                0.09410799                0.05759657                0.01247093               -0.08084509
               0.92913519                5.94271975               87.10264851                0.01000000               -0.10267188               -0.00384356                0.11046663                0.31968255                0.09840788                0.00975484
               1.92735838                5.93802318               87.10858887                0.01363856               -0.06180240               -0.39295068                0.15080303                0.81181043                0.24272498                0.00736616
               2.92789914                5.93552327               87.11441493                0.01126761                0.03672794               -0.56064576                0.17872784                1.34459471                0.23485289                0.24719887
               3.92809294                5.94232440               87.12119851                0.01730786               -0.04076576               -0.38214818                0.14733536                1.61633828                0.11878441                0.34226522
               4.92708383                5.94636905               87.12698173                0.01556417               -0.20548050               -0.28654656                0.19632766                1.73656014                0.18145968                0.05151595
               5.92398333                5.95403297               87.13170741                0.01000000               -0.30521405               -0.29450853                0.19783951                1.83553828                0.09559461                0.17484164
               6.92097955                5.95669502               87.13810663                0.01240535               -0.29636595                0.05552002                0.12972345                1.77181232                0.00459290                0.15659404
               7.91805601                5.96248314               87.14286504                0.01787159               -0.18938088                0.05496706                0.17442813                1.52341345                0.14506447                0.33500627
               8.91719193                5.95904479               87.14744233                0.01000001               -0.11046802               -0.19748218                0.16482251                0.77143941                0.10291809               -0.06913270
               9.91584665                5.94689420               87.14967257                0.01704552               -0.13452828               -0.12031660                0.25233449                0.36860319               -0.07574096                0.44466376
              -0.06059199                6.95228237               87.10049096                0.99379161               -0.02856820               -0.05241063                0.08963224                0.00685465                0.00169091               -0.07645887
               0.93912233                6.94258422               87.10507124                0.35172878               -0.02450862               -0.01358106                0.11063553                0.05270106                0.04562880                0.01473892
               1.93891784                6.93377340               87.11049619                0.01000001               -0.07155632               -0.23204184                0.15101363                0.41519267                0.11430434                0.04310724
               2.93769120                6.92993119               87.11639070                0.01000000               -0.16372538               -0.52628517                0.15613874                1.22546035               -0.05170293                0.47850266
               3.93564333                6.93771261               87.12402238                0.01201762               -0.11986743               -0.75093297                0.20044155                1.77740237                0.03258471                0.44735826
               4.93529385                6.94412959               87.13180449                0.01000000               -0.02569411               -0.46990960                0.18370429                1.88068798               -0.07371312                0.24731549
               5.93512945                6.95117795               87.13828681                0.01239891               -0.06030450               -0.12061845                0.13511608                1.98398643               -0.00112747                0.19004172
               6.93408776                6.95820052               87.14379796                0.01538540               -0.14921408                0.15165399                0.19607273                1.90167704                0.21139612                0.40889176
               7.93214517                6.96275301               87.14963489                0.01000003               -0.16373712                0.05116581                0.16245725                1.41224478                0.05820838                0.33864246
               8.93081302                6.95838914               87.15426281                0.01000001               -0.05710191                0.01242982                0.14426554                0.58196679               -0.03970224                0.09002853
               9.93100313                6.94641866               87.15906897                0.13685321                0.01901075                0.01169487                0.24537249                0.18429796               -0.09556001                0.31450053
              -0.05105481                7.95177679               87.10239040                0.99703908               -0.02470183               -0.04359697                0.07964229                0.00511964                0.01599634               -0.08826492
               0.94869818                7.94244813               87.10758217                1.00000000               -0.03149661               -0.02071654                0.11093721                0.02057640                0.03090251                0.00889655
               1.94831526                7.93338235               87.11303843                0.06474648               -0.01145154               -0.04119163                0.14557097                0.06131845                0.13781123                0.07339874
               2.94846914                7.92499756               87.12035684                0.01306448                0.05636628               -0.30182500                0.11672252                0.67042373                0.20327847                0.12544823
               3.94944259                7.92730574               87.12738682                0.01000000                0.13815527               -1.13676398                0.23985519                1.67337247                0.14311778                0.43167799
               4.95123225                7.93697086               87.13632175                0.01386885                0.00747676               -0.41747774                0.19549295                2.11647060                0.20917034                0.34024754
               5.94959212                7.95162060               87.14341432                0.01766687               -0.18971124                0.00070503                0.20429790                2.01238059                0.29672553                0.33969282
               6.94743802                7.95972810               87.15040157                0.01000003               -0.17399191                0.23538820                0.12598149                1.55455494                0.27308026                0.37368330
               7.94611228                7.96350646               87.15952521                0.02495587               -0.11362073                0.01966206                0.18311220                0.98081270                0.25039339                0.28263694
               8.94516561                7.95929338               87.16340025                0.01000001               -0.13193645                0.10416372                0.25541498                0.20866609               -0.00317478                0.23553898
               9.94347356                7.94712810               87.16569849                0.68593348               -0.16920552                0.54988823                0.15931019               -0.22588983               -0.27551895                0.39611564
              -0.04183227                8.95141043               87.10427800                0.99999999               -0.02394266               -0.02990585                0.06820315               -0.00122200               -0.00027483               -0.07346507
               0.95792831                8.94216989               87.10982118                0.99999999               -0.02864785               -0.02963382                0.10520714                0.00064945                0.00910981               -0.00391812
               1.95759478                8.93294957               87.11552041                0.95637563               -0.03760115               -0.04272141                0.14549936                0.01313714                0.05925089                0.04709591
               2.95717628                8.92389469               87.12199707                0.48885846               -0.02286463               -0.09122936                0.22726250               -0.00217002                0.23713188                0.03353811
               3.95713748                8.91497733               87.13102956                0.01000000               -0.19339411               -0.65794846                0.21764441                1.42713635                0.25468242                0.14712539
               4.95330840                8.93578003               87.13770830                0.01424951               -0.22588308                0.01098206                0.24471785                1.60147260                0.06811413                0.40436847
               5.95261982                8.95119205               87.14765504                0.01000001               -0.00076948               -0.14747349                0.07239391                1.16779116                0.13844144                0.12909295
               6.95329301                8.96290829               87.15853962                0.04072366               -0.02118435                0.17372318                0.04148060                0.92626577                0.17397188                0.32708079
               7.95219613                8.96314625               87.16406770                0.06227863               -0.09641560               -0.04774335                0.17211811                0.30442437               -0.00635992               -0.00577969
               8.95136470                8.96047241               87.16909933                0.99999999               -0.06901154                0.03151030                0.17112439                0.18070229               -0.01697008                0.04779517
               9.95081590                8.95741643               87.17436961                0.99367616               -0.05487956                0.48253776                0.19772811                0.21431337               -0.00495274                0.18640852
              -0.03259818                9.95117868               87.10649477                1.00000000               -0.02298020               -0.02317507                0.06252023               -0.00891344               -0.05137844               -0.05676664
               0.96717202                9.94185545               87.11205475                0.99999999               -0.02743090               -0.03144402                0.09997062               -0.00816660               -0.05763006               -0.00275736
               1.96685320                9.93252792               87.11747713                0.99222046               -0.03870173               -0.04216550                0.13380650               -0.00828110               -0.04866197                0.02301771
               2.96639799                9.92317297               87.12323099                0.93137339               -0.03766157               -0.07217192                0.18981224                0.00311289                0.08587031                0.01482247
               3.96609997                9.91414677               87.13136352                0.07285442               -0.96755008               -0.08305607                0.17852103                1.59712526                0.18828177                0.02110285
               4.94704698                9.93719050               87.13922195                0.01000000               -1.01401390                0.14104654                0.25788663                1.10007652                0.16448526                0.38696158
               5.94581969                9.94867113               87.14883352                0.01536623                0.34810766               -0.25209143                0.14230844                0.62059041                0.59079535               -0.09002197
               6.95400914                9.96320256               87.16299807                0.13030517                0.44084741                0.02942759                0.05794748                0.76563530                0.56464233                0.20565394
               7.95463664                9.96255159               87.16874846                0.55728887                0.02501706               -0.05946635                0.18503050                0.08010231                0.01573094               -0.00400875
               8.95450948                9.95992359               87.17394313                0.99366359               -0.03824255               -0.05488235                0.19776209                0.02584122                0.00126444                0.00504873
               9.95387179                9.95677885               87.17921341                1.00000000               -0.06376864               -0.06375752                0.22437789               -0.00888480                0.00496516               -0.00495070
              -0.12411498               -0.04947797               88.08431141                0.96654718               -0.00519951               -0.00540379                0.07514915                0.00353693                0.00522910                0.00130871
               0.87583302               -0.05315671               88.08725067                0.80515795                0.01972932               -0.03897036                0.07700479                0.02375333                0.01234357                0.00143760
               1.87627960               -0.05575017               88.09030132                0.60767673                0.06132612               -0.01697011                0.07927828                0.05140710                0.02688452                0.00037396
               2.87705955               -0.05597339               88.09345410                0.46435199                0.06970447               -0.01371513                0.08467621                0.07874220                0.02149270                0.00041055
               3.87767369               -0.05301192               88.09647555                0.41137298               -0.01908389                0.00251723                0.09365212                0.06303184               -0.02405049                0.00687669
               4.87667787               -0.04784584               88.09897034                0.61894843               -0.10290878               -0.01382740                0.09704353                0.07386764               -0.09020626                0.01931053
               5.87561552               -0.04418570               88.10099857                0.97603845               -0.07899366               -0.02754776                0.09092527                0.04527494               -0.08789138                0.01394747
               6.87509799               -0.04164085               88.10332034                0.98536730               -0.05141128               -0.02701296                0.08287498                0.00374284               -0.08763495                0.00215517
               7.87458729               -0.03954026               88.10540551                0.99848879               -0.04332667               -0.02273637                0.07229264                0.00388617               -0.10469442                0.01905294
               8.87423146               -0.03775294               88.10744989                0.99999999               -0.02810242               -0.02157223                0.05957831               -0.00254093               -0.08852238               -0.00223441
               9.87402524               -0.03594491               88.10987653                0.99915201               -0.02062168               -0.02141360                0.05279903               -0.01026084               -0.06926813               -0.06400133
              -0.12040087                0.95046799               88.08696739                0.80300926               -0.03924696                0.01949055                0.07777444                0.02409968               -0.00058073                0.00740731
               0.87920666                0.94645359               88.08987981                0.19617073               -0.06985560               -0.06967390                0.08020892                0.10012498                0.00165249                0.00625279
               1.87820201                0.94408013               88.09284404                0.01000000               -0.13644082               -0.04425302                0.08465751                0.23184303                0.00752168                0.01115948
               2.87647784                0.94388946               88.09592044                0.01000000               -0.19808871               -0.00426268                0.09150422                0.45137340                0.01917862                0.08612883
               3.87424024                0.94701325               88.09904853                0.01113522               -0.17372034                0.01967548                0.10500022                0.60680629                0.02977530                0.12387031
               4.87300343                0.95201588               88.10215555                0.01000000               -0.06372344               -0.15027370                0.11736226                0.59619811                0.03101935                0.11636804
               5.87296577                0.95553882               88.10478444                0.01562846               -0.00953652               -0.03282232                0.11138788                0.24774174                0.01083460                0.12898400
               6.87281270                0.95808902               88.10750310                0.38219974               -0.01417876               -0.02383061                0.11005227                0.05175186                0.02365235                0.06189800
               7.87268220                0.96023237               88.11034409                0.99431214               -0.02021653               -0.03091300                0.10760739                0.01909082                0.01370672                0.03651069
               8.87240837                0.96203134               88.11280475                0.99999996               -0.02837976               -0.02616687                0.09972156               -0.00043348               -0.00481217                0.00791961
               9.87211460                0.96384096               88.11525154                1.00000000               -0.02937716               -0.02769228                0.09273318               -0.00983446               -0.00355965               -0.07587047
              -0.11560418                1.95091184               88.08971422                0.60243776               -0.01724343                0.06133639                0.08089780                0.05292426               -0.00040265                0.02208652
               0.88422339                1.94544981               88.09261294                0.01000000               -0.04576153               -0.13689190                0.08476523                0.23446734                0.00418782                0.01554464
               1.88348059                1.94336477               88.09561591                0.01164731               -0.05347504               -0.04965908                0.08559595                0.58582748                0.08112407                0.09363758
               2.88315389                1.94394136               88.10008742                0.01086049               -0.08985962               -0.01259931                0.08437473                0.92602664                0.17303038                0.14906566
               3.88168340                1.94738159               88.10395646                0.01300783               -0.15388137               -0.05898369                0.10396109                1.01602669                0.13279917                0.18486691
               4.88007626                1.94914868               88.10732677                0.01000000               -0.35930910               -0.10940805                0.13868001                1.06531088                0.10578281                0.21211528
               5.87449722                1.95515785               88.11087506                0.01604771               -0.43183901               -0.05691586                0.16509033                0.93425335                0.01137739                0.21615943
               6.87143948                1.95788253               88.11285823                0.01000000               -0.17352155               -0.26802254                0.16528588                0.64228865                0.04582897                0.16374455
               7.87102679                1.95984148               88.11560224                0.05371075               -0.04126366               -0.04398229                0.14573036                0.04594930                0.08512005                0.10759515
               8.87061421                1.96172372               88.11834264                0.97451299               -0.04087362               -0.02943814                0.14192034                0.01716927                0.05600605                0.07751712
               9.87020931                1.96350125               88.12041624                1.00000000               -0.04048926               -0.03949031                0.12843539               -0.00758237                0.02700133               -0.06493393
              -0.10841833                2.95169472               88.09258655                0.45649236               -0.01385917                0.06907845                0.08666613                0.08275121               -0.00051707                0.01862709
               0.89144308                2.94371575               88.09547253                0.01000000               -0.00773251               -0.19923164                0.09137632                0.46041365                0.07529705                0.03023604
               1.89142702                2.94308695               88.09985936                0.01086328               -0.02307633               -0.08004628                0.08309230                0.93339050                0.12631887                0.19033256
               2.89098155                2.94363748               88.10433805                0.01299207               -0.10367836               -0.08862572                0.08137295                1.00485636                0.12049739                0.14224931
               3.88935345                2.94583358               88.10860183                0.01000000               -0.22240815               -0.12103499                0.11888172                1.19432733                0.14060500                0.17147729
               4.88653339                2.94982772               88.11298264                0.01494844               -0.32182331               -0.03073213                0.15639004                1.31807850                0.15153105                0.21761858
               5.88291699                2.95440051               88.11650697                0.01591827               -0.27792680               -0.16304215                0.18326866                1.17879210                0.18236481                0.11329352
               6.88097485                2.95272857               88.11899911                0.01000000               -0.65784965               -0.30556798                0.28461675                1.25663615                0.24764739                0.15208291
               7.86975999                2.95935273               88.12193245                0.01000000               -0.59414326               -0.05205237               -0.00737280                0.94544694                0.11245372                0.22717101
               8.86909199                2.96144258               88.12504939                0.70618269               -0.06760455               -0.00468235                0.21649709                0.03435937                0.10717077                0.24653193
               9.86840790                2.96305115               88.12614868                0.89285967               -0.06840852               -0.03286113                0.17571562                0.01301762                0.01732506                0.05773877
              -0.09799121                3.95229341               88.09534650                0.40703747                0.00306473               -0.02716677                0.09531689                0.06371462                0.00628084               -0.02723362
               0.90203944                3.94146518               88.09842436                0.01116624                0.01089440               -0.16693599                0.10395766                0.61981201                0.10831106                0.04363202
               1.90222668                3.94176384               88.10354210                0.01302672               -0.07675277               -0.13907032                0.10221465                1.02758998                0.15733465                0.15016582
               2.90050438                3.94216884               88.10841324                0.01000000               -0.14234882               -0.20206480                0.11755162                1.19869672                0.14469774                0.16376184
               3.89937970                3.94496089               88.11375522                0.01580253               -0.13167384               -0.10735722                0.13769230                1.36363665                0.14311907                0.17535923
               4.89787090                3.94853404               88.11835825                0.01685897               -0.21037434               -0.22715881                0.19186245                1.36477111                0.12310613                0.13201422
               5.89517221                3.95189701               88.12242614                0.01000000               -0.31254622               -0.11875951                0.13098321                1.18061817                0.10744360                0.03328054
               6.89161998                3.95177117               88.12618353                0.01000000               -0.69752495               -0.07950350                0.16087759                1.39960991                0.20616534                0.18475244
               7.88122172                3.95880043               88.13104752                0.01000001               -1.20085049                0.03143356                0.32113655                1.92037765                0.26064343                0.37391620
               8.86760297                3.96163008               88.13381831                0.01000002               -0.69846014               -0.26014495                0.13101311                1.61616418                0.11961461                0.31665686
               9.86725251                3.96284403               88.13392371                0.19280821               -0.03504579               -0.87716507                0.10185144                1.57097405                0.02188620                0.31563523
              -0.08548758                4.95115139               88.09756639                0.62351823               -0.01435370               -0.11170212                0.09815610                0.08308228                0.01858608               -0.09009234
               0.91436889                4.94037703               88.10135223                0.01000000               -0.16186339               -0.05282405                0.11326449                0.60295167                0.09423344                0.03860487
               1.91127516                4.94030554               88.10669392                0.01000000               -0.13052244               -0.33558556                0.13494908                1.06914156                0.17906927                0.12487527
               2.91175844                4.93959618               88.11263060                0.01495243               -0.05070822               -0.29876117                0.15151945                1.32342664                0.18743054                0.18309210
               3.91026099                4.94368644               88.11821380                0.01685303               -0.24328736               -0.19459597                0.19061577                1.37200718                0.09924838                0.15728725
               4.90689269                4.94528454               88.12314359                0.01000000               -0.34843889               -0.34677112                0.20259282                1.59658586                0.02513110                0.08724731
               5.90329221                4.95202532               88.12819355                0.01000000               -0.24145297               -0.11834158                0.13252275                1.46828820                0.07433252                0.06100062
               6.90206363                4.95113850               88.13273555                0.01000001               -0.24917848                0.06014134                0.09200610                1.57585661                0.10573718                0.13941242
               7.89830864                4.95998140               88.13780966                0.01265325               -0.23459781                0.00942702                0.11988260                1.89711070                0.02390625                0.39449536
               8.89737168                4.95623968               88.14249731                0.01000001               -0.04545809               -0.46677576                0.27488666                1.58431374                0.04194816                0.29760664
               9.89739948                4.94550785               88.14531452                0.06134210                0.00278072               -0.96036311                0.47792379                1.18380002               -0.17259644                0.80371073
              -0.07478085                5.95005937               88.09932790                0.97213926               -0.02748302               -0.08168953                0.09296596                0.04638747                0.01280159               -0.08696354
               0.92494432                5.94040870               88.10371821                0.01520391               -0.04143931               -0.00447973                0.10771211                0.25457092                0.11283879                0.01005289
               1.92439036                5.93505213               88.11011334                0.01603637               -0.06761489               -0.41283959                0.15924332                0.93986169                0.19116447                0.03442663
               2.92359202                5.93619362               88.11606755                0.01591313               -0.16294403               -0.26030926                0.17195709                1.17475966                0.08522676                0.21207435
               3.92113148                5.94106897               88.12212122                0.01000000               -0.10641383               -0.30932177                0.11779238                1.19279351               -0.00781602                0.15274883
               4.92146374                5.94159862               88.12835824                0.01000000               -0.12237264               -0.23375779                0.12044887                1.48676543               -0.01495891                0.17398543
               5.91868403                5.94953018               88.13394954                0.01000001               -0.31413570               -0.22187316                0.15146870                1.86615540               -0.05124855                0.08510166
               6.91518103                5.95297400               88.13874080                0.01000000               -0.23106394                0.23323288                0.07682676                1.88783542               -0.09277819                0.19425937
               7.91406275                5.95898897               88.14383306                0.01000001               -0.07091173               -0.15531260                0.09102998                1.42041799               -0.09321230                0.34270325
               8.91376279                5.95229456               88.14869169                0.01000001               -0.08352922               -0.21651435                0.13838170                0.66130073               -0.13134964                0.39833391
               9.91239216                5.94363676               88.15308441                0.04799122               -0.13706298               -0.08046293                0.37515425                0.48760572               -0.09930902                0.69633969
              -0.06525849                6.94951760               88.10135992                0.98388224               -0.02739695               -0.05405819                0.08648416                0.00414607                0.00172974               -0.08678347
               0.93446754                6.94028744               88.10613852                0.36809622               -0.02270218               -0.01126936                0.10739956                0.05582448                0.05765243                0.02010639
               1.93428747                6.93204875               88.11201316                0.01000000               -0.26153756               -0.16877019                0.15548017                0.64326813                0.13293498                0.05072859
               2.92923679                6.93438999               88.11822366                0.01000000               -0.27878010               -0.64401325                0.23493296                1.22301467                0.08066259                0.26454490
               3.92871187                6.93750000               88.12572650                0.01000000               -0.05350000               -0.65912165                0.14991987                1.37857485                0.12666979                0.24350844
               4.92816679                6.94060939               88.13278570                0.01000001                0.02640349               -0.16533817                0.05992819                1.66032591                0.01428312                0.24230387
               5.92923994                6.94758785               88.13878290                0.01000000                0.10973783               -0.02868597                0.06443533                2.05497828                0.00406469                0.10813300
               6.93036155                6.95580315               88.14543519                0.01000001               -0.09217463                0.08265643                0.11886347                1.74465639                0.02917431                0.16295938
               7.92739644                6.95687515               88.15054620                0.01000001               -0.22058260                0.00306906                0.12450906                1.21377545                0.10675675                0.37167050
               8.92594990                6.95190939               88.15663517                0.01000000               -0.14646271                0.14257141                0.38392536                0.77601878                0.40699455                0.58086298
               9.92446719                6.94389859               88.16347043                0.15992850               -0.14827064                0.14143125                0.55074706                0.45414368                0.44799972                0.70890898
              -0.05623761                7.94897821               88.10316992                0.99774382               -0.02327338               -0.04607554                0.07755340                0.00438857                0.01733745               -0.10251318
               0.94352965                7.94018331               88.10866808                0.99128569               -0.03046111               -0.01868507                0.10684023                0.02101892                0.03350610                0.01088703
               1.94315317                7.93167673               88.11446206                0.05483950               -0.04642967               -0.03830283                0.13847891                0.03627799                0.07089887                0.08184121
               2.94260106                7.92331336               88.12067257                0.01000000               -0.03347914               -0.57239269                0.03001596                0.92991380                0.18795876                0.12961072
               3.94248358                7.92788654               88.12969287                0.01000001                0.09906740               -1.14366655                0.20664427                1.89024875                0.18269682                0.39136428
               4.94458241                7.93829185               88.13740555                0.01262793                0.10531226               -0.16642989                0.07741351                2.01407763                0.10032843                0.35866523
               5.94458983                7.94895646               88.14449220                0.01000001               -0.18977738                0.02017629                0.06585758                1.56104488                0.06603277               -0.03370692
               6.94078686                7.95462713               88.15072556                0.01000001               -0.11789036                0.14318294                0.07999489                1.31406362                0.15022365                0.18204462
               7.94223202                7.95905035               88.16006339                0.03687633                0.07364317                0.08689909                0.01132403                0.97770724                0.26846540                0.25406512
               8.94225972                7.95514599               88.16638479                0.01000000               -0.23676947                0.18182930                0.21115458                0.36880771               -0.03635689                0.30773715
               9.93749663                7.94646539               88.16900076                0.72654601               -0.47630929                0.42456098                0.46096749                0.17672302               -0.14310307                0.61083279
              -0.04758093                8.94859609               88.10494954                0.99999999               -0.02296708               -0.03071456                0.06692754               -0.00274038               -0.00310282               -0.08625665
               0.95218940                8.93991374               88.11084972                1.00000000               -0.02680419               -0.02822671                0.10073471               -0.00035652                0.00747180               -0.00569369
               1.95188299                8.93128269               88.11694872                0.98316458               -0.02820706               -0.03942306                0.13860307                0.01698963                0.08415475                0.05618850
               2.95162526                8.92294214               88.12435126                0.81114497               -0.01723200               -0.04850799                0.19962350                0.03523415                0.20004860                0.14052682
               3.95153835                8.91462667               88.13265286                0.01000002               -0.21234171               -0.67611879                0.12468668                1.57381707                0.19185979                0.14422300
               4.94737842                8.93728079               88.14024394                0.01000001               -0.37063941               -0.07028435                0.24383017                1.56530380                0.25875017                0.20427834
               5.94412556                8.94799138               88.14802263                0.01000000               -0.04147472               -0.12824088                0.10570996                0.90681285                0.38630109               -0.08583657
               6.94654893                8.95866681               88.15808514                0.01000001                0.11530861                0.21492394                0.04385090                0.88481262                0.31011733                0.15103530
               7.94643173                8.95861313               88.16569370                0.07139647               -0.03189577               -0.05727801                0.13579130                0.19869035                0.06392379                0.03077079
               8.94591101                8.95554598               88.17080910                0.99999999               -0.05344399               -0.00744567                0.17077764                0.03367923               -0.02616916               -0.02940382
               9.94536285                8.95238981               88.17634571                1.00000000               -0.05481636                0.26434116                0.19751024                0.23547599               -0.00496675                0.10664494
              -0.03892772                9.94836392               88.10710734                0.99774862               -0.02363640               -0.02321705                0.06159936               -0.00919248               -0.06319596               -0.06743796
               0.96083592                9.93961878               88.11302492                1.00000000               -0.03038640               -0.02949560                0.09541136               -0.00913057               -0.07276471               -0.00389012
               1.96046455                9.93088827               88.11879005                1.00000000               -0.04370755               -0.03944245                0.12799876               -0.00562243               -0.05855253                0.02945368
               2.95996177                9.92234320               88.12515351                0.91403786               -0.04216395               -0.05989437                0.16321393                0.00744560                0.02430287                0.01293570
               3.95962127                9.91436416               88.13272567                0.23997620               -0.87189950               -0.02625064                0.10113806                1.53544124                0.16671983                0.02784826
               4.94252378                9.93688617               88.14210961                0.06338483               -0.91406050               -0.03946249                0.38756099                1.11590922                0.55682217                0.03688642
               5.94134006                9.94639164               88.15136556                0.04748615                0.26687931               -0.15997355                0.33749068                0.82342274                0.62994070                0.03804501
               6.94786136                9.95892561               88.16233459                0.15243100                0.39933002                0.02587965                0.14055780                0.70690076                0.38901206               -0.02266010
               7.94932666                9.95790479               88.17052077                0.57020862                0.06476322               -0.07083377                0.17439820                0.09306681                0.15067065                0.02307218
               8.94915663                9.95499708               88.17592179                1.00000000               -0.04040931               -0.05488998                0.19797047                0.01693230               -0.00169390                0.00508950
               9.94851848                9.95175221               88.18145864                0.99839991               -0.06381483               -0.06375997                0.22470392               -0.00892353                0.00493301               -0.00501783
              -0.12700908               -0.05213024               89.08505454                0.94925405               -0.00383792               -0.00403947                0.07362398                0.00300113                0.00566427                0.00207244
               0.87295254               -0.05578343               89.08801352                0.79837043                0.02227869               -0.03913703                0.07563422                0.02352980                0.01239612                0.00241749
               1.87343650               -0.05831498               89.09108669                0.62992991                0.06151832               -0.01828985                0.07808102                0.04810039                0.02853021                0.00068792
               2.87418291               -0.05847021               89.09429505                0.48406160                0.06139416               -0.01288656                0.08350105                0.07613501                0.02752050                0.00020389
               3.87466438               -0.05556068               89.09740141                0.44640978               -0.03290882                0.00229610                0.09087995                0.05416709               -0.02122611                0.00910191
               4.87352473               -0.05092931               89.09991531                0.69879917               -0.10481424               -0.01576019                0.09148051                0.07693004               -0.08825786                0.02106407
               5.87256810               -0.04793172               89.10191592                0.98546063               -0.07619222               -0.02820199                0.09158679                0.03591302               -0.09221656                0.01271997
               6.87200089               -0.04592752               89.10414145                0.99997638               -0.05543109               -0.02600402                0.07991191                0.00337727               -0.09807827                0.00487322
               7.87145947               -0.04446248               89.10612023                1.00000000               -0.04513909               -0.02140043                0.07004361                0.00252283               -0.11664583                0.01985055
               8.87109811               -0.04334931               89.10803921                1.00000000               -0.02845609               -0.02069085                0.05941535               -0.00428016               -0.09857753               -0.00436623
               9.87089035               -0.04222101               89.11040550                1.00000000               -0.02077558               -0.02381843                0.05338403               -0.01007245               -0.07669238               -0.07317048
              -0.12332587                0.94782936               89.08773727                0.79639037               -0.03939172                0.02203308                0.07630249                0.02379654                0.00070261                0.00783129
               0.87628021                0.94382520               89.09067767                0.26628303               -0.07066182               -0.07044189                0.07935802                0.10050489                0.00460065                0.00853496
               1.87526089                0.94150213               89.09369194                0.01000000               -0.13565488               -0.04568225                0.08488826                0.23395986                0.01489013                0.00791772
               2.87356711                0.94140092               89.09684091                0.01000000               -0.19126440               -0.01497120                0.09244658                0.46910001                0.03018237                0.07387038
               3.87143560                0.94446228               89.10010990                0.01000000               -0.15437768               -0.04600498                0.10678807                0.60479746                0.04611654                0.11421170
               4.87047956                0.94891309               89.10332099                0.01000000               -0.05046360               -0.14443108                0.11483629                0.53979758                0.03996339                0.12422881
               5.87042633                0.95178626               89.10590795                0.01000000               -0.00897580               -0.10241496                0.11272433                0.24536715                0.01354231                0.14644761
               6.87030004                0.95381244               89.10861337                0.43310771               -0.01153664               -0.02068938                0.11094558                0.05675817                0.02717509                0.07980589
               7.87019560                0.95532351               89.11140379                0.99826259               -0.01827345               -0.02902117                0.10276234                0.01905694                0.01237127                0.03732469
               8.86993457                0.95644378               89.11377591                0.99999998               -0.02671313               -0.02481829                0.09448236               -0.00143593               -0.00782505                0.00813300
               9.86966133                0.95754080               89.11615509                0.99548239               -0.02732384               -0.03438802                0.08937784               -0.00941354               -0.00576589               -0.08525844
              -0.11852481                1.94831042               89.09051469                0.62513312               -0.01853088                0.06141974                0.07953993                0.04936067               -0.00001012                0.02395151
               0.88128988                1.94280773               89.09346051                0.01000000               -0.04676107               -0.13592088                0.08474150                0.23590094                0.00178020                0.02177217
               1.88053997                1.94077138               89.09648924                0.01254939               -0.03425634               -0.02994239                0.08768539                0.57257064                0.07267843                0.08332291
               2.88060475                1.94123037               89.10083769                0.01222263               -0.06459003               -0.04887001                0.06540068                0.82862767                0.12372569                0.13227266
               3.87924817                1.94351922               89.10493316                0.01000001               -0.18040199               -0.10351973                0.09858763                0.97120991                0.10503945                0.13664883
               4.87699671                1.94618207               89.10882171                0.01000000               -0.33360410               -0.15198950                0.14635446                0.98785851                0.04443281                0.30657569
               5.87257608                1.95001998               89.11257339                0.01000001               -0.36989586               -0.14770152                0.19403716                0.87806041                0.03639052                0.26381376
               6.86959880                1.95365869               89.11455131                0.01448020               -0.16834071               -0.20494638                0.16726547                0.56899714                0.04245951                0.22949738
               7.86920927                1.95495710               89.11701388                0.02388662               -0.03733469               -0.05533582                0.13349824               -0.00311206                0.07936499                0.02234355
               8.86885210                1.95615433               89.11974490                0.98494997               -0.03506119               -0.03011332                0.13298615                0.02042210                0.06203383                0.09072916
               9.86850805                1.95709123               89.12171060                1.00000000               -0.03440555               -0.05407100                0.12462177               -0.00390713                0.03027297               -0.08059696
              -0.11133328                2.94905776               89.09344704                0.47700869               -0.01294533                0.06036567                0.08543973                0.07930215               -0.00064816                0.02438561
               0.88853727                2.94110678               89.09639014                0.01000000               -0.01885278               -0.19183775                0.09204102                0.47726622                0.06407396                0.03953999
               1.88828967                2.94090328               89.10060364                0.01223977               -0.05727238               -0.05565979                0.06583258                0.83434727                0.11570371                0.13619391
               2.88739182                2.94042352               89.10499758                0.01000001               -0.11907839               -0.10734110                0.07638311                0.87585442                0.10404885                0.11855175
               3.88590810                2.94239189               89.10974169                0.01000000               -0.18279236               -0.10636219                0.10528465                1.08056258                0.13596010                0.19685029
               4.88373597                2.94587330               89.11452574                0.01000001               -0.26985935               -0.09612897                0.15053574                1.17028697                0.12975528                0.25866471
               5.88051091                2.94883223               89.11846343                0.01000000               -0.34965533               -0.14862979                0.19849564                1.13669845                0.16551113                0.10351885
               6.87674287                2.94971351               89.12187328                0.01000000               -0.64365941               -0.28481853                0.25867313                1.19706384               -0.07236709                0.34504667
               7.86763772                2.95421680               89.12201320                0.01067667               -0.42669916               -0.04776489                0.13549699                0.89769945                0.31921582                0.21905673
               8.86820888                2.95584152               89.12705566                0.79880169                0.00358357               -0.03646417                0.18263935                0.05380859                0.21508284                0.18010281
               9.86770939                2.95645938               89.12775727                1.00000000               -0.04994897               -0.05960081                0.14932415                0.00733388                0.01075800               -0.03117814
              -0.10103681                3.94951773               89.09628999                0.44385338                0.00264937               -0.03950506                0.09271810                0.05426860                0.00862453               -0.02500373
               0.89898968                3.93897097               89.09947323                0.01000000               -0.05265114               -0.14837207                0.10534932                0.61435877                0.10002069                0.05675470
               1.89791017                3.93965818               89.10450046                0.01000001               -0.11782271               -0.16722988                0.09660443                0.98055311                0.11261144                0.11534729
               2.89663323                3.93908354               89.10953915                0.01000000               -0.12502614               -0.16359392                0.10343803                1.08356158                0.17368730                0.15308634
               3.89540964                3.94139198               89.11500214                0.01000000               -0.13355573               -0.11282830                0.12911049                1.24510852                0.19362023                0.22134274
               4.89396212                3.94425949               89.12023156                0.01000000               -0.19699041               -0.21339102                0.15396901                1.23567611                0.10781703                0.21049695
               5.89146984                3.94704738               89.12393965                0.01437005               -0.29033070               -0.10337503                0.14687852                1.19156328                0.02080582                0.12165904
               6.88815550                3.94796232               89.12779357                0.01128215               -0.52172905               -0.11962061                0.18308984                1.49059335                0.05387477                0.24884042
               7.88103526                3.95400180               89.13294437                0.01000001               -1.02349058                0.12706226                0.13892262                1.72840165                0.27521481                0.25200686
               8.86768569                3.95542504               89.13461047                0.01000000               -0.68081297               -0.12119900                0.11672154                1.34089631                0.12492361                0.32464103
               9.86741900                3.95589921               89.13453419                0.45407468               -0.02666938               -0.53604313                0.08796527                1.17412406                0.03224915                0.46026079
              -0.08915439                4.94826766               89.09852591                0.70337239               -0.01616189               -0.11127657                0.09320019                0.08336942                0.01998300               -0.08836489
               0.91068399                4.93813934               89.10247472                0.01000000               -0.15287269               -0.04182309                0.11068886                0.54539299                0.10517577                0.04433602
               1.90778816                4.93755868               89.10815691                0.01000000               -0.16773686               -0.31328567                0.14371225                0.99672353                0.27759425                0.06003871
               2.90732926                4.93715165               89.11411802                0.01000001               -0.10769172               -0.24559253                0.14404141                1.17696097                0.22998382                0.14936815
               3.90563432                4.94013532               89.12006520                0.01000000               -0.22675812               -0.17626566                0.14716535                1.23450527                0.17426036                0.13961190
               4.90279409                4.94160548               89.12528456                0.01000001               -0.24974914               -0.20264192                0.16173497                1.38118036                0.14875387                0.19961382
               5.90063934                4.94676473               89.12951096                0.01670109               -0.15968876               -0.09508628                0.13492173                1.34107926                0.15491969                0.05422524
               6.89960032                4.94732110               89.13347937                0.01000001               -0.29481527               -0.00408803                0.10288347                1.55391428                0.19254138                0.11717549
               7.89474304                4.95675804               89.13858475                0.01401951               -0.32354603                0.12994321                0.11619391                1.56510261                0.16516396                0.09092665
               8.89312940                4.95341754               89.14530461                0.01207157               -0.22497460               -0.12757208                0.20911186                1.33041878               -0.28785887                0.92686238
               9.89024354                4.94573852               89.15074155                0.20685412               -0.28858541               -0.66170618                0.25530969                1.11490020               -0.34737296                0.78730654
              -0.07911278                5.94729220               89.10026809                0.98514525               -0.02806976               -0.07814904                0.09385943                0.03622064                0.01177074               -0.09120057
               0.92060652                5.93813451               89.10480275                0.01000000               -0.10274437               -0.00514249                0.10873383                0.25192072                0.13367281                0.01215072
               1.91883233                5.93339247               89.11177374                0.01000001               -0.15053568               -0.35597095                0.18228113                0.88702140                0.22615478                0.05644767
               2.91759581                5.93417169               89.11785407                0.01000000               -0.15932058               -0.32672873                0.18161573                1.13680258                0.06085539                0.18781045
               3.91564592                5.93786667               89.12355435                0.01437027               -0.13197433               -0.25620975                0.13560196                1.20076573                0.07147395                0.05143328
               4.91495632                5.94020665               89.12939070                0.01674149               -0.15350612               -0.08385588                0.11540227                1.35040090               -0.02333115                0.22298957
               5.91257580                5.94514566               89.13473678                0.01000001               -0.28579251               -0.19833872                0.11376157                1.47979113               -0.06060338                0.03494463
               6.90924047                5.94788056               89.13964316                0.01000000               -0.31674624                0.10769238                0.11640906                1.73813180               -0.05624934                0.09443583
               7.90624087                5.95660066               89.14468564                0.01000000               -0.19634404               -0.14009779                0.11277076                1.66651632               -0.18983152                0.32373590
               8.90531359                5.95287360               89.15020996                0.01000000               -0.05829170               -0.05521168                0.22607542                0.94818559               -0.12564892                1.06882687
               9.90507504                5.94266509               89.15717565                0.13267560               -0.02385514               -0.05290161                0.29455770                0.78160195                0.03731692                0.77900846
              -0.07011460                6.94670468               89.10222065                0.99920178               -0.02632651               -0.05776447                0.08380075                0.00360171                0.00412275               -0.09663136
               0.92962214                6.93803649               89.10721923                0.41630112               -0.01969995               -0.00899209                0.10773967                0.06021117                0.07518976                0.02375337
               1.92949141                6.93043926               89.11360580                0.01448575               -0.20155141               -0.16544292                0.15873901                0.57385000                0.20650629                0.04445606
               2.92559111                6.93061707               89.12108936                0.01000000               -0.29383620               -0.63547584                0.24860168                1.19867865                0.28139176               -0.04211161
               3.92361468                6.93501113               89.12702078                0.01128789               -0.15339947               -0.48299989                0.16575819                1.50144551                0.15586755                0.07999105
               4.92252312                6.93992836               89.13300305                0.01000001               -0.05267156               -0.17603652                0.06972791                1.56349933                0.02770261                0.26269721
               5.92256125                6.94279795               89.13957552                0.01000000                0.01924137               -0.17194608                0.09735344                1.72817812                0.00871245                0.01589847
               6.92290795                6.94947495               89.14617523                0.01000000                0.02595363                0.14192377                0.07549523                1.83944873               -0.06367350                0.02755441
               7.92308032                6.95395609               89.15212507                0.01000000                0.15603679               -0.15802010                0.16034044                1.62099257                0.22514469                0.34078130
               8.92602868                6.95231330               89.16194132                0.03608288                0.16061460               -0.07997034                0.35443987                1.04559561                0.46828739                1.02882238
               9.92629261                6.94468049               89.17008391                0.21003575                0.02639299                0.19021933                0.26576102                0.75194342                0.48785142                0.65918770
              -0.06170437                7.94613691               89.10394147                1.00000000               -0.02194708               -0.04784025                0.07555000                0.00277116                0.01845117               -0.11363894
               0.93807616                7.93795467               89.10971898                0.99544188               -0.02834408               -0.01686567                0.10180588                0.02015627                0.03523368                0.01039085
               1.93772875                7.93008361               89.11580801                0.01901903               -0.05393227               -0.03469530                0.12712874               -0.01037801                0.00293192                0.07569044
               2.93699751                7.92146218               89.12095716                0.01069201               -0.06826034               -0.41963935                0.16732681                0.90025300                0.12267502                0.41845926
               3.93636354                7.92820667               89.13151970                0.01000001                0.07209854               -1.00910709                0.15358943                1.83455259                0.16948451                0.27975476
               4.93843948                7.93668592               89.13787002                0.01405918                0.06146138               -0.23834087                0.06749350                1.70452900                0.01197530                0.18057062
               5.93759277                7.94170674               89.14473147                0.01000000               -0.17840875               -0.00979992                0.05562304                1.69882562                0.05349044               -0.09601430
               6.93487131                7.95071904               89.15200147                0.01000000               -0.08852000                0.24225076                0.11877726                1.53249331                0.14445971                0.16769221
               7.93582237                7.95344026               89.15975169                0.01138614                0.03148964               -0.03259013                0.04413318                0.91127425                0.00844370                0.16857054
               8.93550110                7.95127420               89.16762334                0.06187656               -0.02214136               -0.09829870                0.10503851                0.35949165                0.09272903                0.14218444
               9.93537954                7.94646947               89.17491784                0.77948448               -0.01215604                0.12054804                0.26685599                0.18706504                0.32008010                0.13266639
              -0.05369469                8.94574787               89.10561655                1.00000000               -0.02267465               -0.03112987                0.06706203               -0.00451380               -0.00388447               -0.09528674
               0.94607857                8.93769917               89.11183588                0.99999998               -0.02644864               -0.02637075                0.09571918               -0.00223243                0.00895019               -0.00779469
               1.94577634                8.92974536               89.11829247                0.99026015               -0.03027256               -0.03246369                0.12650051                0.01749622                0.08696648                0.06039617
               2.94547311                8.92222428               89.12598954                0.85182968               -0.03471746                0.01824975                0.15462345                0.05172686                0.15072581                0.22148531
               3.94508199                8.91482899               89.13352330                0.01000000               -0.11797392               -0.68242766                0.12014262                1.45259953                0.20691135                0.14862129
               4.94311364                8.93516154               89.14258490                0.01501929               -0.12886732               -0.12445118                0.18323191                1.44385080                0.32149352                0.08208989
               5.94250464                8.94260195               89.14976924                0.01335333               -0.06446726                0.05197139                0.13445416                0.98795939                0.44796621               -0.02202750
               6.94182429                8.95431997               89.15941664                0.03724493               -0.08769963                0.17657173                0.09695381                0.92325969                0.28548527                0.18272314
               7.94075065                8.95330429               89.16678352                0.10493675               -0.08174928               -0.00406902                0.05295305                0.21339248                0.04941588                0.09103806
               8.94018930                8.95034733               89.17251488                0.99999999               -0.05536450               -0.07370957                0.17031963                0.09118969               -0.00861912               -0.01957725
               9.93964336                8.94709145               89.17831982                0.99457013               -0.05459438               -0.00084216                0.19739846                0.05027238               -0.00509718               -0.10435127
              -0.04569725                9.94551431               89.10772676                1.00000000               -0.02687216               -0.02335563                0.06211697               -0.00896251               -0.06929173               -0.07376018
               0.95403402                9.93742726               89.11396297                0.99519414               -0.03745922               -0.02719191                0.09209445               -0.00845291               -0.07943478               -0.00550306
               1.95355356                9.92943434               89.12003710                1.00000000               -0.05428030               -0.03110179                0.11914669               -0.00228193               -0.07645758                0.03022885
               2.95294842                9.92182717               89.12649526                0.97690482               -0.05376444               -0.03971126                0.12808135                0.00371936               -0.04249271                0.00498687
               3.95247827                9.91455812               89.13338628                0.48859721               -0.67024430               -0.02708711                0.08797900                1.35811454                0.30652479                0.03125972
               4.93954353                9.93419690               89.14697317                0.21183177               -0.71423702               -0.09646459                0.36552539                1.05239209                0.65870572                0.03279218
               5.93819353                9.94274616               89.15558334                0.13539161                0.15453189                0.01442095                0.27027690                0.57156777                0.48748365                0.07399660
               6.94263417                9.95425047               89.16580922                0.20531658                0.29346597               -0.00694917                0.14910470                0.61162385                0.23897694                0.11617111
               7.94406285                9.95335888               89.17223642                0.59493609                0.04517806                0.00545944                0.08077689                0.10869664                0.01397535                0.04015502
               8.94353773                9.94980000               89.17790254                0.99458618               -0.05830493               -0.05473266                0.19825973               -0.01046978               -0.00204082                0.00500513
               9.94289675                9.94645263               89.18370749                1.00000000               -0.06409784               -0.06388183                0.22482145               -0.00939819                0.00519965               -0.00481858
              -0.12991964               -0.05480197               90.08578389                0.92703197               -0.00315580               -0.00335590                0.07262561                0.00173162                0.00602441                0.00282477
               0.87004880               -0.05843667               90.08876335                0.78329594                0.02441625               -0.03860327                0.07455713                0.02227257                0.01228874                0.00371494
               1.87056868               -0.06094692               90.09186294                0.65372726                0.06232177               -0.02171474                0.07767088                0.04557256                0.03003036                0.00126905
               2.87129523               -0.06106103               90.09512412                0.50903089                0.05301140               -0.01147463                0.08195333                0.07183310                0.03168928               -0.00001460
               3.87162891               -0.05824685               90.09829315                0.49138600               -0.04485152                0.00125896                0.08677487                0.04661332               -0.02138835                0.01129190
               4.87039820               -0.05423592               90.10079995                0.79120746               -0.10419306               -0.01700263                0.08474517                0.07721988               -0.08368981                0.02192876
               5.86954505               -0.05191536               90.10283031                0.99445510               -0.07330397               -0.02743404                0.08940225                0.02735390               -0.09486855                0.00988088
               6.86893212               -0.05048723               90.10491858                0.99229797               -0.05942176               -0.02374960                0.07535739                0.00307262               -0.10770499                0.00922863
               7.86835661               -0.04971038               90.10680638                0.99514993               -0.04787427               -0.02044087                0.06713999               -0.00027529               -0.12364398                0.01762833
               8.86797464               -0.04931366               90.10863819                0.99870807               -0.02988947               -0.01980302                0.05943248               -0.00726331               -0.10382231               -0.00716917
               9.86775882               -0.04890751               90.11094421                1.00000000               -0.02158153               -0.02618029                0.05435112               -0.01117499               -0.08052011               -0.07479408
              -0.12626763                0.94516447               90.08849344                0.78162623               -0.03883749                0.02415357                0.07515343                0.02246448                0.00231290                0.00818599
               0.87334400                0.94117730               90.09146697                0.34445893               -0.06978927               -0.06952685                0.07839800                0.09535580                0.00825797                0.01142630
               1.87233659                0.93883594               90.09454181                0.01028098               -0.13402320               -0.04667758                0.08483877                0.23176127                0.02336553                0.00429616
               2.87066353                0.93882422               90.09776937                0.01000000               -0.18270485               -0.02544180                0.09293772                0.44095213                0.04248163                0.05078651
               3.86868249                0.94176574               90.10118429                0.01117658               -0.13294397               -0.06351832                0.10724300                0.54705405                0.06202933                0.10230583
               4.86800465                0.94559405               90.10445227                0.01000001               -0.03691249               -0.08443181                0.11077443                0.44855265                0.04761729                0.12864478
               5.86794424                0.94781030               90.10703893                0.02643521               -0.00721451               -0.01029995                0.11093444                0.18158072                0.01774921                0.18599962
               6.86786036                0.94927528               90.10972201                0.54299142               -0.00885808               -0.01501007                0.11186731                0.05954798                0.02689741                0.09594429
               7.86776708                0.95008521               90.11239933                0.94557628               -0.01798972               -0.03053400                0.10007143                0.01384524                0.00736339                0.03329918
               8.86750057                0.95048830               90.11469440                0.98032888               -0.02630803               -0.02138899                0.09094469               -0.00354953               -0.00976971                0.00710200
               9.86724092                0.95083069               90.11703910                1.00000000               -0.02596515               -0.04026788                0.08610080               -0.00953362               -0.00552325               -0.08795766
              -0.12149601                1.94568110               90.09130502                0.64925412               -0.02195433                0.06213313                0.07902104                0.04667642                0.00059300                0.02585553
               0.87828445                1.94017279               90.09430777                0.01014143               -0.04735063               -0.13417321                0.08449933                0.23311975               -0.00087453                0.02900418
               1.87755698                1.93811953               90.09736962                0.01000001               -0.05499865               -0.05181678                0.08648279                0.55272026                0.05395666                0.06358885
               2.87718448                1.93843014               90.10139543                0.01000001               -0.08784076               -0.07585878                0.01253411                0.78120986                0.06076973                0.09066490
               3.87580016                1.94048278               90.10592821                0.01000001               -0.19298932               -0.10320626                0.09750243                0.97536559                0.07536065                0.20444897
               4.87332469                1.94407544               90.11025386                0.01164313               -0.31523634               -0.10014406                0.13395453                0.98989798                0.10125262                0.26579581
               5.86949544                1.94787865               90.11475580                0.01184908               -0.27382556               -0.13528378                0.19967601                0.80362816               -0.01782093                0.40542307
               6.86784818                1.94921257               90.11620354                0.01131065               -0.10374746               -0.14440203                0.14541791                0.49588356               -0.00377285                0.25721704
               7.86742049                1.94967894               90.11827221                0.01000000               -0.03450046               -0.11409140                0.12809922                0.21204163                0.06385269                0.07098713
               8.86715817                1.95025856               90.12100236                0.98737541               -0.02685520               -0.01546216                0.12056307                0.03786012                0.06461888                0.09691510
               9.86688338                1.95028713               90.12290868                0.99999999               -0.02747849               -0.06133423                0.11525003                0.00180425                0.02908883               -0.08910953
              -0.11431748                2.94640713               90.09429534                0.50283531               -0.01145545                0.05166862                0.08385076                0.07421137               -0.00073353                0.02862909
               0.88556796                2.93849383               90.09731335                0.01000000               -0.02744328               -0.18285498                0.09236612                0.44687011                0.04333372                0.05005649
               1.88513365                2.93779960               90.10117601                0.01000001               -0.08217399               -0.08010047                0.01574694                0.78346086                0.08118754                0.06874702
               2.88392448                2.93730705               90.10586571                0.01000000               -0.12945773               -0.11600026                0.10336106                0.90969934                0.16101059                0.17525991
               3.88254450                2.93970161               90.11070752                0.01000001               -0.17588664               -0.07092755                0.10672099                1.15218269                0.18521047                0.23900451
               4.88040675                2.94359117               90.11599336                0.01218355               -0.18324111               -0.10451403                0.13152375                1.15840327                0.14918120                0.25895428
               5.87887967                2.94510463               90.12047688                0.01728201               -0.22145035               -0.22979928                0.18665012                1.06634747                0.20100842                0.13825648
               6.87597774                2.94638724               90.12417258                0.01733028               -0.39588739               -0.20353391                0.17450963                0.92716655                0.21664577                0.16214466
               7.87096193                2.94780338               90.12464239                0.01000001               -0.41640830               -0.12049605                0.24491655                0.81402228                0.56392061                0.06990455
               8.86764958                2.95017906               90.12870218                0.88432647               -0.18710399               -0.01923025                0.14244562                0.15770386                0.17130003                0.18225347
               9.86721985                2.94960400               90.12913516                0.97353422               -0.04297300               -0.06110867                0.13198778                0.00082870               -0.00499457               -0.06511431
              -0.10418518                3.94671447               90.09720086                0.49029133                0.00145642               -0.05005723                0.08867281                0.04671913                0.01092522               -0.02514701
               0.89582938                3.93651569               90.10053134                0.01115984               -0.07009192               -0.12798044                0.10554306                0.55382456                0.08977859                0.06970741
               1.89441298                3.93651752               90.10547419                0.01000001               -0.11764660               -0.17832797                0.09615439                0.98222616                0.18237513                0.08292607
               2.89347645                3.93611013               90.11048200                0.01000001               -0.09266416               -0.15192149                0.10468670                1.15360220                0.21730797                0.19929842
               3.89255970                3.93906423               90.11633743                0.01291389               -0.11933568               -0.08875764                0.11428660                1.29550997                0.22292848                0.24268266
               4.89108974                3.94198516               90.12143763                0.01741881               -0.22666883               -0.17367473                0.14298007                1.21168439                0.12112902                0.22100067
               5.88802632                3.94328266               90.12536371                0.01000000               -0.36984909               -0.13959722                0.17828028                1.12364286                0.06229026                0.07539428
               6.88369276                3.94514189               90.12984533                0.01000000               -0.40586069               -0.23774124                0.17503990                1.24246437                0.00212012                0.13251603
               7.87990911                3.94726902               90.13382598                0.01000000               -0.75905661                0.11276376                0.09580035                1.17784082                0.11999625                0.09990631
               8.86851162                3.94987395               90.13615274                0.01585123               -0.59295166                0.44991880                0.15914109                0.68020327                0.20328780                0.35384552
               9.86805007                3.94906496               90.13568302                0.89901535               -0.04615498               -0.54957455                0.13632887                0.53701549                0.04776817                0.35453203
              -0.09298554                4.94540599               90.09943039                0.79565255               -0.01730545               -0.10869271                0.08678009                0.08134500                0.02075784               -0.08401423
               0.90684140                4.93593422               90.10356600                0.01000001               -0.09153604               -0.03042451                0.10703080                0.45549008                0.11341544                0.04936371
               1.90518374                4.93423304               90.10956816                0.01164268               -0.11957926               -0.28926631                0.13014059                0.98917742                0.23876708                0.10384454
               2.90444982                4.93426862               90.11551142                0.01221869               -0.13020364               -0.15658188                0.12760242                1.16227375                0.22992792                0.15843766
               3.90257966                4.93792646               90.12115710                0.01743390               -0.20139058               -0.19610845                0.13650508                1.21568431                0.18526052                0.14324186
               4.90042201                4.94011768               90.12637829                0.01366127               -0.21919328               -0.18226237                0.11671047                1.15555887                0.17558067                0.20792255
               5.89819580                4.94231268               90.13089198                0.01386179               -0.17906675               -0.15590703                0.14094835                1.03539574                0.16868671                0.01094764
               6.89684067                4.94163241               90.13479322                0.01000000               -0.42045576               -0.14875179                0.19532954                1.40801993                0.17516991                0.06773775
               7.88978668                4.95005866               90.14013354                0.01000001               -0.86914868                0.23271783                0.16485165                1.86676209                0.11211539               -0.04512567
               8.87945770                4.95917744               90.14667955                0.03891656               -0.51042739                0.35802186                0.16223138                0.94010177               -0.35450785                0.51260465
               9.87957814                4.93861251               90.15042071                0.50284554                0.01204376               -0.45951936               -0.21493059               -0.49864043               -0.37775682                0.91744541
              -0.08361475                5.94454062               90.10120509                0.99486079               -0.02731150               -0.07471979                0.09163959                0.02727540                0.00919437               -0.09369085
               0.91611213                5.93590720               90.10589289                0.02430150               -0.02615565               -0.00439727                0.10720317                0.19681812                0.16876164                0.01575127
               1.91586213                5.93073220               90.11375897                0.01185717               -0.15418119               -0.26647243                0.19779222                0.82175078                0.37546344               -0.01326434
               2.91302851                5.93297849               90.11969986                0.01726312               -0.24189032               -0.19119712                0.17624391                1.07048448                0.10065732                0.21203909
               3.91102433                5.93514206               90.12483325                0.01000000               -0.16069093               -0.33959937                0.17042328                1.13486416                0.04122282                0.08020186
               4.90981469                5.93833991               90.13066629                0.01387049               -0.19024139               -0.13668268                0.13236301                1.03832788               -0.01589528                0.16771617
               5.90721950                5.94016452               90.13622478                0.01000000               -0.28537542               -0.22007768                0.12206718                1.09365772               -0.00441941               -0.00391860
               6.90410718                5.94216686               90.14106898                0.01000000               -0.37600893                0.11817623                0.14059824                1.57283559                0.01608722                0.08874859
               7.89969932                5.95192337               90.14608847                0.01000000               -0.26736894               -0.07169666                0.20221899                2.06070481                0.14473952                0.06668168
               8.89875980                5.95703439               90.15321320                0.04305923               -0.02461032               -0.20524911                0.32380574                1.29251503               -0.05265826                0.74998449
               9.89920712                5.93987457               90.15897556                0.31061280                0.04473121                0.03638255               -0.01138764                0.20206335               -0.08456424                0.53662796
              -0.07517320                6.94391159               90.10303594                0.99085985               -0.02406086               -0.06155498                0.07900768                0.00302624                0.00811154               -0.10563038
               0.92458619                6.93584628               90.10829332                0.52391542               -0.01396667               -0.00663606                0.10884682                0.06238266                0.09276417                0.02412802
               1.92454746                6.92890359               90.11518794                0.01130625               -0.15682729               -0.11141666                0.13969384                0.53549424                0.23329493                0.00422554
               2.92144964                6.93044468               90.12319569                0.01735045               -0.23159686               -0.30980653                0.16152031                0.92726202                0.10877067                0.25177954
               3.91991553                6.93113447               90.12904167                0.01000000               -0.26417685               -0.40814718                0.17605756                1.24377163                0.09591699                0.00251226
               4.91616611                6.93738402               90.13418026                0.01000000               -0.18367585               -0.30092475                0.18846529                1.42860561                0.03695096                0.12460002
               5.91624201                6.93791113               90.14072997                0.01000000                0.01862113               -0.16610316                0.12294465                1.54602977                0.07710950               -0.00923103
               6.91653853                6.94399593               90.14694510                0.01000001               -0.00543808                0.12863533                0.12731568                1.76311241                0.07563260                0.04102491
               7.91613325                6.94862472               90.15375301                0.01000001                0.04091354               -0.20800332                0.15739966                1.90781110                0.17701933                0.22077786
               8.91735680                6.95507246               90.16372397                0.03408443                0.09028915               -0.48091367                0.05261362                1.04518986                0.21332632                0.25052948
               9.91793903                6.93934016               90.16878565                0.31525852                0.05822321                0.05041207                0.10196525               -0.06812273               -0.00553077                0.23654829
              -0.06742360                7.94330952               90.10468092                0.99999999               -0.02086138               -0.05032668                0.07187573                0.00029285                0.01683125               -0.11951796
               0.93236779                7.93577448               90.11070419                0.94325942               -0.03013890               -0.01662175                0.09908120                0.01503203                0.03243713                0.00672862
               1.93197362                7.92850386               90.11700463                0.01000000               -0.15124578               -0.03210337                0.12244448                0.29645338                0.08005087                0.05888345
               2.92934287                7.92678236               90.12401910                0.01000001               -0.15066028               -0.43054678                0.25418476                0.82172790                0.03251333                0.56766351
               3.92896042                7.92697912               90.13276465                0.01000000                0.11336367               -0.77009762                0.12314938                1.23523718                0.01867142                0.12542618
               4.93161014                7.93232142               90.13875542                0.01000001                0.12838831               -0.37822950                0.12523397                1.56297933               -0.06362497               -0.04324678
               5.93152818                7.93684246               90.14560466                0.01000000               -0.14771535               -0.06060831                0.13108853                1.62146384                0.05613331               -0.03619214
               6.92865584                7.94473956               90.15310111                0.01000001               -0.23745795                0.22587929                0.10817944                1.48133350                0.20209790               -0.03100146
               7.92677902                7.94776331               90.16094605                0.01000001                0.01461617               -0.03377803                0.10855447                1.04325538                0.15527390                0.09087143
               8.92894816                7.94741611               90.16848556                0.01000001                0.12651105               -0.50986097                0.15084575                0.49825234                0.07384615               -0.06077448
               9.92930924                7.94088281               90.17433788                0.81987961                0.03610840                0.10864877                0.19862243                0.13227055               -0.00722807                0.01539902
              -0.06009727                8.94290506               90.10629078                0.99862047               -0.02102429               -0.03206132                0.06571362               -0.00724034               -0.00593352               -0.09934350
               0.93969249                8.93551384               90.11276411                0.98091490               -0.02170384               -0.02599772                0.09132188               -0.00372195                0.00857476               -0.00927082
               1.93946865                8.92826153               90.11947873                0.99004602               -0.01417696               -0.02501420                0.11436695                0.03746929                0.09184876                0.06135730
               2.93940895                8.92183374               90.12744372                0.89409243               -0.01937190               -0.26754361                0.12980154                0.19454292                0.16517224                0.14719720
               3.93908121                8.91573252               90.13505571                0.01000000               -0.09232964               -0.58578622                0.16250062                1.21495676                0.24048464                0.20807924
               4.93756235                8.92981943               90.14390858                0.01000001               -0.14140362               -0.17779764                0.25516928                1.14285663                0.39693773               -0.42494435
               5.93625314                8.93669896               90.15071171                0.01000003               -0.11590035               -0.02995420                0.34118109                0.97097963                0.65662575               -0.37123244
               6.93524435                8.94851352               90.16002422                0.01000000               -0.09656685                0.18621505                0.15253454                0.92910904                0.28530343               -0.09663609
               7.93432180                8.94794916               90.16675276                0.03600837               -0.05210041                0.00193964                0.16648727                0.35477754                0.13441341               -0.03289162
               8.93420234                8.94487524               90.17421550                0.99999999               -0.03353816               -0.15471209                0.17110624                0.11302804                0.06349203                0.00728837
               9.93365104                8.94151314               90.18029368                0.99964555               -0.05512974               -0.00011555                0.19582136                0.04895682               -0.00435452                0.01003566
              -0.05278598                9.94266829               90.10834968                1.00000000               -0.02771424               -0.02367661                0.06162985               -0.01024709               -0.06917591               -0.07683188
               0.94693688                9.93525453               90.11486681                1.00000000               -0.04054564               -0.02593161                0.08732062               -0.00879622               -0.08026985               -0.00549833
               1.94640311                9.92800358               90.12117298                0.99999999               -0.05870730               -0.02579462                0.10948678                0.00229389               -0.08415458                0.02683762
               2.94576273                9.92143149               90.12771514                0.97769001               -0.05646247               -0.04022518                0.12151582               -0.00163051               -0.07091282               -0.01050062
               3.94527386                9.91526339               90.13448525                0.92893195               -0.61309518               -0.04691265                0.13519703                0.98596347                0.33782198                0.04874711
               4.93350083                9.92876547               90.14942012                0.52044653               -0.65100879               -0.10539663               -0.07022260                0.64284669                0.96946481               -0.38233148
               5.93225369                9.93624337               90.15677110                0.32829998                0.12434936               -0.04555924                0.00314941                0.58497429                0.45397527               -0.30179115
               6.93598782                9.94846386               90.16531668                0.32395787                0.26295868               -0.00496570                0.25655493                0.65228359                0.14779852               -0.14053557
               7.93751286                9.94780210               90.17213631                0.64591961                0.08284632               -0.01470629                0.28790363                0.11200584                0.07814137               -0.05702893
               8.93764474                9.94432187               90.17988699                0.99962234               -0.02501421               -0.05533638                0.19739702               -0.00183920                0.08999593                0.00546664
               9.93701257                9.94088050               90.18595507                0.99569204               -0.06321703               -0.06326355                0.22691347               -0.00798355                0.00370951               -0.00604586
              -0.13284752               -0.05749286               91.08650706                0.90002992               -0.00332158               -0.00351909                0.07255638               -0.00026482                0.00626960                0.00347866
               0.86711927               -0.06111637               91.08950466                0.75846481                0.02619274               -0.03743294                0.07402627                0.02004975                0.01261600                0.00516771
               1.86767634               -0.06364734               91.09264011                0.67722690                0.06336099               -0.02712935                0.07804722                0.04271386                0.03112897                0.00225793
               2.86838649               -0.06376101               91.09593411                0.53873844                0.04422211               -0.00936554                0.07959889                0.06528787                0.03204625                0.00041884
               3.86856078               -0.06111713               91.09913691                0.54794257               -0.05363554               -0.00095324                0.08266302                0.04153190               -0.02470151                0.01322237
               4.86731378               -0.05779538               91.10161021                0.88741166               -0.10043442               -0.01725476                0.07645473                0.07463774               -0.07905772                0.02243970
               5.86655209               -0.05615135               91.10370397                0.98675201               -0.07215294               -0.02678951                0.08375510                0.01822772               -0.09751689                0.00534047
               6.86587072               -0.05534980               91.10564860                1.00000000               -0.06425542               -0.02038347                0.07034652                0.00346380               -0.11767254                0.01576191
               7.86526698               -0.05529582               91.10746303                0.99617803               -0.04934425               -0.01805104                0.06499467               -0.00241608               -0.12620015                0.01833368
               8.86488383               -0.05560510               91.10922786                1.00000000               -0.02995324               -0.01732443                0.05961278               -0.00898469               -0.10275416               -0.00492388
               9.86466792               -0.05590667               91.11149252                0.99898052               -0.02159140               -0.02761504                0.05429370               -0.01080171               -0.07731846               -0.06921860
              -0.12922666                0.94247195               91.08924034                0.75692435               -0.03763364                0.02592477                0.07456922                0.02018933                0.00408544                0.00901044
               0.87039700                0.93850930               91.09224563                0.41614866               -0.06737711               -0.06711020                0.07730515                0.08489733                0.01227213                0.01461647
               1.86942580                0.93608137               91.09538872                0.03507284               -0.13113707               -0.04718550                0.08423122                0.22455647                0.03163434                0.00093717
               2.86777426                0.93614534               91.09869966                0.01128186               -0.17162559               -0.06458364                0.09273214                0.38335196                0.05617784               -0.01658705
               3.86599329                0.93887334               91.10225476                0.01000000               -0.10984985               -0.03989477                0.10581283                0.46114539                0.07601508                0.08591177
               4.86557726                0.94203207               91.10553648                0.01000000               -0.02408540               -0.11238592                0.10451213                0.37939053                0.05223419                0.12452628
               5.86551158                0.94358075               91.10812664                0.14180189               -0.00498378                0.04209200                0.10952882                0.10660944                0.02465737                0.20890160
               6.86547759                0.94444637               91.11085071                0.71850397               -0.00705515               -0.01488671                0.11128573                0.05395683                0.02627557                0.08933494
               7.86537047                0.94452367               91.11340522                0.99823559               -0.01890881               -0.02852013                0.09390570                0.00979031               -0.00277670                0.03139819
               8.86509941                0.94422166               91.11559481                0.99999998               -0.02545011               -0.01550254                0.08290960               -0.00411605               -0.01595534                0.00726199
               9.86486147                0.94381718               91.11787711                0.99443625               -0.02379405               -0.04401786                0.07818259               -0.00998413               -0.00823012               -0.08165173
              -0.12451844                1.94302563               91.09209511                0.67328446               -0.02737629                0.06312768                0.07927957                0.04371437                0.00156464                0.02750055
               0.87520779                1.93754143               91.09515049                0.03222493               -0.04750604               -0.13124837                0.08381971                0.22547927               -0.00321916                0.03596334
               1.87453144                1.93540895               91.09821889                0.01000001               -0.09731180               -0.09538597                0.08282060                0.46705728               -0.00727877                0.00387553
               2.87326156                1.93494732               91.10108837                0.01000001               -0.13172410               -0.06515912                0.02363326                0.79911444                0.09189043                0.08461491
               3.87189695                1.93808497               91.10688321                0.01000000               -0.15336928               -0.10552890                0.09086434                0.92504812                0.18116747                0.17928188
               4.87019417                1.93995690               91.11150081                0.01000000               -0.28134841               -0.10817309                0.13716559                0.89892428                0.14773649                0.23581881
               5.86626998                1.94469049               91.11656691                0.01000000               -0.20936175               -0.12956522                0.11700901                0.76179244                0.03396413                0.30490056
               6.86600694                1.94435247               91.11745966                0.01000000               -0.02912408               -0.25658749                0.11138721                0.54379880               -0.04284337                0.21666876
               7.86568750                1.94413378               91.11957587                0.01000000               -0.02494653               -0.22312770                0.11294705                0.43742180                0.05414873                0.10481558
               8.86550801                1.94408485               91.12215617                0.98446184               -0.02051567                0.00572758                0.10335785                0.05609456                0.05122260                0.08309519
               9.86527719                1.94321297               91.12401560                0.99925955               -0.02308161               -0.07172108                0.10822364                0.00691565                0.02187965               -0.08797437
              -0.11738397                2.94373450               91.09512406                0.53357467               -0.00927645                0.04270552                0.08133091                0.06694270               -0.00014399                0.02922565
               0.88252327                2.93588434               91.09823746                0.01130927               -0.06274909               -0.17144802                0.09210203                0.38716427               -0.01982754                0.06199768
               1.88136105                2.93417365               91.10091858                0.01000001               -0.07213715               -0.12421965                0.02218751                0.80166962                0.07217448                0.09929936
               2.88108053                2.93484215               91.10706480                0.01000000               -0.09381933               -0.07617590                0.09185443                0.97218513                0.22102934                0.23571427
               3.87948467                2.93676276               91.11187611                0.01000000               -0.20651454               -0.11444620                0.11539792                1.10210429                0.18277365                0.21293294
               4.87695024                2.93986861               91.11715622                0.01000000               -0.15664037               -0.08311674                0.10700630                1.06954665                0.23134605                0.17635398
               5.87635186                2.94098945               91.12219643                0.01682953               -0.00199811               -0.32751617                0.14196872                0.87419837                0.14391779                0.11757967
               6.87691027                2.93931462               91.12536347                0.01000000               -0.09826641               -0.21802344                0.08558749                0.64001848                0.05049327                0.14141385
               7.87438653                2.94006112               91.12691153                0.01000000               -0.48840807               -0.18125009                0.22387949                0.82309264                0.11658269                0.25242030
               8.86714211                2.94433621               91.12990458                0.92198753               -0.38214957                0.02198700                0.10427339                0.33540185                0.10636228                0.17253651
               9.86674354                2.94238276               91.13039703                0.99643441               -0.03985732               -0.07543356                0.13194163                0.00648602               -0.01419651               -0.07731980
              -0.10747926                3.94387974               91.09806345                0.54814143               -0.00088076               -0.05756749                0.08444146                0.04194810                0.01300580               -0.02818816
               0.89251193                3.93411247               91.10158409                0.01000000               -0.04568640               -0.10596353                0.10404140                0.46680389                0.07597381                0.08110724
               1.89160701                3.93292456               91.10642355                0.01000000               -0.11978906               -0.14114272                0.09117980                0.92841791                0.16225450                0.18251050
               2.89011615                3.93342380               91.11163288                0.01000000               -0.13472133               -0.18698075                0.11458250                1.10649193                0.19749886                0.19185594
               3.88891258                3.93579605               91.11728787                0.01000000               -0.13788669               -0.11292118                0.12078621                1.19293835                0.18671434                0.19103913
               4.88735841                3.93829457               91.12309116                0.01510664               -0.23023195               -0.16666687                0.14295984                1.09823522                0.10692318                0.13889142
               5.88430794                3.93814017               91.12750525                0.01000000               -0.38113887               -0.24334180                0.19540269                1.04718601                0.07257585                0.09272187
               6.87973564                3.93999200               91.13129437                0.01169514               -0.35900881               -0.09312064                0.14859353                0.96602515                0.18217640                0.01439762
               7.87712777                3.94050878               91.13486037                0.01166212               -0.49206166                0.17659580                0.12034805                0.76225380                0.13153868                0.19455447
               8.86989440                3.94452459               91.13779330                0.53854718               -0.39069790                0.11364847                0.13233495                0.49027370                0.22300984                0.37188901
               9.86931381                3.94170430               91.13726076                0.98838757               -0.05805943               -0.07939345                0.17194176                0.14109799                0.05640755                0.01981998
              -0.09701045                4.94258315               91.10026151                0.89139094               -0.01750129               -0.10334523                0.07844268                0.07692968                0.02133541               -0.07965856
               0.90281453                4.93376507               91.10461534                0.01000000               -0.11857335               -0.01951223                0.10150289                0.38417931                0.11113413                0.05226578
               1.90061808                4.93135079               91.11075972                0.01000000               -0.12378296               -0.27085776                0.13388692                0.91325446                0.21108276                0.15683928
               2.90033887                4.93110254               91.11667007                0.01000000               -0.10727051               -0.13477955                0.10750980                1.07860290                0.16152130                0.22628271
               3.89847267                4.93450434               91.12279530                0.01512637               -0.18840236               -0.21049563                0.14357857                1.10120493                0.13030228                0.10374519
               4.89657083                4.93653527               91.12761877                0.01354512               -0.14372614               -0.12677806                0.13060134                0.87533776                0.05507998                0.05131041
               5.89559815                4.93612261               91.13232993                0.01761244               -0.13543308               -0.14554324                0.13935149                0.93468514                0.07968818                0.04358156
               6.89386216                4.93745221               91.13738596                0.01000000               -0.52495638               -0.12441709                0.21236681                1.37166504                0.05752100                0.09827721
               7.88509902                4.94359303               91.14188179                0.01000001               -0.90550500                0.19030223                0.19359541                1.45103241                0.18550367                0.05759332
               8.87575206                4.94660918               91.14854924                0.07318175               -0.49464712                0.31521400                0.04667134                0.93403938                0.15136746               -0.01240272
               9.87520608                4.94079489               91.14644294                0.99999999               -0.05459889               -0.33357949               -0.12419386                0.54583238               -0.29467799                0.64008248
              -0.08830450                5.94181284               91.10210089                0.98663689               -0.02676281               -0.07334577                0.08604212                0.01810513                0.00495866               -0.09626121
               0.91142787                5.93372222               91.10694682                0.13102213                0.04195624               -0.00286617                0.10644327                0.11027257                0.20423049                0.02252271
               1.91253462                5.92750740               91.11572958                0.01000000               -0.14466037               -0.20363446                0.12444866                0.78214194                0.29718633                0.02901132
               2.90853466                5.93072821               91.12137895                0.01685602               -0.35153385                0.01154399                0.14257930                0.88263298                0.09735502                0.13472518
               3.90550395                5.93158614               91.12696282                0.01000000               -0.26438860               -0.36871811                0.19672312                1.05532890                0.08526065                0.06379344
               4.90324689                5.93575900               91.13203797                0.01760889               -0.17096170               -0.11020227                0.13561904                0.93230891                0.03898571                0.06152263
               5.90208471                5.93522930               91.13717813                0.01000002               -0.17741877               -0.14445839                0.11475133                0.87425546                0.05506616                0.03796451
               6.89969852                5.93750366               91.14245513                0.01000000               -0.25466342                0.04055596                0.13472047                1.33104590                0.15092452                0.10736688
               7.89699145                5.94431482               91.14873002                0.01000001               -0.41625898               -0.00394852                0.22965409                1.90340151                0.36628617               -0.03658534
               8.89137334                5.95082887               91.15668608                0.02782068               -0.25662060               -0.22788188                0.12628643                1.51141979                0.05688266               -0.07465667
               9.89185903                5.93503271               91.15694790                0.88036356                0.04856958               -0.33728786                0.02816644                0.46301269               -0.32395041                0.72932349
              -0.08046712                6.94111623               91.10380080                0.99999998               -0.02074578               -0.06605651                0.07331492                0.00366097                0.01444983               -0.11555035
               0.91932542                6.93370774               91.10939617                0.69868615               -0.01389730               -0.00518862                0.10937234                0.05675923                0.08819080                0.02439993
               1.91925493                6.92727810               91.11639967                0.01000000               -0.27063107               -0.02684553                0.10768533                0.55529529                0.19614174               -0.04563953
               2.91391280                6.93133342               91.12431977                0.01000000               -0.23532399               -0.10803995                0.08938596                0.66024813                0.12126326                0.05041075
               3.91454845                6.92712997               91.13054193                0.01167207               -0.11694781               -0.34424952                0.15336261                0.97472561                0.00421533                0.16683203
               4.91157384                6.93433123               91.13677236                0.01000000               -0.16049248               -0.48331724                0.21559812                1.35917779                0.08556219               -0.00687871
               5.91133860                6.93323345               91.14203441                0.01000000               -0.00881408               -0.21140768                0.13244948                1.31085665                0.12512625                0.06208863
               6.91139756                6.93826332               91.14872154                0.01000002               -0.07483822               -0.02418858                0.16446382                1.70769875                0.18396909                0.04951971
               7.90984184                6.94351406               91.15527306                0.01000000                0.19325062               -0.10284419                0.12104038                1.51700825                0.30864420                0.11501857
               8.91526257                6.94205154               91.16299359                0.15388769                0.31084038               -0.56308447               -0.01016316                1.13739628                0.26876534               -0.16215334
               9.91605865                6.93404913               91.17212322                0.65274848                0.07960727                0.01183563                0.08383075                0.78332391                0.32925118                0.53153951
              -0.07341430                7.94049171               91.10537899                0.99745203               -0.01845183               -0.05119986                0.06852592               -0.00197003                0.01786093               -0.12214793
               0.92640119                7.93361845               91.11170060                0.99286593               -0.02854254               -0.01783008                0.09362095                0.01077393                0.03133509               -0.00287534
               1.92601485                7.92697049               91.11825690                0.01000000               -0.22567140               -0.02369744                0.10952234                0.43138627                0.10752931                0.04877769
               2.92188776                7.92856741               91.12604085                0.01000000               -0.20071011               -0.49306142                0.19812227                0.85087162                0.26003179                0.04852650
               3.92200065                7.92470115               91.13398269                0.01169165                0.12196092               -0.49299989                0.13225537                0.82018111                0.14343771                0.13738164
               4.92432698                7.92609266               91.14037470                0.01000001                0.11845488               -0.91666350                0.22417085                1.50612742                0.01726033                0.06024136
               5.92436975                7.93100115               91.14735324                0.01000001               -0.03775513               -0.46112910                0.22496671                1.95550726                0.05784747                0.18257801
               6.92357187                7.93701989               91.15416506                0.01000000               -0.04131762                0.09541716                0.13937442                1.56742726                0.23939212                0.14543431
               7.92354340                7.94225794               91.16192278                0.02707535                0.00071612               -0.10289337                0.10463504                1.09765493                0.31891814                0.13101732
               8.92358620                7.93956718               91.17064026                0.32585925               -0.00065348               -0.14799356                0.12062917                0.28335687                0.16252558                0.05488287
               9.92353033                7.93526942               91.17889029                0.90657677               -0.00558693                0.08129210                0.21426594                0.13728763                0.13736733               -0.12347079
              -0.06676001                8.94009224               91.10693083                1.00000000               -0.01778767               -0.03159163                0.06366834               -0.00914634               -0.00378104               -0.09820130
               0.93306211                8.93335114               91.11366232                0.99999998               -0.01531466               -0.02532849                0.08295479               -0.00419680                0.00843098               -0.01546687
               1.93293370                8.92680416               91.12057981                0.98600517                0.00687308               -0.01939513                0.09963801                0.05641683                0.07873783                0.04751304
               2.93319958                8.92147219               91.12858557                0.91873718                0.02465637               -0.37465426                0.10139630                0.33979766                0.16371365                0.09203738
               3.93342682                8.91726998               91.13677331                0.57002431                0.10984076               -0.40135823                0.13585320                0.50274251                0.35726690                0.21984576
               4.93539639                8.91599796               91.14768829                0.10743815                0.30473481               -0.52827326                0.14422939                0.95304436                0.53124639               -0.32205447
               5.93952152                8.92401086               91.15659286                0.07128512               -0.19535385               -0.32047941                0.21854955                1.55902182                0.39617663               -0.18585713
               6.93148931                8.94017167               91.16246733                0.19727727               -0.51369388                0.19174770                0.15090607                1.20491958                0.22838569               -0.00362192
               7.92924764                8.94145620               91.17011327                0.27848950               -0.17855439               -0.04033720                0.19501204                0.32159883                0.15751047                0.10251192
               8.92791823                8.93909167               91.17593701                1.00000000               -0.09238667               -0.05004111                0.15786719                0.10757349               -0.02346332               -0.02312838
               9.92739991                8.93567497               91.18223624                0.99926113               -0.05183161               -0.01302487                0.19932472                0.02355297               -0.00360440               -0.14594263
              -0.06011503                9.93985988               91.10895936                0.99959547               -0.02796402               -0.02323617                0.05899062               -0.01030126               -0.06414863               -0.07326716
               0.93960533                9.93311188               91.11570939                0.99635815               -0.04314158               -0.02392586                0.07851476               -0.00954250               -0.07513895               -0.00820464
               1.93902214                9.92658259               91.12222684                0.99999997               -0.06937200               -0.02215662                0.10395756                0.00696648               -0.08414843                0.01966107
               2.93821789                9.92107433               91.12892558                0.99798254               -0.07462024               -0.03978650                0.12907098                0.00640129               -0.07869904               -0.01492381
               3.93752974                9.91667398               91.13609022                0.99040193               -0.07854576               -0.05959929                0.17266937                0.13293451                0.01478240                0.05412736
               4.93664698                9.91552719               91.14556872                0.99999998               -0.30766300               -0.04707625               -0.12578162                0.52093737                0.66500231               -0.74157602
               5.93137647                9.92459156               91.15564633                0.92834084               -0.32110216                0.05806953                0.09192363                0.45187770                0.86995985               -0.64656070
               6.93022493                9.94085484               91.17094032                0.67939157               -0.01605504                0.06831723                0.21710708                0.71654377                0.49507760                0.02638862
               7.93105537                9.94145120               91.17799449                0.84137961                0.06469785               -0.00050012                0.29681459                0.06634895               -0.13981656                0.11063880
               8.93151889                9.93856636               91.18185048                0.99921506               -0.01102992               -0.05253101                0.20426039                0.03795297               -0.13063447                0.00296767
               9.93083478                9.93500893               91.18824575                0.99521320               -0.06841144               -0.06660467                0.21547852               -0.01225652                0.01037271                0.00157034
              -0.13578946               -0.06019896               92.08723501                0.86860595               -0.00424746               -0.00444175                0.07366724               -0.00233508                0.00637690                0.00403010
               0.86416807               -0.06381526               92.09024388                0.72361999                0.02756343               -0.03609452                0.07424674                0.01729852                0.01372296                0.00681729
               1.86476181               -0.06639898               92.09342388                0.69372247                0.06356458               -0.03251273                0.07865600                0.03691960                0.03064071                0.00415698
               2.86543936               -0.06658375               92.09671609                0.57113680                0.03484853               -0.00780288                0.07806883                0.05721296                0.02832463                0.00226230
               3.86545878               -0.06421810               92.09994641                0.61856476               -0.05946816               -0.00442272                0.08039555                0.03792390               -0.03103146                0.01357810
               4.86424999               -0.06163966               92.10232904                0.97875866               -0.09512265               -0.01663587                0.07053382                0.07095723               -0.07554186                0.02246809
               5.86355633               -0.06065389               92.10450541                0.98600175               -0.07151904               -0.02207210                0.07222201                0.00985404               -0.10228881                0.00633949
               6.86281961               -0.06057623               92.10632551                0.99999999               -0.06514910               -0.01728685                0.06678175                0.00005753               -0.12279752                0.02274246
               7.86225334               -0.06122810               92.10810627                0.99622078               -0.04647763               -0.01715735                0.06297776               -0.00707956               -0.12148897                0.01325877
               8.86189006               -0.06214603               92.10983045                0.99973335               -0.02851048               -0.01487287                0.05884291               -0.00969721               -0.09544800               -0.00670129
               9.86168313               -0.06306106               92.11203008                0.97676509               -0.02069259               -0.02643640                0.05027766               -0.00864612               -0.06882238               -0.05566497
              -0.13219651                0.93975662               92.08998483                0.72234441               -0.03624313                0.02731772                0.07474990                0.01741635                0.00601123                0.01062468
               0.86744106                0.93582379               92.09301307                0.46303351               -0.06441215               -0.06422523                0.07637911                0.07237472                0.01643457                0.01801698
               1.86651525                0.93327590               92.09622643                0.14955342               -0.12600048               -0.04669192                0.08304829                0.21130748                0.03988203               -0.00009734
               2.86492105                0.93333822               92.09962401                0.01000000               -0.15746366               -0.08294818                0.09107440                0.36901914                0.07317831               -0.03256565
               3.86336597                0.93573767               92.10330055                0.01000000               -0.08717949               -0.06674127                0.10361334                0.42040298                0.08784676                0.06500035
               4.86317746                0.93819398               92.10654252                0.01524704               -0.01214119               -0.05941325                0.09451451                0.28667227                0.05514937                0.13278618
               5.86312315                0.93912539               92.10922951                0.42969654               -0.00350837                0.02803742                0.11014065                0.08582289                0.03310258                0.16986280
               6.86310729                0.93925091               92.11194772                0.91604913               -0.00778493               -0.01952932                0.10277513                0.03188404                0.01473558                0.06696072
               7.86296745                0.93860033               92.11427745                1.00000000               -0.01988605               -0.02514834                0.08121789                0.00039752               -0.01976201                0.01831496
               8.86270957                0.93770524               92.11635259                0.99877234               -0.02278740               -0.01216395                0.07076139               -0.00364632               -0.02262668                0.00389246
               9.86251170                0.93667457               92.11860275                0.99999999               -0.01978673               -0.04656039                0.06725994               -0.00711787               -0.01025805               -0.06226351
              -0.12757548                1.94034739               92.09289061                0.69029498               -0.03282382                0.06333444                0.07975610                0.03775101                0.00348611                0.02751871
               0.87209629                1.93490023               92.09598416                0.14541292               -0.04754987               -0.12617986                0.08272864                0.21278111               -0.00329867                0.04295919
               1.87147353                1.93266718               92.09902603                0.01000000               -0.08691606               -0.08474817                0.08142166                0.40458025               -0.01170116               -0.00499705
               2.87035796                1.93175729               92.10186810                0.01000000               -0.12312234               -0.09307013                0.09354397                0.71231889                0.14352515                0.09974424
               3.86901108                1.93444707               92.10774550                0.01000001               -0.18811226               -0.10910284                0.08131683                0.90786841                0.26742723                0.13517827
               4.86659572                1.93717208               92.11299717                0.01000000               -0.23976095               -0.13330446                0.16856392                0.84978343                0.12741427                0.29956186
               5.86421586                1.93990686               92.11709598                0.01000000               -0.13066830               -0.13037536                0.04418785                0.61443683                0.06951203                0.19890135
               6.86398235                1.93903319               92.11843129                0.01319536               -0.02044501               -0.19350486                0.08716551                0.37636471               -0.02969475                0.14680548
               7.86380696                1.93826894               92.12053115                0.01624869               -0.01197319               -0.05165233                0.08727624                0.21812621                0.03974881                0.14305687
               8.86374289                1.93761069               92.12306952                0.98998236               -0.01024263                0.01437110                0.08674347                0.06602753                0.04186729                0.06406539
               9.86360211                1.93600773               92.12507315                0.99999999               -0.01407814               -0.09310645                0.10547303                0.01166953                0.02122564               -0.06812239
              -0.12054717                2.94102331               92.09592196                0.56691499               -0.00759397                0.03329333                0.07951647                0.05814551                0.00189575                0.02575439
               0.87937689                2.93330020               92.09915539                0.01000000               -0.08515167               -0.15701350                0.09039697                0.37250480               -0.03810513                0.07745691
               1.87774980                2.93158093               92.10161976                0.01000000               -0.09946753               -0.11702956                0.08995074                0.71561857                0.08732466                0.15080157
               2.87738754                2.93147682               92.10770280                0.01000000               -0.08206206               -0.07076548                0.04708831                0.90894123                0.22756304                0.23476101
               3.87610855                2.93355561               92.11301548                0.01000001               -0.13370993               -0.12406287                0.10602273                0.99378502                0.16958309                0.22027415
               4.87471334                2.93552789               92.11813348                0.01039949               -0.12788898               -0.14358198                0.11765718                0.96886847                0.15489502                0.23212284
               5.87355078                2.93651788               92.12331626                0.01000000               -0.12204161               -0.24516294                0.08871285                0.84558425                0.02998935                0.21256917
               6.87227251                2.93538081               92.12588433                0.01000001               -0.23991504               -0.28129162                0.09534464                0.85241048               -0.14140400                0.31217185
               7.86875247                2.93756728               92.12911998                0.01000000               -0.29905905               -0.10395414                0.18905064                0.74229222               -0.20592023                0.41151931
               8.86629133                2.93799266               92.13078765                0.95762857               -0.14007312                0.05281898                0.08439786                0.20368516                0.02100243                0.12430009
               9.86595101                2.93481244               92.13177399                0.99924814               -0.03403156               -0.12961426                0.14753536                0.01403751               -0.00628831               -0.04925759
              -0.11096634                3.94101326               92.09888969                0.61983896               -0.00449035               -0.06239641                0.08198781                0.03870443                0.01344540               -0.03406304
               0.88898876                3.93175996               92.10261217                0.01000000               -0.07121959               -0.08416921                0.10190898                0.42511597                0.05835013                0.09100846
               1.88760927                3.93032659               92.10729779                0.01000001               -0.12133262               -0.17585673                0.08177723                0.90914377                0.12238334                0.27197280
               2.88656211                3.93034198               92.11277365                0.01000001               -0.13867819               -0.12143076                0.10627903                0.99481697                0.20949441                0.17332203
               3.88483571                3.93196581               92.11875315                0.01000000               -0.17756441               -0.16145993                0.17424914                1.10434579                0.23952793                0.23985016
               4.88301082                3.93430044               92.12429683                0.01000000               -0.17805386               -0.16654073                0.12970387                1.01567118                0.22177794                0.08177661
               5.88127463                3.93500360               92.12927176                0.01509704               -0.15148288               -0.15032208                0.12902754                0.77892573                0.14526940                0.16875094
               6.87998116                3.93340736               92.13281720                0.01000001               -0.26168395               -0.14718078                0.14982057                0.86764911                0.19801516                0.14266044
               7.87604095                3.93618985               92.13623294                0.01000001               -0.47048656               -0.01132044                0.12017105                0.94203591                0.06972918                0.29592494
               8.87057143                3.93866707               92.13879944                0.87128464               -0.28988302                0.10219710                0.06665417                0.44290777                0.12975919                0.18382355
               9.87024329                3.93341545               92.13912185                0.99999998               -0.03281394               -0.15427110                0.16966056                0.07214534                0.04157229                0.00698681
              -0.10126649                4.93977538               92.10099925                0.98232897               -0.01676345               -0.09685777                0.07229036                0.07208787                0.02178563               -0.07622821
               0.89856588                4.93161681               92.10559606                0.01459133               -0.06914277               -0.00915686                0.09236037                0.29338520                0.12278342                0.05424988
               1.89735066                4.92806380               92.11224590                0.01000000               -0.14606095               -0.23270623                0.16585197                0.85979236                0.28078555                0.14193078
               2.89564466                4.92904821               92.11766162                0.01039848               -0.15568209               -0.11593398                0.11877255                0.97214395                0.22459832                0.14759329
               3.89423701                4.93032641               92.12402867                0.01000000               -0.18278393               -0.16472556                0.13254284                1.01918461                0.08202164                0.21269656
               4.89198898                4.93219708               92.12899032                0.01000001               -0.21073211               -0.19418312                0.17763980                1.02766518                0.01967017                0.01124113
               5.89002237                4.93351144               92.13367901                0.01000001               -0.17748706               -0.18921350                0.16507533                0.84345710               -0.05528983                0.14964019
               6.88843924                4.93243719               92.13904056                0.01000001               -0.38444461               -0.02143730                0.14410379                0.97110237               -0.08747804                0.18569801
               7.88233348                4.93734087               92.14400544                0.01000000               -0.52576729                0.08052688                0.13448173                1.21762787                0.18323140                0.09434911
               8.87792389                4.94003660               92.14761297                0.60323351               -0.22181564                0.12149146               -0.06402143                0.77471471                0.25466819                0.11213210
               9.87789717                4.93172702               92.14793683                0.99999999               -0.00267252               -0.23173400                0.13075318                0.26710009                0.12717359                0.14984411
              -0.09320744                5.93907610               92.10292593                0.98558555               -0.02245137               -0.07264474                0.07441488                0.00964955                0.00553037               -0.10144762
               0.90656805                5.93157683               92.10802175                0.41582760                0.02905807               -0.00181592                0.10786762                0.08908097                0.16832684                0.03152073
               1.90737372                5.92567247               92.11624794                0.01000000               -0.14128397               -0.13001586                0.04264267                0.63212581                0.18437756                0.07457473
               2.90374237                5.92802330               92.12255145                0.01000000               -0.26515982               -0.11286083                0.09511474                0.85434135                0.20157475                0.02084261
               3.90207053                5.92867130               92.12876772                0.01508583               -0.16816364               -0.14375870                0.13245819                0.78518515                0.16599827                0.13701053
               4.90037910                5.93041677               92.13337867                0.01000001               -0.20834343               -0.16436809                0.16657752                0.84719590                0.15659865               -0.06817152
               5.89790366                5.93121933               92.13851980                0.01000000               -0.24026604               -0.22668281                0.21482013                0.96674069                0.13681490                0.11247146
               6.89557378                5.93297861               92.14376339                0.01000001               -0.25547803                0.04196030                0.19897279                1.25605418                0.23688798                0.15463280
               7.89279410                5.93780039               92.15068155                0.01000001               -0.19470998                0.01957304                0.11235390                1.69094463                0.25032558               -0.02324991
               8.89167958                5.94109690               92.15573893                0.61797890               -0.02948219               -0.10806985               -0.02623640                0.94692154                0.27114888               -0.15358633
               9.89220445                5.92878077               92.15953889                0.99212653                0.05248782               -0.18492267                0.16329502                0.18676851                0.20330681                0.40159377
              -0.08607494                6.93832249               92.10450224                0.99981075               -0.01739262               -0.06697847                0.06897197                0.00069180                0.02162797               -0.12128963
               0.91375113                6.93158049               92.11048076                0.90067874               -0.01891802               -0.00629998                0.10226258                0.03447573                0.06709144                0.01417257
               1.91354670                6.92546348               92.11734165                0.01321243               -0.20092412               -0.01865941                0.08473622                0.38103635                0.13744021               -0.03322877
               2.90973265                6.92679099               92.12498341                0.01000001               -0.29997278               -0.22681066                0.10369786                0.85315541                0.30502238               -0.14530254
               3.90754724                6.92745124               92.13210892                0.01000001               -0.16738899               -0.25879657                0.15412499                0.87717640                0.12853492                0.19272676
               4.90638487                6.92890972               92.13849222                0.01000001               -0.03759457               -0.39032282                0.15224008                0.98661216                0.18944071               -0.11053139
               5.90679535                6.92897778               92.14337896                0.01000001                0.02971951               -0.26418806                0.20854131                1.26788950                0.17872370                0.19869500
               6.90697926                6.93327640               92.15023437                0.01000001                0.06193664                0.04619257                0.14119831                1.60274581                0.14165215                0.07522125
               7.90803408                6.93773234               92.15617382                0.03798730               -0.05486555               -0.11284728                0.14762558                1.42434486                0.21419549                0.01765462
               8.90588195                6.93787521               92.16352071                0.87404421               -0.08846405               -0.27632714                0.06231857                0.69239127               -0.06941862                0.14054116
               9.90626480                6.92802857               92.17046226                0.99681643                0.03828538               -0.02401958               -0.08477568                0.18294024               -0.12430444                0.27617398
              -0.07970961                7.93773654               92.10605144                0.99999999               -0.01738169               -0.04809136                0.06532222               -0.00661742                0.01333650               -0.11810470
               0.92011657                7.93145083               92.11257661                1.00000000               -0.02532168               -0.01923857                0.08146685                0.00118677                0.01903567               -0.01943578
               1.91978395                7.92529928               92.11919508                0.01481104               -0.06494268               -0.01108149                0.08551465                0.23048575                0.13579856                0.03529305
               2.91881772                7.92348709               92.12798155                0.01000000               -0.11443128               -0.30006138                0.16809321                0.74765810                0.39026191               -0.18752859
               3.91749533                7.92349537               92.13540976                0.01000001               -0.01164606               -0.47146676                0.12094839                0.93499139                0.28987542                0.05444282
               4.91858480                7.92261032               92.14323884                0.01000000                0.06997193               -0.53627002                0.17765694                1.22115301                0.11755586                0.14524417
               5.91889477                7.92593557               92.15010400                0.01000001                0.01446727               -0.21445223                0.15787286                1.69472103                0.04165795                0.20181835
               6.91887414                7.93390246               92.15588859                0.03749241               -0.11062896               -0.08052901                0.19366235                1.44601332                0.08859761                0.13720837
               7.91668219                7.93554345               92.16303875                0.01000001               -0.18214871               -0.19023224                0.15103074                0.88180741                0.06293172                0.05899046
               8.91523117                7.93557036               92.17089814                0.90787822               -0.05628271               -0.23363791                0.04053673                0.42425386                0.00440755                0.11809889
               9.91555653                7.92830037               92.17862320                0.99532221                0.03253663                0.06051240               -0.02134821                0.00878588                0.00747509               -0.00928049
              -0.07363587                8.93736066               92.10756415                0.99981696               -0.01520041               -0.02953260                0.06115161               -0.00946341               -0.00586627               -0.09174321
               0.92621212                8.93119572               92.11442320                0.99025016               -0.01219870               -0.02272653                0.07109618               -0.00343789                0.00454488               -0.02248590
               1.92612015                8.92524185               92.12147149                0.99076202                0.01387987               -0.00982689                0.08539985                0.06570168                0.06147134                0.03830982
               2.92648972                8.92078976               92.12947165                0.96050717                0.05018431               -0.15170448                0.08477573                0.21438551                0.11852730                0.02170325
               3.92712384                8.91802191               92.13777278                0.87158860                0.09390065               -0.28916264                0.06641959                0.44127973                0.17141025                0.12363046
               4.92836773                8.91818432               92.14679317                0.60786308                0.11368951               -0.22186212               -0.06072973                0.76634046                0.09913637                0.25362716
               5.92939763                8.92468874               92.15508270                0.62548176               -0.10380416               -0.03651736               -0.05529447                0.94340073               -0.16344046                0.28442570
               6.92629165                8.93166582               92.16304234                0.87128568               -0.26976458               -0.09284035                0.06482823                0.69530062                0.09903041               -0.03549759
               7.92400234                8.93392769               92.17065300                0.90546274               -0.23407758               -0.06455082                0.05467721                0.43304075                0.06448289                0.03463351
               8.92161010                8.93320245               92.17737284                0.99999999               -0.15109270               -0.15080335                0.11776660                0.24303767                0.01495080                0.02254040
               9.92098048                8.92923882               92.18428017                0.99128799               -0.06296147                0.02962575                0.16291309                0.04728394                0.01747007               -0.09171535
              -0.06756900                9.93714588               92.10952950                0.97354415               -0.02643739               -0.02147770                0.05263378               -0.00827162               -0.05211766               -0.06580011
               0.93216662                9.93099630               92.11643711                0.99999999               -0.04635249               -0.01994252                0.06798853               -0.00670695               -0.05815982               -0.01056050
               1.93150395                9.92510274               92.12325213                0.99999998               -0.09206253               -0.01391079                0.10407684                0.01121452               -0.06455737                0.01912980
               2.93032537                9.92045300               92.13029656                0.99999996               -0.12887890               -0.03367649                0.14595427                0.01403412               -0.04846016               -0.00469862
               3.92892637                9.91771212               92.13793864                0.99999998               -0.15403007               -0.03097864                0.16782854                0.06625696                0.00127159                0.03853696
               4.92724477                9.91817308               92.14690449                0.99999999               -0.23225445               -0.00112409                0.12419552                0.26235898                0.13467679                0.11394717
               5.92428128                9.92520522               92.15860957                0.97397397               -0.18517836                0.05164819                0.18108742                0.18199401                0.36132312                0.20235932
               6.92354120                9.93204565               92.16965882                1.00000000               -0.02374533                0.03798350               -0.06589409                0.17731582                0.24869508               -0.09113789
               7.92380637                9.93425243               92.17807260                1.00000000                0.06197949                0.03247390               -0.00409562                0.00583532               -0.00945122                0.03229099
               8.92478079                9.93255429               92.18397219                0.99125939                0.03115506               -0.06481604                0.16833959                0.04909255               -0.09218439                0.02205164
               9.92442947                9.92889289               92.19026464                1.00000000               -0.03513193               -0.03459290                0.20223040               -0.02124083               -0.03781697               -0.04123084
              -0.13873770               -0.06291189               93.08798040                0.83400160               -0.00574388               -0.00592700                0.07592885               -0.00317339                0.00611129                0.00421834
               0.86120486               -0.06651841               93.09098960                0.67933679                0.02773180               -0.03522354                0.07566908                0.01505241                0.01513661                0.00841549
               1.86181693               -0.06916930               93.09421323                0.69055850                0.06127981               -0.03534247                0.07952290                0.02889675                0.02835328                0.00794898
               2.86243046               -0.06953160               93.09749549                0.60544110                0.02551338               -0.01263841                0.08185175                0.05409847                0.02075193                0.00574317
               3.86232720               -0.06755385               93.10074482                0.70671443               -0.05932593               -0.00718937                0.07773549                0.03838359               -0.04128363                0.01613343
               4.86124394               -0.06577296               93.10302089                0.97514108               -0.09086769               -0.02073731                0.07027513                0.05479043               -0.08548459                0.01478736
               5.86050985               -0.06547276               93.10514841                0.99797150               -0.07150163               -0.01398082                0.06065562                0.00753693               -0.10864074                0.01721379
               6.85981390               -0.06613937               93.10698423                0.99864272               -0.05887896               -0.01808224                0.06036996               -0.00396572               -0.11855698                0.02085825
               7.85933227               -0.06737299               93.10872258                0.99551619               -0.03814203               -0.01619158                0.05528450               -0.00839220               -0.11440696                0.00807185
               8.85905106               -0.06878341               93.11040472                0.87535302               -0.02200324               -0.01561573                0.05388578               -0.01256454               -0.08937354               -0.00818773
               9.85889220               -0.07016530               93.11249807                0.89436077               -0.01588599               -0.03058591                0.05264744               -0.01181016               -0.06874498               -0.04038404
              -0.13516292                0.93702884               93.09073534                0.67826215               -0.03529932                0.02753830                0.07612225                0.01514569                0.00787679                0.01254292
               0.86448409                0.93312936               93.09377322                0.47500256               -0.06122936               -0.06116495                0.07624893                0.06249882                0.02004666                0.02101979
               1.86361250                0.93047727               93.09704968                0.29437720               -0.11601879               -0.04575085                0.08161591                0.19046024                0.04752965                0.00472874
               2.86216371                0.93034202               93.10052115                0.01000000               -0.13903886               -0.08024944                0.08863524                0.34395614                0.09355279               -0.03376611
               3.86083172                0.93237426               93.10432703                0.01000000               -0.07062102               -0.06862694                0.10038266                0.37334361                0.09589459                0.04435124
               4.86075129                0.93401967               93.10742677                0.02507979               -0.00316485                0.00650658                0.09552681                0.20806066                0.05888942                0.16432742
               5.86076842                0.93438744               93.11032945                0.73397466               -0.00134655                0.00272616                0.10616583                0.06882030                0.03760160                0.11890794
               6.86072436                0.93367981               93.11290622                0.96637692               -0.00990271               -0.02543277                0.08936789                0.01208177               -0.00457513                0.04033725
               7.86057037                0.93246510               93.11502958                0.91641786               -0.02013932               -0.02373148                0.07341391               -0.00536995               -0.03520205                0.01080663
               8.86032158                0.93106043               93.11701003                0.85019540               -0.02071861               -0.01427455                0.06693083               -0.00919882               -0.02991001                0.00446032
               9.86015600                0.92952884               93.11922231                0.99715979               -0.01655811               -0.05777095                0.06899432               -0.01304779               -0.01762857               -0.03806041
              -0.13063582                1.93763888               93.09369024                0.68785809               -0.03577771                0.06108352                0.08045236                0.02944191                0.00748947                0.02561064
               0.86900640                1.93225829               93.09680507                0.29122493               -0.04753522               -0.11619436                0.08145059                0.19280387                0.00255413                0.04957859
               1.86841348                1.92991568               93.09984733                0.01000000               -0.07969041               -0.07796730                0.08538663                0.37763804                0.00216558                0.00648478
               2.86741259                1.92886341               93.10295925                0.01000001               -0.11485256               -0.08550983                0.10331760                0.66151457                0.13116030                0.08884128
               3.86611642                1.93107361               93.10850955                0.01000000               -0.20103127               -0.11068352                0.02452836                0.85538449                0.31690485                0.09736065
               4.86339197                1.93435717               93.11487208                0.01617738               -0.19451564               -0.04041291                0.18506792                0.62521115                0.13147166                0.27683820
               5.86222611                1.93458177               93.11745067                0.01422079               -0.07070457               -0.06611920                0.04318051                0.37135924                0.01214992                0.13984908
               6.86197788                1.93335198               93.11920297                0.01059148               -0.01909331               -0.12538349                0.08186900                0.25623621               -0.00815717                0.14164507
               7.86184425                1.93215238               93.12132139                0.03246094               -0.00872659                0.00623079                0.08958358                0.11867802                0.03437669                0.16642202
               8.86180335                1.93093110               93.12389104                1.00000000               -0.00749041                0.00159260                0.09031361                0.05567327                0.03466122                0.05367577
               9.86169444                1.92867928               93.12612506                0.99999999               -0.01089087               -0.10899675                0.11034307               -0.00072785                0.01604696               -0.03095577
              -0.12381291                2.93825051               93.09671439                0.60221714               -0.01237257                0.02411609                0.08304065                0.05452135                0.00549430                0.01835198
               0.87606336                2.93080547               93.10004540                0.01000000               -0.08134771               -0.13831621                0.08788225                0.34659264               -0.03770253                0.09665089
               1.87456013                2.92891793               93.10271759                0.01000001               -0.09136442               -0.10889000                0.10402998                0.66530358                0.08327017                0.13605929
               2.87423607                2.92863182               93.10800657                0.01000001               -0.10572424               -0.09659951               -0.06251382                0.83403660                0.19904270                0.20132793
               3.87244565                2.93016059               93.11399656                0.01000000               -0.22443575               -0.07468758                0.15262138                1.03215630                0.21100345                0.25773566
               4.86974736                2.93321141               93.11950936                0.01000000               -0.16224238               -0.26419550                0.12199689                1.03939303                0.09170706                0.20682281
               5.86920080                2.93306505               93.12397069                0.01500793               -0.07344445               -0.17146702                0.08162649                0.72137896                0.01506588                0.17237331
               6.86827847                2.93117214               93.12727036                0.01000000               -0.19179989               -0.18314995                0.13395576                0.71407751                0.02147047                0.21494131
               7.86536480                2.93258971               93.13069255                0.01580272               -0.16851620               -0.03052854                0.14011506                0.53080052               -0.08036229                0.25140320
               8.86490815                2.93109229               93.13159253                0.94719236               -0.03598621                0.02223175                0.08672761                0.12782577               -0.03524064                0.06219139
               9.86464508                2.92734890               93.13334773                0.99999999               -0.02630666               -0.14990411                0.15224825                0.01596161                0.01006570               -0.00217030
              -0.11465531                3.93812120               93.09970321                0.70888643               -0.00738508               -0.06140798                0.07895122                0.03930390                0.01590264               -0.04390148
               0.88527084                3.92949197               93.10362227                0.01000000               -0.07257484               -0.06824942                0.09897262                0.37884332                0.03994894                0.09779470
               1.88389319                3.92773788               93.10805909                0.01000000               -0.12100858               -0.18393353                0.02432683                0.85237757                0.09032689                0.31248515
               2.88285067                3.92693142               93.11375847                0.01000000               -0.08566153               -0.21776061                0.15355763                1.03269851                0.25200899                0.21220072
               3.88217996                3.92957986               93.12077285                0.01695817               -0.07876526               -0.07084403                0.14389870                0.92402969                0.24240468                0.24431962
               4.88127536                3.92907326               93.12568524                0.01440703               -0.17435014               -0.27665766                0.15200640                0.95695494                0.16932302                0.09928773
               5.87869296                3.93115243               93.13008580                0.01000001               -0.22702981               -0.15988365                0.11110593                0.79285115                0.09324681                0.11880591
               6.87673477                3.92968898               93.13429078                0.01321110               -0.30764251               -0.04760822                0.12209667                0.69485442               -0.06134176                0.21978663
               7.87254011                3.93154181               93.13726379                0.01000000               -0.35670476               -0.07791569                0.11414612                0.82565916               -0.08506013                0.14462526
               8.86960067                3.93137573               93.13912638                0.64331103               -0.15198384                0.04100240                0.04988962                0.30726372                0.01182404                0.04921062
               9.86950043                3.92568120               93.14065397                0.99999999               -0.01002381               -0.19870835                0.15837800                0.05338336                0.00028058                0.06897879
              -0.10576837                4.93702235               93.10170732                0.97662723               -0.02080794               -0.09201511                0.07220177                0.05530126                0.01463771               -0.08585655
               0.89402355                4.92944048               93.10646254                0.02241439               -0.00316981               -0.00120157                0.09376198                0.22092314                0.15490610                0.05753197
               1.89416823                4.92523926               93.11407676                0.01619114               -0.04877406               -0.19173650                0.18930305                0.63177088                0.27664601                0.13160331
               2.89304807                4.92427661               93.11904552                0.01000000               -0.26919127               -0.15540745                0.12229693                1.03500815                0.20724299                0.09140252
               3.88878440                4.92874370               93.12544616                0.01440772               -0.28670878               -0.16668783                0.15391346                0.96091872                0.09843713                0.16479044
               4.88731389                4.92767826               93.13117156                0.01000000               -0.21711473               -0.20897958                0.16641093                0.82375458                0.04332630                0.03659479
               5.88444211                4.92986738               93.13563144                0.01000002               -0.27638584               -0.16868205                0.22788643                0.91425240                0.05096119                0.12748415
               6.88178617                4.93021998               93.14026804                0.01000000               -0.21254400               -0.01432403                0.16441218                0.83518895                0.06296027                0.16186908
               7.88019123                4.93103140               93.14457142                0.01000001               -0.24360679                0.00698200                0.07163949                0.95873347                0.12570640                0.01912619
               8.87691404                4.93191233               93.14726881                0.52483025               -0.15447032                0.02368367                0.00196737                0.53408237                0.04322631                0.05814233
               9.87710182                4.92337474               93.14905800                0.99880611                0.01877862               -0.25710189                0.14332665                0.08748114                0.00501219                0.20680515
              -0.09838554                5.93628090               93.10358918                0.99775991               -0.01420594               -0.07287092                0.06250623                0.00754189                0.01622845               -0.10817357
               0.90147240                5.92946794               93.10910417                0.72234790                0.00390123               -0.00020730                0.10524535                0.07132724                0.11906707                0.03713374
               1.90169248                5.92390315               93.11658243                0.01422698               -0.07130077               -0.07864335                0.04120951                0.38440995                0.13124529                0.01849029
               2.90004638                5.92382327               93.12328125                0.01501560               -0.18478951               -0.06396717                0.08542181                0.72704300                0.16794869                0.01185158
               3.89799669                5.92624610               93.12961198                0.01000001               -0.17098012               -0.22006200                0.11418433                0.79481642                0.11778336                0.08977153
               4.89662678                5.92489367               93.13536952                0.01000002               -0.17802010               -0.27089125                0.23188970                0.91557065                0.13327592                0.03940795
               5.89443629                5.92777879               93.14147453                0.01000001               -0.21761274               -0.21221132                0.27302600                1.16188197                0.15734626                0.14329284
               6.89227452                5.92940250               93.14643459                0.01000000               -0.22069338               -0.12887139                0.27032115                1.17761190                0.11439807                0.02241056
               7.89002242                5.93168145               93.15097710                0.01624923               -0.21677714                0.02392782                0.06319699                1.15475480                0.15289648                0.04380117
               8.88793898                5.93184941               93.15616135                0.56312909               -0.08485858               -0.11045913                0.04831050                0.57647111                0.07413614               -0.03835849
               9.88832525                5.92053916               93.16021380                1.00000000                0.03862679               -0.14432194                0.07591402               -0.00164381                0.00191984                0.31807705
              -0.09199162                6.93556493               93.10518024                0.99839269               -0.01805450               -0.06065968                0.06245180               -0.00347844                0.02055260               -0.11734523
               0.90782784                6.92943633               93.11144142                0.96086974               -0.02536458               -0.00903201                0.08967519                0.01336581                0.04057192               -0.00452440
               1.90750109                6.92366639               93.11809440                0.01055342               -0.12909319               -0.01783189                0.07991414                0.25971695                0.13584080               -0.01134400
               2.90524597                6.92299727               93.12639373                0.01000000               -0.19453767               -0.17473387                0.13289902                0.70540044                0.20675169                0.01155045
               3.90361034                6.92434246               93.13362443                0.01324400               -0.05766770               -0.30599773                0.12522174                0.69036725                0.21936373               -0.06456067
               4.90409262                6.92226043               93.13981716                0.01000000               -0.02197068               -0.20985381                0.16994680                0.83188842                0.16735069                0.05261761
               5.90317092                6.92562315               93.14620524                0.01000000               -0.13284373               -0.22225092                0.27868611                1.17494897                0.03347162                0.09715855
               6.90143574                6.92764255               93.15154551                0.01000001               -0.11657544               -0.12232054                0.19624544                1.30106729                0.03570278                0.02270320
               7.90083941                6.93150996               93.15822557                0.01513985               -0.09249953               -0.13614437                0.17412046                1.09153345               -0.06529427               -0.03294312
               8.89958575                6.92970315               93.16423996                0.79178697               -0.05749845               -0.18861924                0.06608149                0.45646307                0.00863304               -0.05122497
               9.89968945                6.92048830               93.17042771                0.98590015                0.01036918                0.03633726                0.00840059                0.07373749               -0.00473955                0.18759513
              -0.08619792                7.93506770               93.10668543                0.99820591               -0.01638275               -0.03928083                0.05676028               -0.00823184                0.00838979               -0.11160568
               0.91363826                7.92928730               93.11332994                0.91530935               -0.02380982               -0.01977025                0.07352331               -0.00516777                0.01146675               -0.03501652
               1.91332589                7.92354651               93.11996719                0.02621801               -0.00799708               -0.00765430                0.08761592                0.13274436                0.15325517                0.03064196
               2.91347832                7.92032860               93.12940272                0.01581930               -0.03925084               -0.17030107                0.14242369                0.53012483                0.25494044               -0.09534716
               3.91254087                7.92012615               93.13640166                0.01000000               -0.07472277               -0.35643772                0.11078907                0.81455850                0.14837273               -0.08427618
               4.91198386                7.92069659               93.14392783                0.01000001                0.00061403               -0.24277891                0.07886952                0.95920961                0.01225835                0.12931338
               5.91255315                7.92333377               93.15051070                0.01589210                0.02126038               -0.22146772                0.06938866                1.15460542                0.04221660                0.15167774
               6.91240907                7.92695609               93.15803831                0.01448460               -0.13803324               -0.09755298                0.17771462                1.10443400               -0.04134856               -0.05808442
               7.90979249                7.92895857               93.16494340                0.02638652               -0.21595827               -0.21974685                0.16678233                0.82441628               -0.08123313               -0.07347072
               8.90808990                7.92807702               93.17145099                1.00000000               -0.07813906               -0.16173656                0.05090313                0.36558266               -0.01866956               -0.07420468
               9.90822971                7.92126590               93.17846332                0.99999999                0.01398039                0.08554637                0.00920828                0.03114823               -0.01342150                0.05060406
              -0.08059544                8.93477932               93.10815386                0.87121954               -0.01588851               -0.02272602                0.05552927               -0.01257306               -0.00727735               -0.08674889
               0.91924567                8.92904093               93.11508424                0.85338188               -0.01449398               -0.02072149                0.06726853               -0.00923848                0.00527917               -0.02966193
               1.91911468                8.92351330               93.12228781                1.00000000                0.00115815               -0.00713042                0.08959756                0.05479829                0.05263337                0.03258638
               2.91926883                8.91959124               93.13028109                0.95350181                0.02094165               -0.04990319                0.08639219                0.13921368                0.06033978               -0.02684487
               3.91953351                8.91721371               93.13810170                0.64791764                0.04001786               -0.15065733                0.04946546                0.31099891                0.04654449                0.01303832
               4.92006919                8.91740485               93.14647369                0.52828223                0.02350154               -0.15565435                0.00263805                0.53329014                0.05431490                0.04715921
               5.92000354                8.92119380               93.15548697                0.55021846               -0.10847823               -0.08743833                0.04712571                0.57910419               -0.03845447                0.07521996
               6.91789963                8.92569149               93.16376390                0.76213732               -0.18983689               -0.05784827                0.06702737                0.46239805               -0.05336667                0.00990673
               7.91620680                8.92711502               93.17120681                0.99563000               -0.16547790               -0.08503793                0.05068358                0.37687116               -0.07956033               -0.01466912
               8.91459007                8.92646842               93.17829234                0.99999999               -0.11360769               -0.11341707                0.07953299                0.22387339               -0.02532900               -0.02363903
               9.91393465                8.92219923               93.18549451                0.99999999               -0.06554197                0.04747331                0.10510283                0.03627242               -0.01256591               -0.03010370
              -0.07497260                9.93461318               93.11001203                0.89232478               -0.03078963               -0.01661344                0.05474448               -0.01174747               -0.03684364               -0.06734692
               0.92471950                9.92887287               93.11706916                0.99771695               -0.05779293               -0.01680627                0.06983855               -0.01308096               -0.03447932               -0.01757314
               1.92387154                9.92340390               93.12430837                0.99999998               -0.10786593               -0.01093989                0.11043189               -0.00143051               -0.02759116                0.01555501
               2.92256218                9.91933053               93.13184467                0.99999999               -0.14621482               -0.02607114                0.14988260                0.01478963               -0.00124176                0.00977592
               3.92094724                9.91711300               93.13944679                0.99999999               -0.19463037               -0.01007088                0.15531005                0.05402190                0.06576091               -0.00036950
               4.91866957                9.91758351               93.14805263                0.99898249               -0.25493204                0.01786546                0.14380361                0.08363831                0.19698095                0.00407210
               5.91584860                9.92158500               93.15926807                0.98134874               -0.14668833                0.03912030                0.07571537               -0.00471333                0.30956649                0.00001376
               6.91573581                9.92579912               93.16962244                0.97899589                0.03521889                0.01076326                0.01092726                0.06725837                0.18436418               -0.00509213
               7.91655298                9.92725781               93.17791258                0.99580677                0.08736781                0.01427878                0.01109221                0.03509567                0.05461304               -0.01256736
               8.91748316                9.92580868               93.18521727                0.99999999                0.04702823               -0.06597378                0.10747058                0.03718768               -0.02770751               -0.01205224
               9.91749354                9.92221537               93.19229036                0.99941903                0.00103796                0.00161451                0.16864689               -0.00344172               -0.01941152               -0.02180060
              -0.14168562               -0.06562446               94.08875359                0.79777847               -0.00764081               -0.00778909                0.07903974               -0.00188398                0.00578573                0.00432413
               0.85823797               -0.06921419               94.09175726                0.62746884                0.02543014               -0.03570902                0.07909310                0.01454514                0.01605035                0.00886541
               1.85882298               -0.07191291               94.09501434                0.65997527                0.05424167               -0.03507184                0.08282669                0.02419242                0.02768068                0.01308777
               2.85932280               -0.07252020               94.09835313                0.63511035                0.01423635               -0.02806594                0.09024431                0.06184935                0.00786557                0.01174241
               3.85910771               -0.07105984               94.10150112                0.80633304               -0.05930425               -0.00801895                0.07197583                0.04528056               -0.06090033                0.02347022
               4.85813672               -0.07015567               94.10373455                1.00000000               -0.08437692               -0.02149958                0.06271745                0.04101763               -0.10348101                0.01380257
               5.85742017               -0.07067170               94.10571852                1.00000000               -0.06312098               -0.01270123                0.05217178                0.00518826               -0.11554778                0.02296453
               6.85687430               -0.07200303               94.10753291                1.00000000               -0.04377264               -0.01580616                0.04793107               -0.00631119               -0.11182646                0.01947017
               7.85654472               -0.07368065               94.10921196                0.86392068               -0.02736006               -0.01016972                0.04347580               -0.01438145               -0.10511707                0.01069802
               8.85632710               -0.07552041               94.11090816                0.71973496               -0.02115952               -0.01714559                0.05500908               -0.02267393               -0.08284344               -0.00519566
               9.85612153               -0.07731722               94.11308303                0.84784848               -0.02055712               -0.03964062                0.07816677               -0.01837481               -0.06929676               -0.03188856
              -0.13811473                0.93429764               94.09150727                0.62664391               -0.03576234                0.02525101                0.07946655                0.01462088                0.00853945                0.01388498
               0.86152764                0.93042872               94.09453805                0.45053372               -0.05836791               -0.05830925                0.07867759                0.05955182                0.02191405                0.02244451
               1.86071791                0.92773637               94.09785875                0.41075725               -0.10064399               -0.04790593                0.08189221                0.16550487                0.05042663                0.01414681
               2.85951476                0.92719914               94.10139672                0.11321095               -0.11698309               -0.07155530                0.09105050                0.30598700                0.10102798               -0.02574571
               3.85837825                0.92885997               94.10530820                0.01000000               -0.05809698               -0.11077031                0.09763655                0.33794169                0.10871321               -0.02599164
               4.85835282                0.92962934               94.10845305                0.35945933                0.00087432                0.03909576                0.10710253                0.12443166                0.06424055                0.19501586
               5.85839573                0.92920128               94.11135282                0.95847555               -0.00185810               -0.01328493                0.09452564                0.04586855                0.02364734                0.07147349
               6.85831566                0.92783891               94.11373508                0.99381171               -0.01180699               -0.02475133                0.07436437                0.00452757               -0.02413537                0.02930871
               7.85815959                0.92621765               94.11574572                0.84098384               -0.01985116               -0.01924690                0.06553192               -0.01345300               -0.04767832                0.01830774
               8.85791864                0.92430813               94.11769121                0.69039535               -0.02125072               -0.01889402                0.07066504               -0.03129603               -0.03380168                0.01109707
               9.85773458                0.92228638               94.11998264                0.93649701               -0.01840599               -0.07097970                0.09043373               -0.03550160               -0.02048966               -0.02225008
              -0.13365535                1.93488056               94.09449966                0.65769464               -0.03543734                0.05398676                0.08356623                0.02467774                0.01297024                0.02520107
               0.86599028                1.92961962               94.09761318                0.40959376               -0.04909986               -0.10063506                0.08179545                0.16702036                0.01297787                0.05154631
               1.86536265                1.92712897               94.10073376                0.07273509               -0.08356650               -0.08230110                0.08764688                0.35825963                0.01096553                0.01277940
               2.86431895                1.92604869               94.10393445                0.01000000               -0.09631549               -0.12474867                0.09261586                0.50852198                0.06836546               -0.03106650
               3.86343634                1.92672475               94.10823606                0.01000000               -0.20174575               -0.12064721                0.09833378                0.75125703                0.30591750                0.15962442
               4.86028403                1.93062625               94.11669853                0.01000000               -0.16541880               -0.03890703                0.10948986                0.52791878                0.22245059                0.15293993
               5.86012797                1.92906260               94.11795959                0.01000001               -0.01677739               -0.09355349                0.06109149                0.22855260               -0.04819651                0.11204745
               6.85994849                1.92750194               94.12006867                0.01000000               -0.01607676               -0.16235385                0.09024327                0.22681059                0.00677615                0.14811221
               7.85980643                1.92593441               94.12232282                0.45224463               -0.01580191                0.02176487                0.11606922                0.06316150                0.02457110                0.18247686
               8.85963245                1.92410171               94.12487579                0.98355786               -0.01757186               -0.01534923                0.10679132                0.01707351                0.01837130                0.04656365
               9.85945500                1.92126319               94.12728001                0.99999999               -0.01774508               -0.10231264                0.10957515               -0.03848428                0.00608931                0.00196924
              -0.12709931                2.93537738               94.09758277                0.63310118               -0.02810559                0.01308732                0.09119249                0.06231090                0.01149097                0.00535395
               0.87261963                2.92841601               94.10091304                0.10943807               -0.07233301               -0.11604534                0.09046435                0.30772720               -0.02801583                0.10297505
               1.87145403                2.92609035               94.10370036                0.01000000               -0.12651044               -0.09559203                0.09301866                0.51025533               -0.03515540                0.07164457
               2.87008942                2.92470417               94.10645253                0.01029587               -0.13140982               -0.12508260               -0.02754831                0.74631269                0.25967808                0.26081321
               3.86882583                2.92644702               94.11606791                0.01000000               -0.17580370               -0.06610719                0.16374549                0.92338566                0.44957503                0.26706038
               4.86657335                2.92885120               94.12057342                0.01000000               -0.13673717               -0.30011295                0.15294310                0.88417450                0.20889434               -0.01960512
               5.86609109                2.92733022               94.12494879                0.01000001               -0.02966435               -0.16718135                0.16040736                0.50733464                0.01582137                0.18733325
               6.86598006                2.92459183               94.12856344                0.01000001               -0.16340151               -0.13482627                0.14270334                0.54752907               -0.05088798                0.30799420
               7.86282306                2.92665295               94.13192228                0.01405318               -0.15243686               -0.03654622                0.07104815                0.45535153               -0.06222161                0.16224272
               8.86293133                2.92400115               94.13252220                0.94616122               -0.00905686               -0.00633500                0.10201936                0.06862319               -0.08159258                0.03171807
               9.86264192                2.92024013               94.13481896                1.00000000               -0.02894042               -0.10892204                0.13440243                0.01083396                0.00857486                0.04405310
              -0.11848640                3.93514230               94.10046872                0.80932810               -0.00817471               -0.06025528                0.07268609                0.04639727                0.02359219               -0.06317792
               0.88143185                3.92729871               94.10459162                0.01000000               -0.11169944               -0.05652330                0.09641531                0.33748762               -0.02829609                0.10912266
               1.87927961                3.92521713               94.10778432                0.01000000               -0.12716612               -0.19589125                0.09867988                0.75474458                0.15650539                0.30453954
               2.87888853                3.92354704               94.11584480                0.01000000               -0.07612906               -0.16753452                0.16514690                0.92580815                0.26263387                0.45021978
               3.87775703                3.92540261               94.12163113                0.01000000               -0.09020992               -0.08319645                0.11427362                0.81654143                0.13575739                0.13857487
               4.87708433                3.92462399               94.12733696                0.01050937               -0.16115012               -0.28032488                0.17289514                0.82066209                0.06802483                0.16123155
               5.87453403                3.92571897               94.13149388                0.01000000               -0.27539978               -0.13289088                0.16991616                0.80177317                0.00255777                0.14643895
               6.87157634                3.92480542               94.13525914                0.01000003               -0.25149389               -0.05305307                0.14066470                0.71314545               -0.07858228                0.18412011
               7.86950415                3.92520348               94.13851586                0.01000000               -0.20793015               -0.13214272                0.14261276                0.70966817               -0.14002769                0.08145287
               8.86741773                3.92397501               94.13979724                0.53468354               -0.11552173                0.00816685                0.08846512                0.26258861               -0.05938307                0.02295971
               9.86719371                3.91908475               94.14228941                0.99459907               -0.02240178               -0.19684140                0.15783578                0.09982916               -0.01271007                0.13165795
              -0.11048419                4.93417227               94.10244328                0.99020060               -0.02212530               -0.08512959                0.06501456                0.04000577                0.01282905               -0.10483754
               0.88929456                4.92728555               94.10747130                0.35501675                0.03923927                0.00209555                0.10672121                0.12622704                0.19422525                0.06288147
               1.89030059                4.92217253               94.11603196                0.01000000               -0.04372219               -0.15962483                0.11536506                0.53049337                0.15669393                0.21385458
               2.88842011                4.92135348               94.12010756                0.01000000               -0.31104400               -0.13174553                0.15461196                0.88969167               -0.02453167                0.21310997
               3.88407971                4.92478309               94.12710694                0.01052438               -0.28749428               -0.15570711                0.17480086                0.82360596                0.15749175                0.07030808
               4.88267023                4.92324470               94.13231854                0.01000000               -0.10672952               -0.10323252                0.16350528                0.69935211                0.11507161                0.11637578
               5.88194512                4.92467240               94.13823674                0.01778209               -0.09558834               -0.11037918                0.20720627                0.78687795                0.15945269                0.11619500
               6.88075846                4.92353077               94.14232880                0.01177604               -0.20491452               -0.13280351                0.18302819                0.80602629                0.12502008                0.03145873
               7.87784683                4.92401009               94.14543823                0.01000001               -0.32283136               -0.00906109                0.15030817                0.86274151               -0.07623668                0.04269059
               8.87430183                4.92416448               94.14765232                0.42947438               -0.17139088               -0.03082165                0.08055291                0.44005352               -0.04222228                0.08724211
               9.87441902                4.91630330               94.15080337                1.00000000                0.01171833               -0.26560719                0.18066487                0.06109297               -0.00831137                0.26756781
              -0.10391284                5.93343971               94.10417605                0.98967455               -0.01310230               -0.06464686                0.05445828                0.00498854                0.02265555               -0.11656676
               0.89595614                5.92734063               94.11012666                0.95014878               -0.01328069               -0.00106570                0.09543689                0.04693903                0.07219420                0.02354305
               1.89582155                5.92202463               94.11707213                0.01000001               -0.09421738               -0.01603435                0.05939289                0.22910583                0.10566815               -0.04909300
               2.89407179                5.92091213               94.12425988                0.01000001               -0.17418123               -0.02264741                0.14979266                0.50906828                0.16458286                0.03315649
               3.89233793                5.92228846               94.13105140                0.01000000               -0.14448624               -0.27063712                0.17379090                0.80392864                0.14064608                0.00088890
               4.89118207                5.92255934               94.13801646                0.01776556               -0.11762057               -0.09204735                0.20998919                0.78518866                0.11339898                0.15734250
               5.88998551                5.92351139               94.14398032                0.01673591               -0.14114515               -0.13938075                0.19409062                0.66906592                0.07088302                0.06921711
               6.88835917                5.92214935               94.14916982                0.01000001               -0.19301246               -0.07020136                0.21297332                0.82126965               -0.06301876               -0.05240413
               7.88612527                5.92502226               94.15194549                0.03453577               -0.22167846               -0.04514581                0.15031893                0.86980678               -0.06516100               -0.02345550
               8.88392560                5.92335857               94.15670514                0.41878524               -0.09936616               -0.13017096                0.08367616                0.41504936                0.02522027                0.05595139
               9.88413794                5.91377261               94.16105717                1.00000000                0.02123453               -0.13861726                0.12799709                0.01017897               -0.01413205                0.34644392
              -0.09818625                6.93287934               94.10575127                0.97907295               -0.01653372               -0.04544537                0.05083406               -0.00741003                0.01962957               -0.11235608
               0.90164841                6.92726423               94.11227427                0.98815919               -0.02512712               -0.01164751                0.07567435                0.00402501                0.02968800               -0.02463738
               1.90131121                6.92185184               94.11893993                0.01000000               -0.16553817               -0.01529624                0.08840969                0.22955092                0.14223495                0.00434966
               2.89833765                6.92090053               94.12764139                0.01000001               -0.14000632               -0.16096741                0.14364722                0.54643910                0.30281935               -0.05300142
               3.89851108                6.91937035               94.13461335                0.01000003               -0.05932861               -0.24779431                0.14137199                0.70514821                0.18477251               -0.08218109
               4.89715108                6.92140375               94.14189116                0.01183591               -0.13873232               -0.20096410                0.18406029                0.80266408                0.02804297                0.12445722
               5.89573643                6.92188478               94.14895268                0.01000001               -0.07390486               -0.19119979                0.21361598                0.81830514               -0.05176594               -0.06539787
               6.89567298                6.92212674               94.15415928                0.03413458               -0.08513453               -0.08134802                0.23358903                0.82388516               -0.04779156               -0.04393325
               7.89403374                6.92310718               94.15965622                0.01000001               -0.09102511               -0.19647359                0.12722035                0.74769479               -0.08808312               -0.09148520
               8.89385248                6.92156106               94.16484234                0.56852440               -0.01196074               -0.16623437                0.08193410                0.39180152               -0.03567766               -0.04167199
               9.89379453                6.91353095               94.17063027                1.00000000               -0.00579482                0.02365242                0.08833352                0.05326406               -0.02136331                0.21208877
              -0.09283083                7.93253080               94.10718664                0.86048681               -0.01050274               -0.02901297                0.04559349               -0.01510948                0.01203995               -0.10416289
               0.90706414                7.92710768               94.11404708                0.83794174               -0.01964456               -0.02004856                0.06646074               -0.01383738                0.01942161               -0.04806729
               1.90677628                7.92171871               94.12094740                0.43789327                0.02089610               -0.01497200                0.11478560                0.06249359                0.18134501                0.02174979
               2.90748206                7.91769278               94.13083002                0.01391598               -0.04193048               -0.15448052                0.08191200                0.45794196                0.16957345               -0.07678137
               3.90593767                7.91733258               94.13762554                0.01000000               -0.13805715               -0.20664058                0.14333832                0.70991583                0.08022298               -0.13687859
               4.90472092                7.91854006               94.14481623                0.01000001               -0.01545203               -0.32005234                0.15021032                0.86362501                0.03988302               -0.07372969
               5.90562863                7.91968739               94.15149177                0.03395483               -0.05532220               -0.22245080                0.15330244                0.87921153               -0.02451633               -0.06396480
               6.90361448                7.92052239               94.15944289                0.01000001               -0.19918935               -0.09234614                0.12637933                0.76184449               -0.09409135               -0.08211039
               7.90164484                7.92109279               94.16637440                0.01472429               -0.11383124               -0.12210259                0.13045508                0.66802209               -0.13599577               -0.13906162
               8.90133785                7.92003388               94.17191620                0.88983566               -0.01906978               -0.12988361                0.06459844                0.30581062               -0.07240375               -0.09506781
               9.90126344                7.91424565               94.17880737                0.99352885               -0.00744067                0.06393752                0.07314826                0.04769224               -0.02342144                0.08123299
              -0.08764219                8.93229908               94.10867473                0.71642464               -0.01740573               -0.02241059                0.05693056               -0.02304579               -0.00420458               -0.08085017
               0.91218376                8.92686326               94.11576857                0.69207968               -0.01909212               -0.02163377                0.07116612               -0.03150620                0.01206538               -0.03400898
               1.91197597                8.92155240               94.12326344                0.98423201               -0.01505686               -0.01730025                0.10665670                0.01739952                0.04697866                0.01689568
               2.91188262                8.91781092               94.13119949                0.95138156               -0.00569242               -0.00857118                0.10109643                0.06826002                0.03156540               -0.08328464
               3.91186212                8.91523754               94.13876209                0.54390264                0.00930713               -0.11590140                0.08670786                0.26438706                0.02095205               -0.05612486
               4.91206876                8.91500270               94.14684593                0.43460929               -0.02618947               -0.17217083                0.07818896                0.44202063                0.07790141               -0.04047131
               5.91133833                8.91743577               94.15602522                0.41698319               -0.12821458               -0.10220534                0.08361867                0.42756437                0.04870020                0.02724448
               6.90950447                8.92027982               94.16438289                0.55775393               -0.17278241               -0.01478323                0.08226838                0.40994318               -0.04638674               -0.03489210
               7.90788269                8.92066512               94.17166667                0.88091513               -0.13443226               -0.02516208                0.06464001                0.31712692               -0.09756269               -0.07170728
               8.90681583                8.91896339               94.17896350                0.99999998               -0.07789256               -0.07852493                0.07134991                0.13277944               -0.04978047               -0.04979369
               9.90632483                8.91480970               94.18638223                0.99954472               -0.04909908                0.03097541                0.08098629                0.01621185               -0.02810255               -0.00105591
              -0.08242012                9.93208259               94.11062438                0.84610348               -0.03991836               -0.02164868                0.08092022               -0.01855255               -0.02955701               -0.06814426
               0.91718070                9.92667500               94.11783388                0.93544596               -0.07016329               -0.01882639                0.09081977               -0.03580039               -0.01891402               -0.02094998
               1.91617661                9.92137270               94.12546077                0.99999999               -0.10092874               -0.01796932                0.10929918               -0.03761790                0.00514582                0.00608926
               2.91516212                9.91752136               94.13329421                1.00000000               -0.10714960               -0.02895589                0.13245791                0.01004241                0.04396104                0.00828192
               3.91403362                9.91501455               94.14104484                0.99420748               -0.18995079               -0.02229897                0.15460119                0.09591383                0.12602242               -0.01232729
               4.91136311                9.91509664               94.14978056                1.00000000               -0.25654112                0.00939348                0.17725289                0.06087108                0.25545068               -0.00839271
               5.90890280                9.91764329               94.16012388                1.00000000               -0.13895621                0.02075190                0.12929085                0.01295063                0.33376883               -0.01413744
               6.90858398                9.92022672               94.16987737                1.00000000                0.02005033               -0.00530975                0.09359440                0.05526424                0.20951446               -0.02239769
               7.90930381                9.92058955               94.17829445                0.99800352                0.06324397               -0.00755753                0.07723923                0.05394524                0.08059865               -0.02343260
               8.90984886                9.91846339               94.18612161                0.99950884                0.02956254               -0.05000045                0.08280223                0.01708420               -0.00042190               -0.02855980
               9.90989506                9.91486516               94.19363758                1.00000000                0.00461958                0.00554596                0.09566623               -0.00280019               -0.01414180               -0.01536752
              -0.14462932               -0.06833277               95.08956120                0.76025708               -0.01055627               -0.01067577                0.08175676                0.00057340                0.00610807                0.00496057
               0.85526512               -0.07190268               95.09257146                0.57371908                0.02019978               -0.03749894                0.08509672                0.01739758                0.01720083                0.00856041
               1.85577468               -0.07459637               95.09586976                0.60757127                0.04179365               -0.03628428                0.09105772                0.02470636                0.02705904                0.01758243
               2.85610099               -0.07538392               95.09930038                0.64956365               -0.00234490               -0.03702935                0.09307611                0.05827126               -0.01495720                0.02194442
               3.85572778               -0.07469862               95.10218434                0.87935600               -0.05720394               -0.01819081                0.05840723                0.04468754               -0.09785268                0.02548630
               4.85495691               -0.07493392               95.10427524                0.97377624               -0.06636251               -0.01100832                0.04784329                0.02428450               -0.11969352                0.02416923
               5.85440053               -0.07628207               95.10619184                0.95069743               -0.04364885               -0.01420978                0.04090222               -0.00513819               -0.11385635                0.02007563
               6.85408393               -0.07815430               95.10794285                0.77934096               -0.02729262               -0.01154680                0.03892523               -0.02074184               -0.10968994                0.01562822
               7.85385467               -0.08022655               95.10959210                0.65636538               -0.02804039               -0.00530560                0.04699225               -0.03435527               -0.10483426                0.00761721
               8.85352313               -0.08245341               95.11150490                0.62700041               -0.03490701               -0.02318450                0.07972388               -0.03023623               -0.07653619               -0.01153076
               9.85315653               -0.08460228               95.11406141                0.84470975               -0.03665917               -0.05108644                0.11794476               -0.01420620               -0.05654668               -0.04116569
              -0.14105368                0.93156047               95.09232467                0.57278323               -0.03754308                0.02000857                0.08539016                0.01747980                0.00838799                0.01534624
               0.85857089                0.92772233               95.09534677                0.39831014               -0.05919817               -0.05915431                0.08684088                0.06235289                0.02209937                0.02227599
               1.85776236                0.92504078               95.09868753                0.37482579               -0.09180340               -0.05369860                0.08992237                0.15301447                0.04946997                0.01949185
               2.85673482                0.92424578               95.10234216                0.10509906               -0.09063555               -0.07149004                0.10668956                0.26276529                0.09359352               -0.01028979
               3.85594965                0.92511948               95.10627976                0.05072973               -0.03716710               -0.08974948                0.10764480                0.22265682                0.12001528                0.02529841
               4.85599148                0.92495600               95.10956882                0.75226071                0.00048449                0.01147596                0.10715922                0.08084489                0.05433976                0.13744001
               5.85595934                0.92357583               95.11221996                0.97516679               -0.00713635               -0.02455885                0.08259333                0.01328741               -0.00977125                0.04146341
               6.85584876                0.92173023               95.11439350                0.96238718               -0.01493319               -0.01799182                0.06269351               -0.00945975               -0.04936270                0.02721482
               7.85566067                0.91972040               95.11634022                0.70475587               -0.02200622               -0.00740444                0.06138140               -0.03708076               -0.05659504                0.03130753
               8.85540863                0.91731475               95.11842333                0.52254964               -0.02486644               -0.02576060                0.08789309               -0.05715457               -0.02629944                0.01116293
               9.85516335                0.91488685               95.12103098                0.83729376               -0.02452851               -0.07576897                0.12660454               -0.05022697               -0.00997819               -0.03122790
              -0.13660344                1.93206740               95.09536156                0.60574890               -0.03646990                0.04140327                0.09168451                0.02518631                0.01768452                0.02479659
               0.86303186                1.92691423               95.09844098                0.37374251               -0.05425238               -0.09179024                0.08985106                0.15384106                0.01895292                0.04987564
               1.86231151                1.92432966               95.10160026                0.12184027               -0.08771271               -0.08702626                0.08399508                0.34136103                0.01666423                0.01810572
               2.86127760                1.92318627               95.10481157                0.01000000               -0.14204075               -0.11540246                0.08716415                0.47520046                0.13584240               -0.02649412
               3.85947070                1.92350639               95.11047623                0.01000000               -0.15800768               -0.15063739                0.37724284                0.67379686                0.24066270                0.30440883
               4.85811745                1.92529560               95.11706188                0.01150700               -0.07893243               -0.13875606                0.03607142                0.43866224                0.18329528                0.08693581
               5.85789205                1.92322675               95.11867250                0.02736030               -0.01836373               -0.01492031                0.08871621                0.08790638               -0.03056388                0.16009326
               6.85775018                1.92148586               95.12100784                0.64943259               -0.01817524                0.02056626                0.10763128                0.04185351                0.01655407                0.16830519
               7.85752854                1.91962536               95.12364278                0.96588897               -0.02682996               -0.00394354                0.11632414                0.00232286                0.01146276                0.11904336
               8.85721358                1.91703138               95.12602686                0.99844471               -0.02603809               -0.02547719                0.09373179               -0.03860194               -0.01183824                0.03409499
               9.85700778                1.91388234               95.12831656                1.00000000               -0.02057970               -0.08331448                0.08883676               -0.06191841               -0.01766446                0.00534935
              -0.13024362                2.93238853               95.09853824                0.64867884               -0.03709278               -0.00351331                0.09365685                0.05850717                0.02183290               -0.01773711
               0.86938546                2.92588652               95.10185469                0.10224346               -0.07194235               -0.08990375                0.10647521                0.26345899               -0.01131477                0.09433034
               1.86831754                2.92330026               95.10457797                0.01000000               -0.11616803               -0.14162906                0.08697648                0.47549095               -0.02872812                0.13870131
               2.86706209                2.92193773               95.10745560                0.01594644               -0.05006393               -0.04527446                0.11019066                0.58927018                0.32959715                0.33237272
               3.86731626                2.92210673               95.11727147                0.01197004               -0.10088639               -0.10970375                0.15089504                0.70877045                0.45452992                0.16986903
               4.86504437                2.92218088               95.12256822                0.01000001               -0.28945248               -0.23714135                0.23249520                0.79131766                0.16724730                0.08187314
               5.86152721                2.92327743               95.12717884                0.01215268               -0.23785755               -0.12167523                0.18819513                0.64452838               -0.02139273                0.27007188
               6.86028722                2.92214155               95.13012443                0.01000000               -0.06827976               -0.09399207                0.09422623                0.33775329               -0.15940979                0.32704384
               7.86016161                2.91964153               95.13211351                0.02304207                0.00462003                0.00147766                0.01800279                0.11682816               -0.07378773                0.10248199
               8.86037962                2.91680520               95.13363292                0.95660404                0.00307228               -0.01632858                0.09600550                0.05024592               -0.05955880                0.01243538
               9.86022306                2.91322057               95.13603578                0.99999998               -0.01565581               -0.07761963                0.11406030                0.00424092               -0.01094925                0.05829024
              -0.12242928                3.93199713               95.10115693                0.88253153               -0.01814107               -0.05851351                0.05916959                0.04569161                0.02566020               -0.09971756
               0.87738931                3.92511616               95.10555057                0.04857400               -0.09003024               -0.03617258                0.10665736                0.22169299                0.02482102                0.12017276
               1.87577012                3.92149707               95.11003269                0.01000000               -0.15663869               -0.15358601                0.37742201                0.67564719                0.30204040                0.24630739
               2.87425654                3.92228079               95.11706140                0.01197155               -0.11835807               -0.09070014                0.15058822                0.71178002                0.16643236                0.45728665
               3.87340296                3.92131232               95.12305833                0.01648881               -0.07417174               -0.06885688                0.12035719                0.53394980                0.12206219                0.12582891
               4.87277310                3.92055278               95.12914314                0.01442057               -0.12905092               -0.14273064                0.15950125                0.64610437                0.05525974                0.13250991
               5.87082194                3.92079325               95.13348413                0.01000001               -0.23159803               -0.17862942                0.20510679                0.75734678               -0.00827891                0.11134274
               6.86814114                3.91960602               95.13710407                0.01000001               -0.28102415               -0.26015424                0.22396383                0.78297673               -0.03388636                0.14825489
               7.86520146                3.91965492               95.14011605                0.01495441               -0.17508437               -0.05929742                0.12981544                0.51400765               -0.16491564                0.14680825
               8.86463946                3.91670481               95.14089568                0.51776569               -0.04697906               -0.00279651                0.12722997                0.14999356               -0.10291899                0.02466187
               9.86426187                3.91232995               95.14381069                0.99999998               -0.03775815               -0.16311132                0.14998436                0.08303601               -0.00602876                0.14039844
              -0.11556783                4.93121826               95.10300761                0.97551655               -0.01127949               -0.06777816                0.04953417                0.02426217                0.02368735               -0.12106751
               0.88431937                4.92516307               95.10859697                0.74695941                0.01168415                0.00098375                0.10744886                0.08205835                0.13721387                0.05438215
               1.88466585                4.92022854               95.11638406                0.01138331               -0.14184610               -0.07418773                0.03544606                0.44315805                0.08404967                0.18300108
               2.88148245                4.92012373               95.12213776                0.01000001               -0.24712934               -0.26641054                0.23218239                0.78016388                0.07079714                0.16697982
               3.87972326                4.92072959               95.12894218                0.01443202               -0.14984633               -0.12774255                0.16259809                0.64263062                0.12725314                0.05826326
               4.87848552                4.91932627               95.13444167                0.01000000               -0.10511816               -0.10424385                0.17827316                0.60839923                0.05986101                0.06216589
               5.87762090                4.91970484               95.13977556                0.01000001               -0.07002203               -0.11730295                0.16290592                0.57454310               -0.04021523                0.06116849
               6.87708508                4.91693847               95.14392860                0.01000001               -0.21389616               -0.15410442                0.22204624                0.68292863               -0.15665500                0.13054648
               7.87334298                4.91845558               95.14757758                0.01000001               -0.31903126               -0.13302829                0.24238358                0.78966131               -0.30758669                0.10394008
               8.87070446                4.91674927               95.14887987                0.41162286               -0.13547378               -0.04631946                0.14705407                0.30975092               -0.12746497                0.09387491
               9.87063350                4.90995834               95.15267130                1.00000000               -0.00709567               -0.23444082                0.17484006                0.07474023               -0.01048648                0.30917843
              -0.10983365                5.93064157               95.10467835                0.95141680               -0.01461481               -0.04555220                0.04318151               -0.00443293                0.02010221               -0.11452648
               0.89002020                5.92513583               95.11101291                0.97330197               -0.02468658               -0.00699518                0.08361899                0.01426593                0.04148922               -0.00966811
               1.88967262                5.92001332               95.11777029                0.02295510               -0.03307195               -0.01752133                0.08690293                0.10647811                0.14436442               -0.03152895
               2.88935877                5.91695257               95.12627710                0.01216187               -0.13097938               -0.23783159                0.18998754                0.64453171                0.26482426               -0.02010099
               3.88705303                5.91875747               95.13308780                0.01000001               -0.16964627               -0.23024439                0.20754611                0.74240400                0.11838995               -0.01212405
               4.88596584                5.91846790               95.13956930                0.01000001               -0.11762178               -0.06882283                0.16447760                0.57591768                0.05648750               -0.04002908
               5.88470060                5.91844719               95.14535634                0.01000001               -0.14584310               -0.14505452                0.30011479                0.51513059                0.01280014                0.01596955
               6.88304898                5.91652393               95.15069405                0.01076974               -0.17583594               -0.02238295                0.33419225                0.56192226               -0.06252532               -0.01406421
               7.88118388                5.91699435               95.15398348                0.03589639               -0.18586322               -0.16021163                0.31164873                0.71531051               -0.11597477               -0.14372688
               8.87933171                5.91577842               95.15783487                0.47718559               -0.09226652               -0.15453129                0.13015705                0.39202368               -0.04584113                0.07318464
               9.87933855                5.90764113               95.16277374                0.99638634                0.00068348               -0.14892317                0.17010484                0.03891134                0.00399343                0.33052807
              -0.10464502                6.93030722               95.10619692                0.77729303               -0.01220445               -0.02902934                0.04142371               -0.02062226                0.01594738               -0.11028301
               0.89523294                6.92502317               95.11295491                0.95598241               -0.01881578               -0.01520936                0.06385686               -0.00916889                0.02721810               -0.04980604
               1.89497867                6.91987811               95.11986259                0.63305331                0.01979984               -0.01776611                0.10717701                0.04205769                0.16760652                0.01487820
               2.89562894                6.91536710               95.12926667                0.01000000               -0.09613246               -0.08588553                0.09781964                0.35397323                0.32625997               -0.14973641
               3.89305602                6.91612470               95.13645187                0.01000001               -0.26573907               -0.27588117                0.22430054                0.78444022                0.13974897               -0.03449207
               4.89031415                6.91794981               95.14349837                0.01000001               -0.15942697               -0.21003364                0.22181601                0.68142504                0.12693558               -0.15707865
               5.88986748                6.91680375               95.15047756                0.01065688               -0.02688934               -0.17326288                0.33491929                0.56382850               -0.01843695               -0.05737231
               6.88977637                6.91649081               95.15621729                0.04352883               -0.07363902               -0.07168300                0.27698461                0.55216129               -0.11550487               -0.11244373
               7.88839470                6.91525135               95.16076998                0.07630794               -0.09391078               -0.14137318                0.08603487                0.52916077               -0.07395524               -0.07808277
               8.88789815                6.91365865               95.16587865                0.64582330               -0.03541970               -0.18619581                0.11825178                0.33028395               -0.04865789               -0.03526074
               9.88768630                6.90697988               95.17219438                0.99873515               -0.02118470               -0.02512608                0.14339398                0.06414277                0.00819969                0.18442629
              -0.09967799                7.93006098               95.10759730                0.65331032               -0.00560782               -0.02913247                0.05006099               -0.03404369                0.00967164               -0.10441612
               0.90026593                7.92483164               95.11465915                0.70360699               -0.00760841               -0.02246082                0.06268062               -0.03688249                0.03289830               -0.05753116
               1.90016984                7.91965800               95.12226291                0.95942513               -0.00371469               -0.02701329                0.11708571                0.00239410                0.12090464                0.01012834
               2.90019164                7.91523486               95.13104096                0.02281892               -0.00053590                0.00471322                0.01863133                0.11772041                0.10156846               -0.07619934
               3.90015913                7.91323985               95.13926842                0.01491645               -0.06381727               -0.17263925                0.13426434                0.51412285                0.14480796               -0.16780927
               4.89891529                7.91426723               95.14693204                0.01000000               -0.13614793               -0.31593566                0.23889383                0.78960110                0.10207988               -0.30626377
               5.89743617                7.91498193               95.15357675                0.03507745               -0.16353433               -0.18485873                0.31696825                0.71980762               -0.14332639               -0.11341775
               6.89564461                7.91509027               95.16056589                0.07443357               -0.14184547               -0.09658231                0.08796118                0.53695131               -0.07279452               -0.07496632
               7.89459926                7.91416689               95.16755250                0.19838033               -0.07178727               -0.07452582                0.13286498                0.41222356               -0.10898220               -0.11504717
               8.89420886                7.91205450               95.17274296                0.97414313               -0.03101548               -0.11957530                0.10352773                0.19762352               -0.09760500               -0.08202655
               9.89397895                7.90713861               95.17992629                0.98628841               -0.02299144                0.01840094                0.09202886                0.05085245               -0.00572526                0.03799300
              -0.09486721                8.92972457               95.10929247                0.62444649               -0.02345129               -0.03549932                0.08243539               -0.03029894               -0.01011832               -0.07474613
               0.90489827                8.92457395               95.11650756                0.52412537               -0.02547282               -0.02541916                0.08862465               -0.05739103                0.01316094               -0.02697384
               1.90462333                8.91933785               95.12442094                1.00000000               -0.02483881               -0.02634822                0.09436927               -0.03841566                0.03564586               -0.01268911
               2.90440150                8.91546136               95.13230302                0.96237613               -0.01586079                0.00359355                0.09543805                0.04998818                0.01166642               -0.06206729
               3.90430611                8.91267192               95.13983586                0.52591958               -0.00187045               -0.04694473                0.12437733                0.14959765                0.02096178               -0.10300561
               4.90436409                8.91163110               95.14803747                0.41617976               -0.04327633               -0.13604133                0.14400583                0.31094529                0.08449447               -0.12606695
               5.90344059                8.91310657               95.15715934                0.48055439               -0.15168242               -0.09385057                0.12921763                0.39595341                0.06221659               -0.04645957
               6.90133044                8.91455916               95.16540926                0.64185016               -0.18828243               -0.03640313                0.11702535                0.33825898               -0.04001799               -0.05059360
               7.89967494                8.91376083               95.17249961                0.97627142               -0.12257692               -0.03166430                0.10344054                0.20147166               -0.08166000               -0.09861654
               8.89887890                8.91126714               95.17971934                0.99278973               -0.05698982               -0.05666147                0.07921869                0.07548983               -0.04436919               -0.04474687
               9.89853514                8.90734789               95.18711423                0.94039081               -0.03437592                0.01293547                0.05527418                0.01806599               -0.02275806               -0.01782016
              -0.08998273                9.92935100               95.11163044                0.84305754               -0.05124352               -0.03735752                0.12063767               -0.01432489               -0.03950138               -0.05469784
               0.90950484                9.92432326               95.11888555                0.83473327               -0.07515764               -0.02506908                0.12667670               -0.05034172               -0.02772513               -0.01039080
               1.90851412                9.91913103               95.12649436                1.00000000               -0.08237520               -0.02068134                0.08874462               -0.06174729                0.00827659               -0.01792719
               2.90785733                9.91530674               95.13449382                0.99999998               -0.07663872               -0.01546275                0.11235820                0.00407944                0.05837811               -0.01114523
               3.90698134                9.91230095               95.14253881                0.99999998               -0.15788945               -0.03709673                0.14726802                0.07950633                0.13533951               -0.00590135
               4.90469954                9.91154640               95.15159769                0.99999999               -0.22770884               -0.00846971                0.17153492                0.07374415                0.29555781               -0.01026992
               5.90242717                9.91310492               95.16185389                0.99360952               -0.14720052               -0.00016524                0.17023228                0.03944852                0.31818718                0.00456389
               6.90175553                9.91436221               95.17149433                1.00000000               -0.02532268               -0.01969559                0.14527192                0.06394337                0.18028757                0.00823684
               7.90192071                9.91353360               95.17945736                0.98247127                0.01880302               -0.02272268                0.09365760                0.05253085                0.03459715               -0.00566097
               8.90213159                9.91092127               95.18687331                0.93994308                0.01290240               -0.03458674                0.05615933                0.01845508               -0.01961689               -0.02235052
               9.90217876                9.90739732               95.19420369                0.90074412                0.00471685                0.00494244                0.03376275                0.01196649               -0.02285761               -0.02213043
              -0.14758398               -0.07105220               96.09038873                0.72025479               -0.01425974               -0.01436002                0.08196648                0.00513991                0.00703407                0.00614452
               0.85227342               -0.07459361               96.09345919                0.52370508                0.01096135               -0.04016770                0.09334222                0.02610512                0.01852714                0.00893385
               1.85263524               -0.07719679               96.09683549                0.54724874                0.02178322               -0.04074991                0.10152254                0.02910387                0.01320226                0.01839800
               2.85270908               -0.07816488               96.10021465                0.66632743               -0.02297257               -0.03529721                0.08123126                0.03132408               -0.06587308                0.02656950
               3.85217579               -0.07874096               96.10266926                0.87192046               -0.04868695               -0.01849958                0.04088547                0.03288176               -0.13087816                0.03183542
               4.85173534               -0.08025944               96.10469141                0.86203376               -0.03501822               -0.01490632                0.03827188               -0.00286695               -0.12901959                0.02895196
               5.85147543               -0.08232643               96.10653657                0.69565276               -0.02275501               -0.01236711                0.03977761               -0.02659681               -0.11807611                0.02487599
               6.85128024               -0.08459177               96.10831142                0.56336183               -0.02947226               -0.00900145                0.05104104               -0.04211467               -0.11764352                0.01040235
               7.85088598               -0.08702455               96.11015181                0.54195975               -0.04765914               -0.01823337                0.08623793               -0.03861836               -0.11192603               -0.00641948
               8.85032706               -0.08958790               96.11250264                0.62848267               -0.05042033               -0.04026765                0.11307413               -0.01527457               -0.06821761               -0.02625913
               9.84987758               -0.09207968               96.11544193                0.86200024               -0.04494857               -0.05136545                0.12919487               -0.00496452               -0.03803449               -0.04700856
              -0.14399117                0.92880420               96.09321508                0.52291847               -0.04020569                0.01075569                0.09355858                0.02622605                0.00881932                0.01696351
               0.85560677                0.92500472               96.09627487                0.30346017               -0.06484540               -0.06485894                0.10374810                0.07243590                0.02179226                0.02175853
               1.85471192                0.92239571               96.09965720                0.12731329               -0.09061817               -0.06012785                0.11917785                0.15837685                0.05583079                0.01297273
               2.85379441                0.92148215               96.10353051                0.01000000               -0.05800126               -0.07148789                0.14275899                0.20645464                0.10679869               -0.03289463
               3.85355189                0.92107405               96.10746110                0.50761412               -0.01474959                0.02810847                0.12956897                0.09664186                0.10117305                0.20742667
               4.85349941                0.91959149               96.11059624                0.98007249               -0.00881352               -0.01874990                0.09679754                0.02470839                0.01519665                0.07217212
               5.85337562                0.91754990               96.11300469                0.98603572               -0.01456295               -0.01839894                0.06933236               -0.00889861               -0.04617477                0.03649630
               6.85320815                0.91531822               96.11498895                0.74779571               -0.01888802               -0.01355557                0.05898765               -0.03638670               -0.06971405                0.03095978
               7.85299786                0.91279312               96.11697335                0.44920297               -0.02531365               -0.02167345                0.08406419               -0.05890520               -0.05212480                0.01982344
               8.85270188                0.91000943               96.11944907                0.36873987               -0.03390738               -0.04190420                0.12932865               -0.04958086               -0.01030920               -0.01898874
               9.85231971                0.90740667               96.12251473                0.76162000               -0.03821676               -0.07774703                0.14984796               -0.02803981                0.01092006               -0.06789067
              -0.13946049                1.92916292               96.09633335                0.54573052               -0.04088784                0.02115330                0.10204425                0.02941080                0.01849106                0.01092797
               0.86013063                1.92410921               96.09941020                0.12518438               -0.06070823               -0.09058452                0.11926691                0.15922862                0.01274609                0.05592566
               1.85932535                1.92160065               96.10241367                0.01000001               -0.09853989               -0.09818795                0.05694498                0.34313909                0.02008989                0.02163833
               2.85815984                1.92040536               96.10567773                0.01307508               -0.16630302               -0.11901822                0.44224572                0.52070107                0.29812954                0.02529651
               3.85599929                1.92182121               96.11578092                0.01000000               -0.12030852               -0.19058726                0.28334685                0.41060567                0.28837192                0.20900045
               4.85575366                1.91936556               96.11741996                0.01849529               -0.02142772               -0.05920475                0.05634820                0.09979445               -0.04293528                0.13536076
               5.85557073                1.91730559               96.11973392                0.62767263               -0.02221889                0.01850653                0.10510753                0.02514832               -0.00224744                0.17188886
               6.85530929                1.91513712               96.12222129                0.98120163               -0.02770328               -0.01408711                0.11558467               -0.00572805               -0.00557956                0.11272447
               7.85501667                1.91254198               96.12464930                0.97048953               -0.02936952               -0.02819016                0.08672056               -0.03610723               -0.02844960                0.04961438
               8.85472190                1.90957402               96.12675043                0.82084886               -0.02471820               -0.03141975                0.06536437               -0.05303041               -0.03507101               -0.00234173
               9.85452230                1.90636538               96.12905675                0.99966037               -0.01995943               -0.07474303                0.07892924               -0.05598916               -0.02987861               -0.03184104
              -0.13329555                2.92922727               96.09945591                0.66635063               -0.03508381               -0.02421686                0.08158638                0.03157590                0.02679917               -0.06847107
               0.86635361                2.92319303               96.10304254                0.01000000               -0.07129485               -0.05746627                0.14258954                0.20632773               -0.03371539                0.10706742
               1.86527855                2.92043195               96.10543989                0.01303661               -0.11828731               -0.16317315                0.44346390                0.51964994                0.02372859                0.30283176
               2.86398786                2.91910179               96.10865634                0.01251719               -0.12373687               -0.11973748                0.31646627                0.39310310                0.32165535                0.32757081
               3.86280381                2.91726230               96.11908581                0.01000000               -0.19884674               -0.27863683                0.28369523                0.57114301                0.33506251                0.05757022
               4.86001093                2.91840740               96.12522332                0.01000001               -0.23483927               -0.19824097                0.23645521                0.63338917                0.03514467                0.24821587
               5.85810703                2.91792003               96.12871269                0.01000000               -0.10768649               -0.09782430                0.09594898                0.37329302               -0.02644489                0.17552867
               6.85785720                2.91503647               96.13044797                0.01066774               -0.01341057               -0.05853866                0.04414910                0.16333430               -0.05577041                0.16857527
               7.85783882                2.91222932               96.13228234                0.02515382               -0.00196606                0.00667956                0.05097317                0.08710597               -0.03804628                0.09719620
               8.85781788                2.90938103               96.13444231                1.00000000               -0.01108024               -0.01763619                0.09036558                0.03126524               -0.02405754                0.02908878
               9.85761721                2.90591180               96.13710017                0.99999999               -0.02006660               -0.05540904                0.10073008               -0.01088168               -0.00503610                0.05766958
              -0.12676048                3.92867858               96.10165211                0.87414643               -0.01870078               -0.04988834                0.04187621                0.03345032                0.03160520               -0.13225895
               0.87305251                3.92295989               96.10672477                0.50437065                0.02850350               -0.01410839                0.12916475                0.09836898                0.20754456                0.10103967
               1.87380959                3.91833719               96.11533276                0.01000000               -0.19304829               -0.11685002                0.28294515                0.41064838                0.20659186                0.29351318
               2.86919154                3.91801061               96.11885657                0.01000000               -0.28465258               -0.18122049                0.28073323                0.56006813                0.05447330                0.33985884
               3.86811653                3.91624848               96.12403827                0.01000002               -0.07139087               -0.06717096                0.25341045                0.44535905                0.13332289                0.13467347
               4.86776373                3.91540074               96.13052698                0.01000001               -0.08545092               -0.21727701                0.25205632                0.60618792                0.05675605                0.10414005
               5.86640752                3.91534910               96.13559602                0.01000001               -0.17485207               -0.19482371                0.24443638                0.60562355               -0.08697383                0.15356273
               6.86426668                3.91396635               96.13973841                0.01000000               -0.19966448               -0.12423768                0.18769130                0.46463072               -0.18972174                0.26361360
               7.86241423                3.91267557               96.14111217                0.02161164               -0.13009860               -0.00039253                0.14302578                0.20799836               -0.20811985                0.18191279
               8.86166471                3.90922130               96.14234184                0.63459984               -0.05855516               -0.01391205                0.14457020                0.07112813               -0.09238348                0.04718371
               9.86124312                3.90525720               96.14528910                0.98154542               -0.04215883               -0.11939965                0.12861772                0.05405048                0.00213481                0.12818371
              -0.12118916                4.92822950               96.10343396                0.86350242               -0.01484532               -0.03593567                0.03914469               -0.00283542                0.02824876               -0.12945376
               0.87866238                4.92291086               96.10962028                0.97624574               -0.01850215               -0.00852825                0.09686132                0.02534607                0.07228300                0.01567009
               1.87844079                4.91809495               96.11674088                0.01689901               -0.06922236               -0.02108314                0.05579715                0.11007876                0.13131312               -0.04365780
               2.87727794                4.91547738               96.12475121                0.01000001               -0.20599612               -0.23147056                0.23674028                0.63415810                0.24781487                0.03485004
               3.87432087                4.91591888               96.13035890                0.01000001               -0.21219367               -0.08560929                0.26352521                0.59407361                0.14047580                0.03006158
               4.87303406                4.91406186               96.13588400                0.01000001               -0.13334895               -0.13493396                0.26681638                0.51921106                0.07718810                0.07608329
               5.87165389                4.91402355               96.14149486                0.01000000               -0.16053607               -0.11101578                0.27660484                0.55995557               -0.02146395                0.15954516
               6.86982334                4.91255172               96.14676973                0.01090288               -0.24550291               -0.21934875                0.34771995                0.62063755               -0.26157382                0.37304767
               7.86674383                4.91222146               96.15028590                0.02209346               -0.15822625               -0.18601228                0.27204475                0.54008975               -0.29529738                0.10756805
               8.86665882                4.90910279               96.15059340                0.41524428               -0.00587091               -0.06989051                0.15755589                0.19280718               -0.18820767                0.07396183
               9.86662641                4.90352381               96.15430017                0.99743554               -0.00324006               -0.21985523                0.13970802                0.09694908               -0.02401391                0.30312352
              -0.11617990                5.92795987               96.10503968                0.69531163               -0.01261123               -0.02373880                0.04118087               -0.02675980                0.02476091               -0.11764582
               0.88369398                5.92278932               96.11179904                0.98167832               -0.01877262               -0.01444957                0.06966574               -0.00898111                0.03607531               -0.04572701
               1.88344464                5.91791552               96.11881019                0.61765094                0.01783922               -0.02190812                0.10415809                0.02513297                0.17037883               -0.00261283
               2.88405077                5.91338120               96.12805963                0.01000000               -0.10155595               -0.11677173                0.10884644                0.38081999                0.19154234               -0.04151125
               3.88141353                5.91453629               96.13520233                0.01000001               -0.20037453               -0.17094991                0.24817649                0.60371739                0.15229018               -0.08848425
               4.88004328                5.91270206               96.14130602                0.01000000               -0.11483801               -0.15812104                0.27615910                0.56112675                0.15588858               -0.02148891
               5.87911677                5.91312879               96.14998262                0.04209202               -0.07808783               -0.07533127                0.29516022                0.39360961                0.13891713                0.14318378
               6.87848152                5.90957937               96.15585366                0.03783092               -0.12259075               -0.12728474                0.28390355                0.45368302               -0.11408122                0.08707117
               7.87666495                5.90895533               96.15817847                0.01539610               -0.21315067               -0.21224819                0.37611741                0.71967824               -0.31568044               -0.16645222
               8.87421851                5.90782349               96.15930828                0.53429190               -0.11624429               -0.15775166                0.14336432                0.33504369               -0.19826825                0.04714972
               9.87434006                5.90086009               96.16445927                0.99394922                0.01215559               -0.17284382                0.15124805                0.03869331                0.00980335                0.27713733
              -0.11138328                6.92775473               96.10657975                0.56154072               -0.00896212               -0.03064681                0.05273504               -0.04234609                0.01089795               -0.11652803
               0.88852710                6.92262187               96.11355140                0.74512428               -0.01325758               -0.01924645                0.05952547               -0.03677134                0.03187859               -0.06967943
               1.88835157                6.91765679               96.12108347                1.00000000               -0.01267680               -0.02762984                0.11516866               -0.00560036                0.11363389               -0.00506990
               2.88827357                6.91314194               96.12959778                0.01000000               -0.06386053               -0.01243773                0.04190564                0.16501222                0.16518148               -0.05555314
               3.88707436                6.91249989               96.13909937                0.01000000               -0.13047330               -0.19719430                0.18714139                0.46433568                0.25696313               -0.18758070
               4.88566410                6.91089944               96.14632748                0.01084548               -0.22127955               -0.24131914                0.34686752                0.62139768                0.36973986               -0.26466400
               5.88264877                6.91251693               96.15565106                0.03758965               -0.12968216               -0.11957671                0.28371858                0.45590345                0.08588270               -0.10820912
               6.88307046                6.91000602               96.15969897                0.02170394                0.01222556                0.01258575                0.28111169                0.25804450               -0.38581849               -0.38475696
               7.88289328                6.90797650               96.16137692                0.01000000               -0.08077674               -0.09465576                0.25980384                0.32824555               -0.26479334               -0.16866563
               8.88145492                6.90594776               96.16720737                0.76394772               -0.07831096               -0.16354122                0.14022034                0.24419438               -0.02127939               -0.02606670
               9.88132706                6.90006694               96.17349815                0.90937084               -0.01278600               -0.03872178                0.10533194                0.03402881                0.00335380                0.13098526
              -0.10676111                7.92734693               96.10818786                0.54000828               -0.01823957               -0.04918557                0.08961516               -0.03882673               -0.00497585               -0.10957089
               0.89305650                7.92240440               96.11530069                0.45044165               -0.02131657               -0.02622399                0.08508157               -0.05963014                0.02202016               -0.05234566
               1.89281256                7.91736293               96.12328911                0.97361623               -0.02742927               -0.02948106                0.08699418               -0.03650423                0.05123564               -0.02893007
               2.89250791                7.91313245               96.13120265                0.02689614                0.00650902               -0.00126179                0.04858250                0.08284700                0.09707771               -0.03993591
               3.89294274                7.91059241               96.14031083                0.02181438               -0.00268611               -0.12964236                0.14031990                0.21078845                0.17511972               -0.21063452
               4.89245419                7.90787568               96.14959411                0.02174493               -0.19072490               -0.15418601                0.26847529                0.54579565                0.10852013               -0.29832458
               5.88912825                7.91073725               96.15783113                0.01429434               -0.21356770               -0.21437462                0.37621065                0.72587551               -0.16311939               -0.31892252
               6.88818284                7.90983109               96.16120211                0.01000000               -0.09200589               -0.08332572                0.25750582                0.33091711               -0.17055407               -0.26802988
               7.88728813                7.90706221               96.16903170                0.70810644               -0.05854379               -0.05942871                0.11939662                0.18838520               -0.05569200               -0.05523690
               8.88701196                7.90455266               96.17398676                0.95841544               -0.02529209               -0.10048288                0.12574600                0.14411729               -0.11285314               -0.06206892
               9.88678229                7.90008566               96.18064794                0.79921040               -0.02296756                0.00544821                0.05982545                0.04094098               -0.02866924                0.01551568
              -0.10227474                8.92677102               96.11032344                0.62667484               -0.04067564               -0.05171188                0.11629994               -0.01532627               -0.02548976               -0.06566803
               0.89731850                8.92209739               96.11754107                0.36764272               -0.04159128               -0.03465958                0.13008147               -0.04990380               -0.01643828               -0.01064026
               1.89689344                8.91706716               96.12515083                0.82581232               -0.03087374               -0.02478015                0.06582836               -0.05296863               -0.00031303               -0.03511077
               2.89670103                8.91311671               96.13310826                1.00000000               -0.01732655               -0.01078061                0.08977845                0.03085939                0.02772949               -0.02611547
               3.89654690                8.90990704               96.14124963                0.64459964               -0.01329310               -0.05508970                0.14232188                0.06964070                0.04378673               -0.09655467
               4.89643517                8.90781572               96.14972605                0.42249418               -0.06680158               -0.00524364                0.15464836                0.19136942                0.06650118               -0.18604704
               5.89521087                8.90822943               96.15860957                0.53975940               -0.15356643               -0.11958938                0.14062810                0.33827254                0.03982676               -0.20422345
               6.89336384                8.90833951               96.16672340                0.76028525               -0.16357307               -0.08048791                0.13883422                0.24809573               -0.02960383               -0.02558229
               7.89193941                8.90678793               96.17373548                0.94847058               -0.10250075               -0.02506928                0.12613183                0.14636132               -0.06204127               -0.11437552
               8.89131382                8.90393810               96.18054787                0.79828300               -0.04297614               -0.04221175                0.08194659                0.05431058               -0.04303121               -0.04374908
               9.89107989                8.90017590               96.18748771                0.61211175               -0.02339359                0.00789919                0.02659721                0.02352348               -0.02488251               -0.01041354
              -0.09772037                9.92631269               96.11303714                0.86056064               -0.05173517               -0.04583220                0.13143219               -0.00471247               -0.04628204               -0.03597026
               0.90176227                9.92171120               96.12036741                0.75774939               -0.07728763               -0.03861834                0.15013103               -0.02789153               -0.06381495                0.01048884
               1.90073387                9.91686732               96.12723566                0.99955515               -0.07385232               -0.01998405                0.07842335               -0.05567459               -0.02810189               -0.02918249
               2.90028523                9.91291684               96.13554138                0.99999999               -0.05486630               -0.01998686                0.09960462               -0.01041587                0.05846044               -0.00573762
               3.89963655                9.90949061               96.14399020                0.98225599               -0.11630217               -0.04164274                0.12675620                0.05166262                0.12572574                0.00202840
               4.89795918                9.90777080               96.15321126                0.99723896               -0.21333223               -0.00449128                0.13769926                0.09514431                0.29222376               -0.02336449
               5.89536990                9.90834546               96.16352853                0.99024240               -0.16864624                0.01160303                0.14928114                0.03842918                0.26906932                0.00988956
               6.89458626                9.90822133               96.17278281                0.91139804               -0.03765690               -0.01181833                0.10397460                0.03301018                0.12795528                0.00242951
               7.89461676                9.90656083               96.18016760                0.79472241                0.00619707               -0.02270991                0.05941337                0.04209027                0.01361415               -0.02931914
               8.89471020                9.90370843               96.18724479                0.61126516                0.00801964               -0.02296743                0.02684425                0.02377836               -0.01181439               -0.02522590
               9.89477716                9.90024364               96.19431283                0.72493667                0.00669567                0.00677426                0.00222129                0.02324851               -0.01262913               -0.01187118
              -0.15062957               -0.07386259               97.09120053                0.67949318               -0.01815387               -0.01823020                0.08025953                0.01399319                0.00764173                0.00692459
               0.84918889               -0.07735535               97.09443830                0.48372202               -0.00435849               -0.04381521                0.10324359                0.03711044                0.01240874                0.00941928
               1.84928326               -0.07987182               97.09790021                0.52461007               -0.01195649               -0.04061085                0.10809630                0.02756260               -0.03444602                0.02104991
               2.84894976               -0.08148425               97.10092500                0.69690892               -0.03249038               -0.03909458                0.05642643                0.02302599               -0.12263569                0.02786267
               3.84863345               -0.08364558               97.10300205                0.75618499               -0.02202738               -0.01980695                0.04001266               -0.00662079               -0.14770937                0.05303029
               4.84850921               -0.08616452               97.10504067                0.62572429               -0.01072258               -0.01645814                0.04565214               -0.02949996               -0.13001945                0.03467016
               5.84841900               -0.08872080               97.10698739                0.48385752               -0.01966960               -0.01707953                0.06694355               -0.03442749               -0.12707877                0.01178385
               6.84811582               -0.09130132               97.10896367                0.47321908               -0.04970364               -0.02591256                0.10323070               -0.02686228               -0.12558252               -0.01873278
               7.84742493               -0.09399802               97.11131686                0.56337382               -0.06235833               -0.03826041                0.12200930               -0.00519275               -0.10683335               -0.04092103
               8.84686866               -0.09687144               97.11376638                0.65370928               -0.04538267               -0.04413694                0.11945751               -0.00525965               -0.06840454               -0.01578333
               9.84651727               -0.09968805               97.11664531                0.84253687               -0.03513802               -0.03977302                0.10757925               -0.00834492               -0.03830145               -0.02837113
              -0.14699687                0.92595511               97.09419584                0.48300690               -0.04385168               -0.00461455                0.10336700                0.03725102                0.00931424                0.01107798
               0.85256461                0.92220649               97.09742173                0.14229870               -0.06898993               -0.06897877                0.13048385                0.08922658                0.02816990                0.02814117
               1.85162333                0.91972207               97.10107109                0.01152270               -0.07488573               -0.05742246                0.17093283                0.15404113                0.08116572               -0.06180756
               2.85106690                0.91812481               97.10519734                0.30803013               -0.03579753                0.00253109                0.18556089                0.06787301                0.10546292                0.24244756
               3.85090738                0.91615635               97.10887114                0.88599814               -0.01575389               -0.01463628                0.12560107                0.02042730                0.03433468                0.11941095
               4.85075182                0.91367090               97.11150477                0.96105936               -0.01321274               -0.02298734                0.07686272               -0.01257042               -0.04414553                0.03963579
               5.85064313                0.91110841               97.11360661                0.68614628               -0.01330048               -0.01613347                0.06045659               -0.03022911               -0.07642918                0.02695998
               6.85048581                0.90843955               97.11557326                0.40618694               -0.02425334               -0.02086695                0.09547878               -0.04408282               -0.06687861                0.01982025
               7.85015806                0.90561937               97.11802150                0.25646645               -0.04123703               -0.03466547                0.14832757               -0.03734390               -0.02722466               -0.02131048
               8.84966107                0.90268719               97.12100991                0.28858978               -0.04538141               -0.05686256                0.15303478               -0.02345496               -0.00340450               -0.06196197
               9.84925043                0.89991422               97.12402794                0.69754895               -0.04106399               -0.08259346                0.13809004               -0.01328222               -0.00008055               -0.09629416
              -0.14238731                1.92604512               97.09740245                0.52351436               -0.04062226               -0.01273784                0.10838906                0.02779339                0.02120726               -0.03665277
               0.85720647                1.92126507               97.10082631                0.01127383               -0.05834601               -0.07465975                0.17124696                0.15485766               -0.06196488                0.08108173
               1.85644577                1.91897973               97.10273916                0.01000000               -0.16667636               -0.16421353                0.06912796                0.44281398                0.32682026                0.32846223
               2.85387294                1.91856637               97.11365648                0.01000000               -0.14749304               -0.14072460                0.45858519                0.29321777                0.32373204                0.08414338
               3.85349591                1.91606169               97.11614316                0.01866010               -0.02835964               -0.05777847                0.04368961                0.06762495               -0.02407606                0.11127189
               4.85330575                1.91337573               97.11818884                0.46889126               -0.02250717                0.01836383                0.09136172                0.01316984               -0.02128494                0.17733534
               5.85304577                1.91095653               97.12077465                0.99357946               -0.02912728               -0.00912539                0.10352588                0.00180732               -0.00472350                0.11901419
               6.85272320                1.90828134               97.12331953                0.95176730               -0.03076759               -0.02218050                0.08791823               -0.02657605               -0.03073249                0.06789591
               7.85243041                1.90530867               97.12537719                0.67333769               -0.03092463               -0.02483950                0.06949508               -0.05208749               -0.06121738                0.01890275
               8.85210471                1.90199131               97.12733415                0.56973686               -0.03164241               -0.04458073                0.09241771               -0.06145111               -0.04860610               -0.04451948
               9.85179757                1.89866008               97.12989515                0.86542209               -0.03071437               -0.08863074                0.12049846               -0.05531282               -0.03295426               -0.07776428
              -0.13688089                2.92570036               97.10016996                0.69737380               -0.03919434               -0.03356126                0.05680225                0.02353502                0.02782004               -0.12470080
               0.86272716                2.92071330               97.10470648                0.30460946                0.00296006               -0.03529295                0.18538346                0.06952627                0.24319808                0.10553393
               1.86317831                2.91643780               97.11344724                0.01000000               -0.14389375               -0.14566887                0.45977061                0.29607014                0.08239582                0.32771974
               2.85984929                2.91531031               97.11378493                0.01000000               -0.28638921               -0.27916397                0.64347330                0.56652693                0.10160450                0.10741030
               3.85745052                2.91500078               97.12294538                0.01515911               -0.18644550               -0.16645017                0.34832967                0.48154753                0.23781938                0.26394569
               4.85612038                2.91403817               97.12729733                0.01000001               -0.08384281               -0.07004151                0.13027963                0.24849253               -0.01638853                0.23734079
               5.85577367                2.91092590               97.12909782                0.02348409               -0.02591098                0.00628991                0.05372924                0.03915177               -0.05092291                0.18728254
               6.85560216                2.90799594               97.13100741                0.42538224               -0.01836628                0.01375976                0.08205442                0.01520192               -0.03795285                0.17674188
               7.85540634                2.90512258               97.13313297                0.75775239               -0.02607612               -0.00095312                0.11053968               -0.00975726               -0.03640384                0.14935618
               8.85508064                2.90179557               97.13544023                0.97251830               -0.02998585               -0.02469568                0.10622920               -0.02354162               -0.02472803                0.04665733
               9.85480663                2.89814160               97.13805038                0.99723682               -0.02740114               -0.04832312                0.08830625               -0.03477312               -0.01129452                0.03756097
              -0.13194249                3.92537390               97.10199445                0.75752521               -0.01979553               -0.02293709                0.04082848               -0.00619844                0.05268068               -0.14860036
               0.86785955                3.92055921               97.10813387                0.88397116               -0.01436749               -0.01555480                0.12589730                0.02117012                0.11990396                0.03449553
               1.86777016                3.91606635               97.11569160                0.01804627               -0.06095276               -0.02799204                0.04324587                0.07033792                0.10679322               -0.02468888
               2.86664050                3.91298309               97.12267607                0.01513297               -0.16855776               -0.18463246                0.35018101                0.48188882                0.26162296                0.24264150
               3.86439900                3.91273269               97.12812653                0.01000001               -0.21450086               -0.24170065                0.41156282                0.64706346                0.14545812                0.15578320
               4.86235048                3.91197490               97.13418427                0.01045260               -0.22639835               -0.19846363                0.37029063                0.55612966               -0.01368214                0.24166223
               5.85987103                3.91108233               97.13837285                0.01000000               -0.17599599               -0.12083790                0.20624469                0.35569290               -0.15437634                0.27203339
               6.85883056                3.90855653               97.14085790                0.03163834               -0.07176989                0.01441175                0.10043786                0.08338372               -0.17755561                0.35639029
               7.85843564                3.90528961               97.14297657                0.02968131               -0.01078519               -0.07909718                0.10250849                0.05739351               -0.16937300                0.23000425
               8.85861485                3.90149739               97.14378709                0.77961977               -0.00127990               -0.02667531                0.11957837                0.01247084               -0.11260240                0.04947602
               9.85841004                3.89769362               97.14638304                0.98094653               -0.02048164               -0.06454794                0.09577347                0.01627577               -0.01441342                0.10492808
              -0.12737549                4.92524161               97.10379050                0.62616807               -0.01663995               -0.01155147                0.04648439               -0.02967370                0.03491645               -0.13004913
               0.87245811                4.92040220               97.11053419                0.95962506               -0.02316654               -0.01345234                0.07753496               -0.01260013                0.03992535               -0.04352664
               1.87216118                4.91587796               97.11750000                0.46268766                0.01813051               -0.02239381                0.09066435                0.01324548                0.17658165               -0.02148170
               2.87282072                4.91161767               97.12687257                0.01521793               -0.03805980               -0.08536596                0.13293528                0.22228952                0.25573528               -0.02202475
               3.87139999                4.91016677               97.13421268                0.01049583               -0.19636972               -0.22426844                0.36786279                0.54523451                0.24110864               -0.00536942
               4.86889333                4.91006890               97.13977800                0.01000001               -0.25470460               -0.21901292                0.48863336                0.51476077                0.05789182                0.07565550
               5.86630590                4.90850914               97.14530766                0.01000001               -0.29153843               -0.19638355                0.43282334                0.56377680                0.02796892                0.19681570
               6.86306256                4.90828418               97.15088300                0.03777747               -0.13462711               -0.16102135                0.27335545                0.43862205               -0.09841566                0.23464403
               7.86361335                4.90354064               97.15301848                0.01942385               -0.00682605               -0.13576574                0.18544409                0.29789532               -0.30777030                0.20177470
               8.86292604                4.90126207               97.15203098                0.38544440               -0.04368326               -0.06949741                0.14281360                0.18903524               -0.22781908                0.06352377
               9.86273969                4.89685065               97.15546546                0.98186788               -0.01863529               -0.18538624                0.10379144                0.09998822               -0.02328057                0.27654431
              -0.12285714                5.92514287               97.10550197                0.48369598               -0.01716508               -0.02065677                0.06834168               -0.03501490                0.01264027               -0.12634222
               0.87697121                5.92029016               97.11240622                0.68576019               -0.01616268               -0.01371374                0.06098892               -0.03078612                0.02755465               -0.07583935
               1.87681960                5.91561847               97.11985345                0.99079148               -0.00868653               -0.02900837                0.10358126                0.00146984                0.11944817               -0.00481759
               2.87679747                5.91127578               97.12845403                0.02178988                0.00164268               -0.02523227                0.05314622                0.03623968                0.19009718               -0.05199921
               3.87685246                5.90824732               97.13805133                0.01000000               -0.12470780               -0.14510920                0.20496572                0.31922327                0.26926523               -0.16337398
               4.87430332                5.90759464               97.14509248                0.01000001               -0.19605803               -0.28502301                0.43210730                0.55856307                0.18929044                0.03151647
               5.87293130                5.90715466               97.15125955                0.03481567               -0.08659077               -0.08590458                0.23092469                0.48246017               -0.00124708               -0.00096702
               6.87257150                5.90533610               97.15637212                0.03254602               -0.07578219               -0.24184768                0.24513993                0.43456035               -0.17454770                0.00625025
               7.87141565                5.90257429               97.16150583                0.01000000               -0.17429753               -0.12579192                0.30680007                0.33742103               -0.44187105               -0.07912584
               8.86908555                5.90010744               97.16070216                0.49320018               -0.10915043               -0.14016148                0.16278725                0.19184477               -0.28464045                0.09787423
               9.86923264                5.89398589               97.16579871                1.00000000                0.01470905               -0.17198716                0.11842697                0.00945150               -0.00204967                0.31670344
              -0.11837037                6.92482848               97.10725162                0.47258598               -0.02628397               -0.05085007                0.10564572               -0.02735605               -0.01728940               -0.12380084
               0.88136679                6.92012793               97.11414542                0.40708666               -0.02123291               -0.02475482                0.09617574               -0.04484037                0.02059021               -0.06669894
               1.88120497                6.91529779               97.12216596                0.95209749               -0.02250583               -0.03032167                0.08723543               -0.02709561                0.06685904               -0.03036746
               2.88091667                6.91111302               97.13010478                0.41903433                0.01303085               -0.01750517                0.07944957                0.01403984                0.17272333               -0.03945319
               3.88146559                6.90726458               97.14019470                0.03159338                0.01202910               -0.06852172                0.09966906                0.08365145                0.35707933               -0.18618289
               4.88115725                6.90436844               97.15043572                0.03767412               -0.16259746               -0.13462391                0.27364746                0.43942707                0.23369309               -0.10002949
               5.87821364                6.90679105               97.15615193                0.03217638               -0.24115559               -0.07548418                0.24296220                0.43566300                0.00808359               -0.17448682
               6.87633414                6.90344722               97.16183952                0.14975402               -0.13116004               -0.13154262                0.20129489                0.13476028               -0.14239818               -0.14544874
               7.87559044                6.90102480               97.16596606                0.47444047               -0.04914037               -0.09353492                0.29132583                0.21483678               -0.29948137               -0.23948903
               8.87535133                6.89845884               97.16868305                0.82321475               -0.02093086               -0.13174102                0.15652042                0.18180533               -0.16259678                0.00973167
               9.87517182                6.89341090               97.17430101                0.78959789               -0.01795150               -0.02632643                0.06452529                0.03773391               -0.01944753                0.13352461
              -0.11400316                7.92412587               97.10938960                0.56226993               -0.03917510               -0.06332721                0.12503981               -0.00517432               -0.04022946               -0.10436493
               0.88560509                7.91979507               97.11636078                0.25736423               -0.03521201               -0.04167507                0.14914739               -0.03692450               -0.01971104               -0.02753079
               1.88529260                7.91501204               97.12400279                0.67653678               -0.02468050               -0.03043528                0.06872290               -0.05122419                0.01952532               -0.06035841
               2.88511148                7.91092567               97.13201261                0.75920055               -0.00112665               -0.02563468                0.10794737               -0.00972716                0.14631348               -0.03659554
               3.88527006                7.90687689               97.14207482                0.03047705               -0.07730419               -0.01015642                0.09786576                0.05374812                0.22422692               -0.16807981
               4.88356539                7.90490216               97.15230155                0.01934029               -0.13521453               -0.00377176                0.18479109                0.29725059                0.20101721               -0.30891873
               5.88256577                7.90564498               97.16110096                0.01000000               -0.12662168               -0.17331699                0.29828430                0.34146130               -0.07426692               -0.44909889
               6.88103296                7.90270525               97.16571601                0.47178145               -0.09325010               -0.04901993                0.28809505                0.21684626               -0.24136819               -0.30399456
               7.88070077                7.90070359               97.16994043                0.99628978               -0.03487011               -0.03436897                0.10720601                0.18932851               -0.16909951               -0.17028574
               8.88033556                7.89747262               97.17525788                0.91737368               -0.03087917               -0.06623565                0.10604852                0.08352428               -0.08251893               -0.03345268
               9.88008319                7.89345936               97.18112280                0.61995269               -0.02523685                0.00319152                0.03818599                0.04797409               -0.04935282                0.02648046
              -0.10981226                8.92356193               97.11161847                0.65228550               -0.04456173               -0.04608349                0.12171365               -0.00503851               -0.01580661               -0.06652289
               0.88974212                8.91929443               97.11910919                0.28629162               -0.05689304               -0.04573594                0.15386933               -0.02239611               -0.05903475               -0.00360182
               1.88904988                8.91468908               97.12573751                0.56884564               -0.04424218               -0.03171633                0.09247490               -0.06042910               -0.04152471               -0.04832554
               2.88885728                8.91060033               97.13409858                0.97350875               -0.02429124               -0.02999658                0.10551307               -0.02335508                0.04638664               -0.02531464
               3.88856406                8.90706146               97.14268230                0.79156191               -0.02615532               -0.00082509                0.11824844                0.01242966                0.04654179               -0.11250776
               4.88833417                8.90429301               97.15113044                0.39182813               -0.06621407               -0.03967354                0.13949176                0.18517758                0.05702508               -0.22685458
               5.88723977                8.90332471               97.15997190                0.49719300               -0.13608609               -0.10900906                0.16008453                0.19225238                0.09104511               -0.28934448
               6.88561245                8.90246682               97.16818595                0.82114515               -0.13150694               -0.02066372                0.15575962                0.18276594                0.00798207               -0.16332540
               7.88460964                8.90033742               97.17502225                0.91239616               -0.06732031               -0.03103039                0.10665581                0.08487697               -0.03355562               -0.08336770
               8.88426605                8.89713412               97.18135827                0.35283403               -0.02259095               -0.02248521                0.06254456                0.02759124               -0.03625408               -0.03556823
               9.88415782                8.89347473               97.18764618                0.43105064               -0.01082294                0.00251431                0.01527549                0.01940638               -0.02777413                0.00586595
              -0.10556892                9.92320420               97.11425908                0.84184372               -0.04010695               -0.03577364                0.10925893               -0.00805054               -0.02726197               -0.03706188
               0.89403002                9.91888035               97.12188817                0.69455447               -0.08264847               -0.04140772                0.13895772               -0.01253502               -0.09211503               -0.00022370
               1.89277812                9.91437771               97.12806283                0.86159375               -0.08790060               -0.03113696                0.12042991               -0.05490690               -0.07292051               -0.03354719
               2.89227200                9.91032574               97.13648592                0.99749214               -0.04760680               -0.02745861                0.08809882               -0.03439408                0.03980487               -0.01190930
               3.89182598                9.90686039               97.14507394                0.98156303               -0.06331571               -0.02010698                0.09416657                0.01534006                0.10352562               -0.01425044
               4.89100569                9.90410869               97.15435167                0.98031632               -0.17944877               -0.01843116                0.10098001                0.09737208                0.26791358               -0.02280167
               5.88823700                9.90346480               97.16483951                1.00000000               -0.16650603                0.01400855                0.11599517                0.00888724                0.30864302               -0.00237770
               6.88767557                9.90229198               97.17357382                0.79086093               -0.02529964               -0.01748447                0.06355805                0.03722101                0.13159304               -0.01985545
               7.88773101                9.90008298               97.18064563                0.61767947                0.00372508               -0.02544373                0.03830007                0.04868462                0.02499362               -0.05066714
               8.88775007                9.89702292               97.18741020                0.43051380                0.00295429               -0.01112046                0.01594124                0.01973579                0.00376458               -0.02742740
               9.88779010                9.89350965               97.19424811                0.66347681                0.00400267                0.00349178               -0.00187508                0.01190128                0.00474505                0.00663786
              -0.15390670               -0.07690433               98.09199392                0.64414818               -0.02713932               -0.02718266                0.07651663                0.01822836                0.00450298                0.00394492
               0.84582191               -0.08037208               98.09552406                0.44770264               -0.03168373               -0.04483959                0.11588157                0.03664094               -0.00697500                0.01350581
               1.84545962               -0.08311754               98.09899742                0.56781609               -0.03336850               -0.05618541                0.08856066                0.02098892               -0.09545335                0.01257074
               2.84515454               -0.08615230               98.10134318                0.65732866               -0.01768470               -0.02480825                0.05648161               -0.02014166               -0.14888023                0.06868997
               3.84510593               -0.08941853               98.10346951                0.56275611               -0.00024630               -0.02603186                0.06431257               -0.03457387               -0.13847556                0.04898992
               4.84514961               -0.09249423               98.10560446                0.44784150               -0.00475380               -0.02697340                0.09248696               -0.02239100               -0.12532918                0.00889116
               5.84501085               -0.09532919               98.10787544                0.45223234               -0.03552389               -0.03689716                0.12669496               -0.00779860               -0.11321567               -0.04201757
               6.84443913               -0.09818559               98.11037603                0.53781482               -0.05321248               -0.04556471                0.13141383                0.00550266               -0.11171449               -0.05731404
               7.84394660               -0.10125226               98.11259199                0.60728928               -0.04043060               -0.04411679                0.11756272               -0.00323953               -0.09845361               -0.00785903
               8.84363052               -0.10439061               98.11489179                0.61973935               -0.02964521               -0.04069678                0.10893616               -0.00832315               -0.05945969               -0.00210541
               9.84335370               -0.10741238               98.11759351                0.79558144               -0.02768195               -0.03566829                0.09784631               -0.00934374               -0.03622293               -0.01242694
              -0.15025667                0.92282384               98.09528242                0.44738338               -0.04484090               -0.03199662                0.11589911                0.03669952                0.01332613               -0.00818029
               0.84929492                0.91917953               98.09888454                0.04795666               -0.05918522               -0.05909107                0.16294452                0.06147378                0.04271170                0.04290420
               1.84855962                0.91632061               98.10307586                0.01000000               -0.05956532               -0.05443617                0.23760122                0.09960256                0.08950322               -0.15331012
               2.84810361                0.91359962               98.10724173                0.73212447               -0.03142342               -0.01735303                0.16114639                0.00382449                0.03610215                0.15830089
               3.84793116                0.91032115               98.10997312                0.90394769               -0.01112916               -0.03045294                0.08616323               -0.02420534               -0.05665386                0.04824520
               4.84788103                0.90723604               98.11213349                0.63036164               -0.00763027               -0.01930332                0.06875629               -0.02362223               -0.08283546                0.01897125
               5.84777855                0.90430184               98.11421382                0.37422065               -0.02126687               -0.02380740                0.11526997               -0.02712791               -0.06014984               -0.00285413
               6.84745569                0.90135876               98.11689853                0.27238181               -0.03809163               -0.03767631                0.17265818               -0.01711496               -0.01642649               -0.04773830
               7.84701672                0.89830657               98.11993990                0.25097443               -0.04141722               -0.04695884                0.17301777               -0.01626198               -0.01819593               -0.07634479
               8.84662735                0.89520242               98.12250976                0.27672583               -0.03673442               -0.06780419                0.14732694               -0.02371691               -0.02416308               -0.08124258
               9.84628203                0.89223094               98.12527653                0.65627034               -0.03453185               -0.08999848                0.13286419               -0.02777228               -0.01315654               -0.09309324
              -0.14588408                1.92245574               98.09850113                0.56743837               -0.05613024               -0.03412977                0.08868459                0.02126112                0.01287064               -0.09749144
               0.85355462                1.91844610               98.10283514                0.01000000               -0.05421682               -0.05916873                0.23773137                0.09916858               -0.15381066                0.08949078
               1.85303158                1.91579374               98.10379622                0.01000001               -0.11620698               -0.11433467                0.52560783                0.21714647                0.21054875                0.21278577
               2.85123048                1.91350064               98.11484944                0.02593666               -0.10230900               -0.06846060                0.09300824                0.12984423                0.36955021                0.17267469
               3.85098540                1.90997241               98.11665471                0.36050948               -0.02669997                0.01183457                0.07821233               -0.01321439               -0.04503461                0.19325843
               4.85069648                1.90711971               98.11924719                0.94208581               -0.03199149               -0.00386238                0.09608086               -0.00640328               -0.01133741                0.12313227
               5.85034557                1.90419466               98.12180444                0.92421121               -0.03021908               -0.01171831                0.07986123               -0.02294457               -0.03041543                0.06527606
               6.85009210                1.90106088               98.12397966                0.65089070               -0.02839354               -0.01629075                0.07557643               -0.03894009               -0.05403963                0.01189613
               7.84977770                1.89780857               98.12603920                0.48814286               -0.04301406               -0.03447557                0.12713671               -0.05731861               -0.03978003               -0.04861249
               8.84923182                1.89425331               98.12859878                0.51972936               -0.05182423               -0.06705900                0.17851975               -0.06211779               -0.00282044               -0.08334918
               9.84874122                1.89078765               98.13146672                0.80458947               -0.04905976               -0.10279056                0.16973132               -0.05211602                0.00933330               -0.11410093
              -0.14181218                2.92214125               98.10059196                0.65787351               -0.02475301               -0.01848498                0.05679197               -0.01959040                0.06835612               -0.15030885
               0.85794029                2.91799615               98.10675021                0.72980573               -0.01699032               -0.03120087                0.16140122                0.00457466                0.15893313                0.03588415
               1.85784801                2.91403391               98.11463531                0.02583908               -0.07092349               -0.10015424                0.09247432                0.13029601                0.17046974                0.37044514
               2.85652182                2.91223041               98.12152581                0.01000000               -0.19001061               -0.18624174                0.50895062                0.36412583                0.18870609                0.19275516
               3.85404780                2.91055784               98.12605240                0.01355637               -0.14955536               -0.09377895                0.20866472                0.17302391                0.00942653                0.24126924
               4.85353071                2.90715879               98.12782892                0.07605824               -0.03346594                0.03168032                0.06186464                0.00284569               -0.06523413                0.24040749
               5.85337848                2.90406747               98.12978727                0.71901495               -0.02338632                0.01926323                0.07341822                0.00874695               -0.03946856                0.19093249
               6.85306299                2.90103294               98.13208905                0.95265705               -0.03502816                0.00788424                0.09592625               -0.02153237               -0.02284026                0.14855921
               7.85267792                2.89761706               98.13449313                0.93531398               -0.03285416               -0.02092066                0.10002187               -0.04259129               -0.03296093                0.07277215
               8.85240590                2.89386124               98.13656689                0.82979013               -0.02534531               -0.03166215                0.09543257               -0.03337825               -0.03185094                0.00859408
               9.85217101                2.89017513               98.13886629                0.93685320               -0.02348904               -0.04234859                0.08835269               -0.01752523               -0.02269730               -0.00537940
              -0.13798570                3.92208604               98.10246868                0.56354874               -0.02608561               -0.00101205                0.06494177               -0.03469745                0.04924975               -0.13901943
               0.86175345                3.91782208               98.10924272                0.90348994               -0.03055258               -0.01140900                0.08684083               -0.02421439                0.04867038               -0.05635774
               1.86140325                3.91379065               98.11619768                0.35696760                0.01178085               -0.02652278                0.07783827               -0.01301215                0.19313860               -0.04538895
               2.86198906                3.90977581               98.12586019                0.01338058               -0.09428761               -0.14857432                0.21275934                0.17321600                0.24084034                0.00959392
               3.85951750                3.90809683               98.13226953                0.01734991               -0.23726494               -0.23355725                0.49742958                0.50836588                0.05729199                0.06403743
               4.85724376                3.90775331               98.13793280                0.01883854               -0.14355698               -0.12460185                0.26474125                0.30246498               -0.06931166                0.32538972
               5.85664636                3.90457993               98.13972091                0.07962262               -0.05659521                0.05028502                0.11485287                0.05975196               -0.11580945                0.33089430
               6.85611186                3.90121857               98.14174717                0.23280015               -0.02743892                0.03487160                0.06662791               -0.00542769               -0.07740895                0.24342142
               7.85609758                3.89739015               98.14316234                0.31912405               -0.00528372                0.00553169                0.03674407               -0.04179913               -0.08358859                0.18520593
               8.85600619                3.89362006               98.14473340                0.78242963               -0.01673202               -0.02015233                0.08475345               -0.00999630               -0.05235577                0.05335277
               9.85576294                3.88994068               98.14720457                0.98990601               -0.02432457               -0.02680460                0.07485659               -0.01189654               -0.01249145                0.09492953
              -0.13397822                4.92212101               98.10436365                0.44828922               -0.02703896               -0.00570671                0.09339174               -0.02279865                0.00984502               -0.12486660
               0.86575139                4.91776797               98.11117098                0.63040915               -0.01938638               -0.00803840                0.06931565               -0.02387015                0.01966953               -0.08233804
               1.86563405                4.91350346               98.11855417                0.93764992               -0.00357147               -0.03187210                0.09606370               -0.00632515                0.12376995               -0.01113257
               2.86567996                4.90925892               98.12740991                0.07449738                0.03017815               -0.03334001                0.06190540                0.00245074                0.23762787               -0.06596559
               3.86623761                4.90588670               98.13771616                0.01867312               -0.12915197               -0.14050191                0.25421210                0.30253565                0.28664402               -0.03806832
               4.86309692                4.90466675               98.14565667                0.03828533               -0.25646722               -0.25393216                0.34393687                0.62817914                0.09430215                0.10318408
               5.86110827                4.90507317               98.15015133                0.01041406               -0.14763555               -0.11573748                0.30169233                0.41147240               -0.09638538                0.20811266
               6.86014421                4.90173038               98.15223683                0.02755432               -0.08339143               -0.12353581                0.14508122                0.06434751               -0.10096680                0.24163556
               7.85944044                4.89772770               98.15399479                0.07769858               -0.02443796               -0.14824595                0.10851642               -0.04361337               -0.28485920                0.38824332
               8.85965545                4.89345820               98.15344967                0.56863211               -0.00742973               -0.02455807                0.15051814                0.00689880               -0.18978053                0.10746077
               9.85929185                4.88963904               98.15637600                0.98694021               -0.03636037               -0.07910351                0.08292384                0.03523596               -0.01980575                0.23703474
              -0.12973560                5.92197190               98.10640652                0.45249917               -0.03708041               -0.03649659                0.12814395               -0.00798024               -0.04102052               -0.11150941
               0.86989359                5.91766132               98.11301882                0.37476870               -0.02392983               -0.02173239                0.11571953               -0.02727585               -0.00177184               -0.05958835
               1.86978580                5.91315321               98.12088181                0.92086073               -0.01193787               -0.03016791                0.08011162               -0.02284877                0.06566422               -0.02992238
               2.86965483                5.90910901               98.12912256                0.71164641                0.01872891               -0.02323111                0.07254337                0.00764628                0.18958153               -0.04095397
               3.87016038                5.90528680               98.13930164                0.07823895                0.04830188               -0.05669819                0.11057069                0.06065321                0.33268029               -0.11357819
               4.87062087                5.90267467               98.14994816                0.01040352               -0.11740975               -0.14884859                0.30289267                0.41310979                0.20591329               -0.09403612
               5.86781218                5.90226518               98.15460111                0.02311591               -0.29382929               -0.29437009                0.45461038                0.31857739               -0.01891594               -0.01855447
               6.86474429                5.89874785               98.16075646                0.10363688               -0.21573442               -0.19886071                0.37552765                0.12121065               -0.11021642               -0.09044872
               7.86349749                5.89442523               98.16431447                0.01000000               -0.02557326               -0.14877902                0.17911937                0.25003691               -0.48948445               -0.01605239
               8.86423282                5.89312890               98.16256402                0.43899846                0.03042407               -0.09357636                0.19417383                0.20729792               -0.32379368                0.12301286
               9.86410598                5.88835861               98.16682780                0.96718385               -0.01268457               -0.11128502                0.05356656                0.04348820               -0.03258129                0.31861918
              -0.12551665                6.92139107               98.10869266                0.53788641               -0.04587824               -0.05395588                0.13320345                0.00560240               -0.05696268               -0.10943640
               0.87402457                6.91733332               98.11547492                0.27332626               -0.03769805               -0.03856564                0.17297696               -0.01677387               -0.04637256               -0.01593267
               1.87372939                6.91290010               98.12282818                0.65066804               -0.01626329               -0.02844972                0.07603944               -0.03867905                0.01312289               -0.05351141
               2.87369930                6.90879430               98.13118677                0.95126386                0.00778140               -0.03511347                0.09625283               -0.02200234                0.14884212               -0.02405611
               3.87388501                6.90475274               98.14109275                0.23045485                0.03407170               -0.02717920                0.06707544               -0.00632751                0.24274982               -0.07966086
               4.87438073                6.90168978               98.15180043                0.02749604               -0.12391890               -0.08360439                0.14653718                0.06302792                0.23981865               -0.10304118
               5.87140664                6.89918577               98.16051031                0.10254712               -0.19861835               -0.21649397                0.37484616                0.12398214               -0.09181696               -0.11306780
               6.87040837                6.89775316               98.16372487                0.59462047               -0.06732548               -0.06715397                0.18377338                0.26690323               -0.24500728               -0.24569068
               7.87006013                6.89475212               98.16720344                0.85827765               -0.02701679                0.00875358                0.09673345                0.23501388               -0.19958224               -0.24038064
               8.86986803                6.89158667               98.17033778                0.63678518               -0.01789684               -0.09602560                0.13675520                0.13038082               -0.13942703                0.04262092
               9.86970219                6.88741334               98.17478866                0.69746981               -0.01658406               -0.05442526                0.07283448                0.08063801               -0.08378504                0.14698946
              -0.12150806                7.92089279               98.11068866                0.60652586               -0.04428532               -0.04099984                0.11893896               -0.00306152               -0.00791000               -0.09673392
               0.87804909                7.91689000               98.11828364                0.25112482               -0.04703491               -0.04176813                0.17354595               -0.01571824               -0.07415548               -0.01799820
               1.87755125                7.91258422               98.12466357                0.48946514               -0.03434698               -0.04297398                0.12701539               -0.05695533               -0.04600669               -0.03943373
               2.87736215                7.90840674               98.13336160                0.93864592               -0.02064507               -0.03285972                0.09950181               -0.04281646                0.07298381               -0.03359618
               3.87713834                7.90474321               98.14226815                0.32293064                0.00431219               -0.00474838                0.03687071               -0.04216411                0.18295378               -0.08539651
               4.87744839                7.90100258               98.15328993                0.07849526               -0.14549499               -0.02306425                0.10975908               -0.04512927                0.38095813               -0.28581416
               5.87422844                7.89793530               98.16379682                0.01000000               -0.14661941               -0.02408890                0.17478115                0.24859082               -0.01654488               -0.49242682
               6.87451601                7.89740477               98.16696401                0.85507116                0.00679112               -0.02689860                0.09717008                0.23648872               -0.23900482               -0.20106667
               7.87436427                7.89460031               98.17117582                0.95442959               -0.01683944               -0.01683727                0.09713523                0.09197348               -0.13362063               -0.13375721
               8.87417922                7.89120839               98.17610773                0.51221154               -0.01494337               -0.02561250                0.07343958                0.03832940               -0.06653378               -0.01790558
               9.87406540                7.88727011               98.18141166                0.58399679               -0.01138186               -0.01227174                0.05175210                0.01849198               -0.05162535                0.06232380
              -0.11757232                8.92057108               98.11275772                0.61890056               -0.04089106               -0.03012799                0.10985547               -0.00809842               -0.00189751               -0.05843522
               0.88201877                8.91649796               98.12061845                0.27567516               -0.06770666               -0.03706178                0.14828049               -0.02316591               -0.07827158               -0.02423829
               1.88107355                8.91204062               98.12700032                0.51843403               -0.06673982               -0.05192358                0.17842473               -0.06171927               -0.07966482               -0.00276924
               2.88068397                8.90813710               98.13521852                0.83469593               -0.03138304               -0.02513744                0.09470045               -0.03373950                0.00909704               -0.03175823
               3.88044589                8.90465777               98.14361460                0.79048202               -0.01989564               -0.01604470                0.08327254               -0.01028247                0.05048761               -0.05289001
               4.88028606                8.90122850               98.15251588                0.57429004               -0.02348114               -0.00651419                0.14773114                0.00748552                0.10195594               -0.19076519
               5.87997626                8.89870399               98.16181126                0.44028698               -0.09064635                0.03136957                0.19268035                0.20394329                0.11824351               -0.32413465
               6.87847313                8.89721519               98.16983859                0.63580206               -0.09401437               -0.01781486                0.13681725                0.13036863                0.04177152               -0.14079194
               7.87809598                8.89441537               98.17586860                0.51015966               -0.02541583               -0.01497920                0.07308559                0.03876101               -0.01827664               -0.06668517
               8.87796482                8.89107442               98.18179877                0.15609519               -0.00736903               -0.00761836                0.05495833               -0.01218379               -0.00692129               -0.00546358
               9.87794860                8.88716790               98.18779322                0.54230197               -0.00162214               -0.00487908                0.10775232               -0.03411011               -0.01649558                0.06087623
              -0.11352379                9.92029023               98.11522232                0.79550393               -0.03599755               -0.02808523                0.09893971               -0.00929321               -0.01151034               -0.03533134
               0.88611623                9.91614877               98.12314657                0.65510177               -0.08992439               -0.03491944                0.13402744               -0.02747802               -0.08867612               -0.01344777
               1.88467772                9.91154574               98.12964426                0.80195044               -0.10230094               -0.04948753                0.17064370               -0.05182196               -0.10845342                0.00946624
               2.88407021                9.90790399               98.13730335                0.93694962               -0.04182084               -0.02331168                0.08769050               -0.01754748               -0.00391633               -0.02237130
               3.88384130                9.90442232               98.14587353                0.99042756               -0.02591663               -0.02354504                0.07239827               -0.01204299                0.09311573               -0.01233295
               4.88355188                9.90087230               98.15523086                0.98779979               -0.07603430               -0.03561994                0.08008029                0.03360045                0.23133449               -0.01980342
               5.88232062                9.89856269               98.16584843                0.97214323               -0.10699387               -0.01413040                0.05196672                0.04324394                0.31160203               -0.03224042
               6.88141200                9.89704847               98.17405397                0.69898691               -0.05201781               -0.01667181                0.07177190                0.08078836                0.14511600               -0.08434946
               7.88128026                9.89430072               98.18093360                0.58327120               -0.01144953               -0.01146499                0.05178288                0.01880576                0.06091804               -0.05182420
               8.88118301                9.89105602               98.18756362                0.54197466               -0.00420149               -0.00183959                0.10822862               -0.03459045                0.05820728               -0.01426152
               9.88119623                9.88717252               98.19427533                0.75533337                0.00132183                0.00046229                0.19500323               -0.06358639                0.07061198                0.07476899
              -0.15759980               -0.08036069               99.09273086                0.61108620               -0.03543083               -0.03550221                0.07229026                0.02196966                0.00242057                0.00203467
               0.84204589               -0.08380620               99.09675593                0.41761526               -0.04225597               -0.04402976                0.11735664               -0.01287745               -0.05100423                0.01274296
               1.84155508               -0.08777728               99.09967143                0.59722351               -0.02729123               -0.03656577                0.08705742               -0.05495336               -0.10046052                0.08527750
               2.84150006               -0.09190754               99.10205463                0.51402978                0.00237948               -0.03078943                0.09242303               -0.05562377               -0.10581798                0.04181244
               3.84160267               -0.09567299               99.10428830                0.45468357                0.00483222               -0.03909531                0.13026190               -0.02887393               -0.08989326                0.01283700
               4.84159671               -0.09904477               99.10689041                0.48655668               -0.01097767               -0.05476492                0.14788955               -0.00247607               -0.06339666               -0.04796481
               5.84138311               -0.10223792               99.10952129                0.53729950               -0.02158659               -0.06397555                0.13743022                0.00680666               -0.08264416               -0.05525397
               6.84116498               -0.10549260               99.11159195                0.55660757               -0.02215091               -0.06262445                0.11842349               -0.00403258               -0.08774174                0.00085340
               7.84094009               -0.10885102               99.11366811                0.55779463               -0.02435159               -0.05037105                0.10978618               -0.00856401               -0.06620581                0.00770914
               8.84067794               -0.11214950               99.11594511                0.55486956               -0.02753587               -0.04951582                0.10919480               -0.00625556               -0.03878028                0.00668530
               9.84038938               -0.11530262               99.11860223                0.76816683               -0.02885665               -0.05182328                0.10806526               -0.00887230               -0.02480277                0.00261643
              -0.15393460                0.91928429               99.09651382                0.41753021               -0.04399929               -0.04267780                0.11732962               -0.01298344                0.01256717               -0.05194199
               0.84562541                0.91575351               99.10068062                0.23147090               -0.05045941               -0.05022917                0.20468630               -0.03189763                0.06329923                0.06350530
               1.84505621                0.91185706               99.10582311                0.64020898               -0.03668644               -0.02733633                0.20639766               -0.04407869                0.08045829                0.15494958
               2.84489168                0.90778457               99.10842027                0.79211423               -0.00868366               -0.01783360                0.09156336               -0.05078063               -0.07426790                0.06838507
               3.84488254                0.90393606               99.11059440                0.60721756               -0.00186353               -0.02397139                0.07884294               -0.03910939               -0.07802102                0.01395727
               4.84485441                0.90040758               99.11287989                0.44354575               -0.01037234               -0.04061407                0.12615739               -0.02405801               -0.03264822               -0.02330579
               5.84467509                0.89712233               99.11591201                0.44595691               -0.02116038               -0.05367391                0.17729172               -0.01022716                0.01394552               -0.06361063
               6.84443120                0.89388116               99.11902642                0.42949587               -0.02460950               -0.05893352                0.17099830               -0.01171970               -0.00306181               -0.07457478
               7.84418290                0.89064527               99.12148186                0.37959894               -0.02950077               -0.06828939                0.15359615               -0.02251100               -0.02406526               -0.05521713
               8.84384119                0.88735535               99.12395645                0.39103627               -0.03645636               -0.07916556                0.15945987               -0.02616392               -0.01309140               -0.04333284
               9.84345378                0.88417915               99.12668523                0.70678413               -0.03874099               -0.09545411                0.15735088               -0.02467063               -0.01150539               -0.07007506
              -0.15079790                1.91878576               99.09917614                0.59720704               -0.03669347               -0.02788282                0.08706176               -0.05443773                0.08510372               -0.10191757
               0.84883516                1.91518922               99.10558094                0.63869651               -0.02798280               -0.03650519                0.20651165               -0.04363485                0.15439199                0.08059900
               1.84864244                1.91167599               99.11325132                0.42325070               -0.02148534               -0.02059084                0.44851598               -0.03487690                0.04398824                0.04567318
               2.84840546                1.90773579               99.11551665                0.58494627               -0.02224902                0.01850504                0.05701193               -0.02568875               -0.06195930                0.15794563
               3.84819746                1.90384758               99.11770741                0.84849494               -0.02380902                0.01376468                0.09116652               -0.05697169               -0.05127059                0.14710162
               4.84792928                1.90014295               99.12011046                0.74360580               -0.02462334               -0.01234313                0.08320112               -0.04662815               -0.03427721                0.03873210
               5.84770499                1.89668861               99.12237187                0.59463161               -0.02608171               -0.01471271                0.08895140               -0.03825768               -0.02402104               -0.02805408
               6.84740764                1.89332873               99.12483106                0.57163548               -0.03446535               -0.03407735                0.13366676               -0.04485599                0.00885397               -0.06977936
               7.84701569                1.88978319               99.12791992                0.56648158               -0.03934283               -0.05951892                0.17872406               -0.04875802                0.03624464               -0.08402630
               8.84662078                1.88626719               99.13090454                0.62325457               -0.03836642               -0.07612559                0.18095901               -0.03828104                0.01826526               -0.08055493
               9.84624836                1.88278830               99.13328977                0.82759694               -0.03724259               -0.09414921                0.15455948               -0.03288389                0.00110095               -0.09102366
              -0.14783028                2.91872663               99.10130580                0.51460817               -0.03072467                0.00180285                0.09264298               -0.05570684                0.04190376               -0.10668884
               0.85186248                2.91502340               99.10793450                0.79149461               -0.01788077               -0.00889657                0.09199913               -0.05062973                0.06873351               -0.07444151
               1.85181211                2.91144525               99.11529673                0.58275607                0.01719207               -0.02181422                0.05651031               -0.02478611                0.15600096               -0.06150810
               2.85220632                2.90815467               99.12396394                0.16358213               -0.02380812               -0.02224615                0.11389506               -0.01269490                0.07328484                0.07466210
               3.85133594                2.90421135               99.12711867                0.22355326               -0.05627467               -0.07489513                0.06947391               -0.13595866               -0.02098414                0.26124455
               4.85108082                2.90016072               99.12853462                0.83583593               -0.03058928                0.02559966                0.06896144               -0.08998459               -0.05926671                0.20193836
               5.85072416                2.89682807               99.13056618                0.97549533               -0.03206633                0.03237799                0.07379236               -0.04628159               -0.03865046                0.12386760
               6.85043950                2.89319961               99.13292594                0.83489092               -0.02274376               -0.00257765                0.06926537               -0.04699364               -0.02259323                0.04357714
               7.85026928                2.88945489               99.13513341                0.49378832               -0.01845195               -0.01455619                0.07807662               -0.03024168               -0.01421293               -0.02294955
               8.85007046                2.88583283               99.13734888                0.57585185               -0.02576986               -0.02927625                0.11144687               -0.01270016               -0.00087576               -0.03964845
               9.84975389                2.88229616               99.13981744                0.81390124               -0.03165714               -0.03528988                0.10353934               -0.00519133                0.01699303               -0.03033087
              -0.14450557                3.91882181               99.10329329                0.45507764               -0.03904694                0.00399050                0.13058361               -0.02920053                0.01339689               -0.09023861
               0.85510396                3.91501129               99.10987068                0.60772549               -0.02394861               -0.00220315                0.07925981               -0.03917959                0.01455125               -0.07793016
               1.85501545                3.91123971               99.11724836                0.84606868                0.01407483               -0.02370370                0.09112658               -0.05674412                0.14790575               -0.05123921
               2.85538545                3.90729087               99.12693125                0.21986308               -0.07716100               -0.05593416                0.06972298               -0.13425282                0.25763517               -0.01967351
               3.85347223                3.90234968               99.13807513                0.79923909               -0.09362965               -0.09190301                0.33922476                0.04571239                0.20577766                0.21055835
               4.85351286                3.90065494               99.13947909                0.86886414                0.01341189               -0.00217521                0.05841093                0.11249345               -0.17303988                0.16806931
               5.85374047                3.89733617               99.14066991                0.85131136                0.01640462                0.04815614                0.04747012               -0.01519517               -0.12394926                0.20273929
               6.85384095                3.89327718               99.14219046                0.77239855                0.00185798                0.04539925                0.04304585               -0.05419149               -0.07169649                0.18069762
               7.85377763                3.88949207               99.14371145                0.62102911               -0.01577228                0.03492422                0.07439303               -0.05807330               -0.05924784                0.14964716
               8.85352551                3.88568167               99.14548216                0.71563165               -0.02798797               -0.01260870                0.10259112               -0.03654020               -0.02320642                0.06144861
               9.85321787                3.88208250               99.14788018                0.90834952               -0.03076354               -0.01640285                0.07589166               -0.02306473                0.00894665                0.05945110
              -0.14079324                4.91880644               99.10565834                0.48685417               -0.05457750               -0.01190709                0.14852853               -0.00253980               -0.04718297               -0.06299118
               0.85866099                4.91497934               99.11192051                0.44388886               -0.04045583               -0.01084165                0.12620927               -0.02393788               -0.02234340               -0.03243035
               1.85839765                4.91097117               99.11942128                0.74252813               -0.01248490               -0.02468465                0.08363378               -0.04648313                0.03976032               -0.03376987
               2.85841129                4.90703598               99.12811068                0.82976560                0.02442335               -0.03055151                0.06872188               -0.09070282                0.20147774               -0.05988239
               3.85888611                4.90237329               99.13929692                0.86841538               -0.00335416                0.01247464                0.06024784                0.11447291                0.16724420               -0.17203113
               4.85834421                4.90011722               99.14665674                0.56860038               -0.05440468               -0.05423922                0.03805269                0.25135790                0.08087974                0.08213201
               5.85779802                4.89779120               99.15134151                0.34774196               -0.05722208               -0.04557873                0.05109324                0.09972936                0.00552936                0.12500298
               6.85719977                4.89410760               99.15378462                0.34627218               -0.05473451               -0.06190440                0.08058641               -0.04124793               -0.05639792                0.15991432
               7.85670333                4.89015337               99.15518881                0.45240828               -0.02252730               -0.02237382                0.06735087               -0.12430850               -0.13473410                0.17468475
               8.85674922                4.88558066               99.15504135                0.76013496               -0.01062028               -0.00010370                0.12018299               -0.08072148               -0.14404843                0.12422581
               9.85649092                4.88196811               99.15712394                0.97411620               -0.02582952               -0.00684431                0.06309626               -0.01947609               -0.03361906                0.13866498
              -0.13690216                5.91858367               99.10806485                0.53767649               -0.06373700               -0.02244182                0.13816768                0.00703295               -0.05469250               -0.08136707
               0.86246047                5.91479446               99.11472061                0.44627281               -0.05343477               -0.02174427                0.17743185               -0.00974133               -0.06224745                0.01415913
               1.86202915                5.91074602               99.12145568                0.59487140               -0.01455964               -0.02626841                0.08929826               -0.03783469               -0.02657798               -0.02354286
               2.86216928                5.90667984               99.12990490                0.97433891                0.03256567               -0.03215622                0.07401276               -0.04645946                0.12496522               -0.03947827
               3.86268046                5.90259917               99.14026274                0.84904624                0.04764167                0.01657859                0.04768934               -0.01444306                0.20253704               -0.12520211
               4.86312211                5.89957016               99.15115033                0.34911723               -0.04678901               -0.05756828                0.05168500                0.10086373                0.12384181                0.00554340
               5.86174468                5.89642459               99.16035175                0.72534901               -0.12341476               -0.12286045                0.28875013               -0.04381186                0.07716568                0.07867969
               6.86065382                5.89203909               99.16388268                0.68077922               -0.09631407               -0.08908706                0.16956989                0.00805496               -0.09586214                0.11975762
               7.85981840                5.88904459               99.16508821                0.55808556               -0.02787360               -0.03987685                0.04395870                0.09615275               -0.20503843                0.13620188
               8.86009634                5.88567959               99.16458563                0.58308382                0.01175291                0.00934462                0.12322657                0.05646887               -0.22029561                0.03915133
               9.86005346                5.88194562               99.16687004                0.80627579               -0.00428887               -0.01006368                0.01056510                0.03177392               -0.09843106                0.18885004
              -0.13307414                6.91835761               99.10991569                0.55665309               -0.06220388               -0.02287683                0.11878576               -0.00377364                0.00111708               -0.08631210
               0.86630382                6.91454445               99.11760495                0.42983783               -0.05851419               -0.02514429                0.17116999               -0.01126050               -0.07296035               -0.00273849
               1.86575557                6.91044580               99.12368675                0.57146098               -0.03374362               -0.03473973                0.13373278               -0.04431169               -0.06798790                0.00885425
               2.86562894                6.90639286               99.13202984                0.83472817               -0.00243221               -0.02289155                0.06965199               -0.04718207                0.04444236               -0.02332992
               3.86570693                6.90270486               99.14153621                0.77081585                0.04535591                0.00239656                0.04286910               -0.05533287                0.18105173               -0.07338630
               4.86653606                6.89896585               99.15336646                0.34597820               -0.06270385               -0.05498677                0.08142953               -0.04185526                0.15818614               -0.05828755
               5.86445285                6.89533399               99.16364885                0.68008657               -0.08975993               -0.09645502                0.17013138                0.00880585                0.11661896               -0.09652653
               6.86474086                6.89232586               99.16551499                0.96742250                0.02665161                0.02655557                0.09427834                0.11209474               -0.22825078               -0.22785212
               7.86498588                6.88935584               99.16790073                0.76743230                0.01183537                0.01593496                0.05831257                0.12539721               -0.14015430               -0.13939755
               8.86497757                6.88576755               99.17141816                0.45184006               -0.01957619               -0.00130336                0.08604560                0.05418457               -0.06267737                0.00639748
               9.86459436                6.88176683               99.17575770                0.69104970               -0.03832128               -0.01221683                0.09639941                0.01939576               -0.05063716                0.10224063
              -0.12935132                7.91812614               99.11176838                0.55747137               -0.05016124               -0.02490176                0.11003180               -0.00833372                0.00797311               -0.06521806
               0.87014707                7.91429157               99.11983170                0.37994412               -0.06770861               -0.02988595                0.15397046               -0.02223238               -0.05362043               -0.02377139
               1.86929451                7.91005122               99.12654310                0.56639045               -0.05902434               -0.03963961                0.17857323               -0.04843082               -0.08198749                0.03633317
               2.86896658                7.90622200               99.13400264                0.49479315               -0.01468476               -0.01847268                0.07809929               -0.03040599               -0.02243170               -0.01444241
               3.86900081                7.90264710               99.14281224                0.62160195                0.03446510               -0.01532953                0.07402145               -0.05910337                0.14864693               -0.06037280
               4.86965588                7.89847042               99.15449673                0.45479173               -0.02200092               -0.02145397                0.06799107               -0.12555218                0.17384137               -0.13852993
               5.86856079                7.89449549               99.16459659                0.55760485               -0.03910095               -0.02717903                0.04503140                0.09644333                0.13177419               -0.20639617
               6.86887386                7.89257020               99.16765941                0.76417926                0.01619264                0.01175865                0.05811723                0.12587404               -0.13929251               -0.14063613
               7.86888464                7.88936329               99.17188314                0.60515651               -0.00524110               -0.00549489                0.06185403                0.01906830               -0.05010944               -0.04991698
               8.86876904                7.88565353               99.17672667                0.45031532               -0.02209180               -0.00992957                0.07929916               -0.02182939               -0.00274032               -0.00260759
               9.86844281                7.88170128               99.18215784                0.76865184               -0.03262310                0.00308774                0.15786813               -0.03299315               -0.03180078                0.10725922
              -0.12557169                8.91785957               99.11381558                0.55470233               -0.04942304               -0.02788835                0.10948561               -0.00609874                0.00704981               -0.03822364
               0.87393408                8.91394673               99.12207480                0.39104980               -0.07858966               -0.03681997                0.16010731               -0.02595380               -0.04108360               -0.01306423
               1.87285652                8.90965301               99.12930600                0.62283256               -0.07545699               -0.03860260                0.18085656               -0.03827874               -0.07796423                0.01875046
               2.87242494                8.90602341               99.13599259                0.57686750               -0.02900398               -0.02566814                0.11075506               -0.01284567               -0.03956339               -0.00077598
               3.87227644                8.90239827               99.14434775                0.71683819               -0.01241552               -0.02756168                0.10120827               -0.03633272                0.05958655               -0.02355477
               4.87217663                8.89853677               99.15408506                0.76594047                0.00027491               -0.00938730                0.11904463               -0.08031339                0.12136746               -0.14588389
               5.87228194                8.89479041               99.16382551                0.58547992                0.01069564                0.01250783                0.12273281                0.05546990                0.03836109               -0.22231789
               6.87239055                8.89256103               99.17092229                0.45262697                0.00009935               -0.01979860                0.08611102                0.05371954                0.00571535               -0.06373189
               7.87228393                8.88924594               99.17648396                0.45093535               -0.00937753               -0.02233976                0.07932371               -0.02184950               -0.00375509               -0.00246077
               8.87220300                8.88556896               99.18245744                0.54558896               -0.02224670               -0.02227713                0.12019383               -0.03069540                0.06287192                0.06477084
               9.87183899                8.88182859               99.18980122                0.78883128               -0.03640032                0.01697652                0.16979040               -0.00723235                0.09355021                0.20093003
              -0.12164762                9.91756837               99.11623788                0.76825393               -0.05178296               -0.02912045                0.10845366               -0.00891317                0.00339140               -0.02430238
               0.87783455                9.91355517               99.12456872                0.70654269               -0.09500607               -0.03915643                0.15832029               -0.02441317               -0.06644794               -0.01159957
               1.87645226                9.90927917               99.13147570                0.82658598               -0.09350726               -0.03738418                0.15471121               -0.03275253               -0.08727324                0.00187377
               2.87596441                9.90570864               99.13823973                0.81380922               -0.03457344               -0.03147641                0.10247553               -0.00521878               -0.03018570                0.01688824
               3.87576079                9.90209587               99.14652190                0.90820176               -0.01534642               -0.03024015                0.07382594               -0.02286321                0.05839902                0.00849784
               4.87565748                9.89828268               99.15595328                0.97731063               -0.00574284               -0.02540932                0.06119645               -0.01942674                0.13559904               -0.03325365
               5.87564593                9.89474565               99.16587885                0.80969489               -0.00823785               -0.00447604                0.00963084                0.03097710                0.18606228               -0.09760658
               6.87549272                9.89217423               99.17500926                0.69249452               -0.01031058               -0.03867970                0.09472959                0.01875982                0.10155492               -0.05122291
               7.87543972                9.88891649               99.18168129                0.76794246                0.00398813               -0.03294451                0.15688969               -0.03273276                0.10685991               -0.03094284
               8.87557248                9.88520798               99.18957477                0.78770277                0.01695923               -0.03609772                0.16928055               -0.00683549                0.19888981                0.09602957
               9.87577891                9.88204081               99.19814818                0.85494071                0.02064238                0.02122206                0.19101779                0.07727400                0.21902682                0.22219421
              -0.16190844               -0.08442956              100.09343972                1.00000000               -0.02303083               -0.02307141                0.07088639                0.00324838                0.01228391                0.01204117
               0.83786125               -0.08796659              100.09787120                1.00000000                0.00300769               -0.04087836                0.11152637               -0.12525346               -0.05352119                0.09466771
               1.83815171               -0.09371536              100.10073857                1.00000000                0.02800257               -0.04449390                0.10671421               -0.07629309               -0.07431400                0.05271630
               2.83842130               -0.09804732              100.10319164                1.00000000                0.01602848               -0.04473793                0.11370088               -0.06036572               -0.04106673               -0.02584246
               3.83847228               -0.10177399              100.10607475                1.00000000                0.01136896               -0.10448180                0.17864537               -0.02537608               -0.04450796               -0.06257776
               4.83864868               -0.10543248              100.10856225                1.00000000                0.00920760               -0.10176418                0.16718334               -0.04590797               -0.06733798               -0.02933260
               5.83865644               -0.10921570              100.11062404                1.00000000               -0.00556015               -0.06052527                0.11027495               -0.05479915               -0.06355503                0.01578289
               6.83853748               -0.11303747              100.11274450                1.00000000               -0.01935523               -0.03343819                0.11525518               -0.04678011               -0.05456578                0.00291226
               7.83826933               -0.11672557              100.11478772                1.00000000               -0.03083441               -0.03240165                0.11196083               -0.02850025               -0.05051695                0.03495639
               8.83792079               -0.12027958              100.11707569                1.00000000               -0.03629694               -0.03440898                0.11305826               -0.01588801               -0.02736023                0.04931865
               9.83754339               -0.12352604              100.11975482                1.00000000               -0.03773992               -0.03320653                0.11525853               -0.01954898               -0.01668560                0.04453074
              -0.15833893                0.91533972              100.09762901                1.00000000               -0.04094589                0.00274828                0.11151886               -0.12566856                0.09449309               -0.05432446
               0.84125161                0.91162462              100.10297827                1.00000000                0.03840358                0.03853961                0.22976489               -0.23969981                0.04136054                0.04182047
               1.84242914                0.90583970              100.10720381                1.00000000                0.02976748                0.04744691                0.13806990               -0.21476952                0.04202931               -0.00033714
               2.84184696                0.90150530              100.10907299                1.00000000               -0.02590191               -0.04184037                0.06527281               -0.07723068               -0.08716320                0.01197563
               3.84191111                0.89718119              100.11154998                1.00000000                0.00317467               -0.09179150                0.09555765               -0.05307684               -0.01796116               -0.05532227
               4.84191046                0.89354987              100.11465664                1.00000000               -0.00000859               -0.11639471                0.17767443               -0.01521786                0.01608873               -0.06832249
               5.84191093                0.89017905              100.11775966                1.00000000               -0.00429236               -0.09024452                0.18476473               -0.02168020                0.00667684               -0.04635719
               6.84182461                0.88662815              100.12031849                1.00000000               -0.01527740               -0.05983789                0.12920732               -0.05224902                0.00194931               -0.02987612
               7.84160539                0.88295042              100.12301183                1.00000000               -0.03312313               -0.03989745                0.15299712               -0.05460213                0.01127176               -0.02818671
               8.84116215                0.87937633              100.12569896                1.00000000               -0.05055145               -0.02353234                0.17425168               -0.02510215                0.00268204               -0.04078817
               9.84059436                0.87614190              100.12842354                1.00000000               -0.05677899               -0.03194961                0.17383176               -0.00097392               -0.01348361               -0.06357070
              -0.15699161                1.91562540              100.10024237                1.00000000               -0.04411118                0.02752988                0.10662302               -0.07674895                0.05292897               -0.07524515
               0.84256728                1.91280420              100.10696537                1.00000000                0.04836280                0.02964783                0.13844267               -0.21597006               -0.00058000                0.04209416
               1.84397564                1.90723358              100.11276654                1.00000000                0.14839647                0.14835036               -0.04847767               -0.45894367               -0.01546444               -0.01615615
               2.84553520                1.90111588              100.11598968                1.00000000                0.06952673                0.04018684                0.04730296               -0.32623945               -0.00145022                0.07454445
               3.84536618                1.89639018              100.11847804                1.00000000               -0.00943676               -0.08830855                0.07706342               -0.08649600               -0.03705139                0.04885451
               4.84534647                1.89223962              100.12091122                1.00000000               -0.01108120               -0.08604734                0.08007546               -0.02116802               -0.00300959               -0.06275765
               5.84514455                1.88897941              100.12358346                1.00000000               -0.03126712               -0.09661285                0.12115900               -0.00853117                0.03104469               -0.09574661
               6.84472113                1.88576578              100.12665299                1.00000000               -0.03577202               -0.10415300                0.18219304               -0.01418180                0.03285955               -0.09850227
               7.84442911                1.88247649              100.12961368                1.00000000               -0.02469283               -0.07919343                0.16937607               -0.00753380                0.01959112               -0.07852874
               8.84422727                1.87924977              100.13221796                1.00000000               -0.02181687               -0.04428327                0.13134185               -0.00496513                0.00785972               -0.04689882
               9.84399278                1.87583497              100.13455791                1.00000000               -0.02344945               -0.05818929                0.12681334                0.00749021                0.00843625               -0.06965637
              -0.15423150                2.91589032              100.10244482                1.00000000               -0.04444648                0.01516655                0.11390113               -0.06132089               -0.02558455               -0.04173229
               0.84532404                2.91221758              100.10859019                1.00000000               -0.04149527               -0.02633617                0.06556897               -0.07807430                0.01219084               -0.08745496
               1.84493859                2.90880671              100.11576551                1.00000000                0.04207717                0.07038709                0.04687824               -0.32916941                0.07332454               -0.00117016
               2.84616558                2.90230904              100.12380371                1.00000000                0.20594236                0.20598619               -0.01602349               -0.63059482               -0.02025552               -0.02131399
               3.84905744                2.89541502              100.12744188                1.00000000                0.13661440                0.18697845                0.03232085               -0.23805392                0.04237163                0.14916579
               4.84889787                2.89182893              100.12920814                1.00000000               -0.04216424                0.03764805                0.06735247               -0.06632586               -0.02723358                0.07631053
               5.84821416                2.88824679              100.13126312                1.00000000               -0.04269850               -0.05600093                0.06969371               -0.04861902               -0.03768934               -0.00378600
               6.84804390                2.88454509              100.13347436                1.00000000               -0.01217201               -0.08959718                0.05484239                0.00175140                0.00001710               -0.06769725
               7.84797072                2.88136655              100.13605466                1.00000000               -0.01697677               -0.10743936                0.09212528                0.05686911                0.03621682               -0.05700830
               8.84770436                2.87849066              100.13879583                1.00000000               -0.01984765               -0.10465999                0.14469488                0.03788093                0.00751108               -0.00585412
               9.84757376                2.87497811              100.14093708                1.00000000               -0.01305974               -0.10058838                0.11196392                0.00639765               -0.00388766               -0.02358059
              -0.15087255                3.91592873              100.10508035                1.00000000               -0.10380501                0.00996523                0.17870619               -0.02586189               -0.06194159               -0.04483767
               0.84808940                3.91227748              100.11082791                1.00000000               -0.09133274                0.00259290                0.09572279               -0.05349325               -0.05446277               -0.01813262
               1.84730079                3.90864132              100.11802021                1.00000000               -0.08871990               -0.00929879                0.07718504               -0.08706916                0.04987087               -0.03677209
               2.84631500                3.90523560              100.12725465                1.00000000                0.18922097                0.13892949                0.03233941               -0.24216451                0.14464536                0.04350564
               3.85108521                3.90012975              100.13905402                1.00000000                0.24365905                0.24217202                0.09788972               -0.51320103                0.35361624                0.35196859
               4.85118818                3.89299258              100.13910101                1.00000000                0.01853975                0.14046121               -0.03780777               -0.42491458               -0.15165327                0.09424262
               5.85145601                3.88785939              100.14067032                1.00000000                0.02241061               -0.01776988                0.00004045               -0.15709690               -0.05309275                0.04782596
               6.85163639                3.88397383              100.14260809                1.00000000                0.00824585               -0.06543234                0.04176292               -0.02033185               -0.02146164                0.08837531
               7.85162093                3.88032770              100.14465020                1.00000000               -0.01315331               -0.07609624                0.09387531                0.03505277               -0.00681367                0.04792020
               8.85137333                3.87715657              100.14678522                1.00000000               -0.02375470               -0.08257146                0.13030697                0.03152455               -0.01160772                0.00036537
               9.85114583                3.87382320              100.14872240                1.00000000               -0.02274964               -0.07778172                0.08422284                0.01068890               -0.01348610                0.00911230
              -0.14744622                4.91608962              100.10733422                1.00000000               -0.10121953                0.00792370                0.16758871               -0.04544023               -0.02920466               -0.06720595
               0.85154158                4.91226944              100.11369516                1.00000000               -0.11573445               -0.00087127                0.17746560               -0.01502422               -0.06730962                0.01598719
               1.85023909                4.90862073              100.12022684                1.00000000               -0.08538581               -0.01122234                0.08055691               -0.02063234               -0.06139652               -0.00266532
               2.84983386                4.90508763              100.12878435                1.00000000                0.03986758               -0.04176617                0.06736740               -0.06650984                0.07697113               -0.02742702
               3.85103644                4.90025846              100.13892112                1.00000000                0.14180336                0.02068623               -0.03758073               -0.42845068                0.09670105               -0.15141299
               4.85266993                4.89463815              100.14641772                1.00000000                0.15272651                0.15416141               -0.02390147               -0.52732747                0.04517624                0.04613579
               5.85409097                4.88789139              100.15117319                1.00000000                0.12495093                0.18360191               -0.01683157               -0.31172792                0.00083702               -0.00469060
               6.85516895                4.88323645              100.15384856                1.00000000                0.06990325                0.27193998                0.00639397               -0.07962888                0.00534916               -0.01012661
               7.85548903                4.87984462              100.15534180                1.00000000               -0.01648009                0.20548271                0.01529969                0.03378147               -0.02119102               -0.00370276
               8.85483935                4.87683923              100.15585333                1.00000000               -0.05173774                0.01892737                0.08119861                0.01248055               -0.07618113                0.03802377
               9.85445428                4.87342248              100.15763792                1.00000000               -0.03850693               -0.01606770                0.05139830               -0.02053974               -0.02520550                0.06127199
              -0.14414098                5.91608721              100.10916987                1.00000000               -0.06012125               -0.00641640                0.11050238               -0.05404652                0.01587609               -0.06293876
               0.85525780                5.91226005              100.11656746                1.00000000               -0.08945311               -0.00509877                0.18468445               -0.02088088               -0.04537127                0.00671741
               1.85406995                5.90841688              100.12266778                1.00000000               -0.09553621               -0.03154823                0.12120935               -0.00770588               -0.09415117                0.03088547
               2.85334708                5.90440028              100.13060281                1.00000000               -0.05521375               -0.04288400                0.06979183               -0.04842892               -0.00283743               -0.03818275
               3.85296568                5.90054347              100.14025543                1.00000000               -0.01691900                0.02385292               -0.00073176               -0.15957389                0.04747441               -0.05411959
               4.85300870                5.89607581              100.15098186                1.00000000                0.18287381                0.12697430               -0.01684732               -0.31250819               -0.00530677                0.00112994
               5.85662316                5.89153143              100.16037611                1.00000000                0.25409413                0.25595084                0.00243619                0.04181684                0.14614746                0.14767090
               6.85809058                5.88941263              100.16414786                1.00000000                0.10353057                0.30914696                0.02651816               -0.03357745               -0.01544692                0.32544790
               7.85869377                5.88443735              100.16519364                1.00000000               -0.00227477                0.26623099                0.01054301               -0.30063364               -0.06842812                0.19067050
               8.85804509                5.87753512              100.16502856                1.00000000               -0.05626087                0.13671732                0.04429214               -0.25086741               -0.11285263               -0.00417964
               9.85756855                5.87350185              100.16703911                1.00000000               -0.04765372                0.03739355                0.01690703               -0.12552334               -0.04743547                0.10955946
              -0.14087284                6.91596130              100.11106838                1.00000000               -0.03328638               -0.01993354                0.11526866               -0.04609598                0.00312463               -0.05365983
               0.85879430                6.91216746              100.11889832                1.00000000               -0.05912077               -0.01576611                0.12933647               -0.05136827               -0.02922924                0.00208067
               1.85794474                6.90798977              100.12550283                1.00000000               -0.10278019               -0.03626231                0.18160827               -0.01334564               -0.09700814                0.03275952
               2.85673869                6.90422995              100.13257981                1.00000000               -0.08876582               -0.01225722                0.05499738                0.00215226               -0.06666064               -0.00025241
               3.85616943                6.90073552              100.14195013                1.00000000               -0.06534399                0.00903728                0.04139216               -0.02003973                0.08871017               -0.02227713
               4.85543181                6.89717764              100.15342902                1.00000000                0.27105286                0.07187858                0.00625566               -0.07964684               -0.01228477                0.00457295
               5.86159048                6.89301041              100.16391294                1.00000000                0.30798324                0.10496442                0.02640846               -0.03400819                0.32283448               -0.01629137
               6.86159148                6.88941938              100.16561044                1.00000000               -0.01183044               -0.01139434                0.00954477               -0.07440692               -0.09210110               -0.09172214
               7.86135388                6.88516924              100.16836969                1.00000000               -0.04169856                0.02906883                0.04689643               -0.21223779               -0.04078809               -0.05769644
               8.86075751                6.87957358              100.17205869                1.00000000               -0.06717615                0.12909196                0.06405352               -0.25971379               -0.00465881                0.01386036
               9.86001035                6.87417035              100.17671665                1.00000000               -0.07471526                0.09349623                0.09589433               -0.29039809                0.00739488                0.11684728
              -0.13747524                7.91568854              100.11288930                1.00000000               -0.03227989               -0.03120933                0.11209134               -0.02822733                0.03498398               -0.04980729
               0.86220197                7.91194473              100.12136305                1.00000000               -0.03921052               -0.03339021                0.15313458               -0.05422644               -0.02722299                0.01142999
               1.86174055                7.90769163              100.12823504                1.00000000               -0.07787935               -0.02533715                0.16919371               -0.00689347               -0.07736844                0.01977177
               2.86064438                7.90415513              100.13492358                1.00000000               -0.10616774               -0.01727247                0.09209388                0.05724282               -0.05654309                0.03600306
               3.85961720                7.90072422              100.14374857                1.00000000               -0.07517530               -0.01292554                0.09363371                0.03669868                0.04794715               -0.00785683
               4.85914087                7.89751338              100.15464975                1.00000000                0.20420229               -0.01616853                0.01530206                0.03551668               -0.00405712               -0.02231629
               5.86370124                7.89363072              100.16469745                1.00000000                0.26513676               -0.00175168                0.01008613               -0.30064343                0.18787569               -0.06882842
               6.86444361                7.88918475              100.16812636                1.00000000                0.02967859               -0.04143398                0.04669449               -0.21372366               -0.05725273               -0.04102732
               7.86429482                7.88501873              100.17241290                1.00000000               -0.02969495               -0.03006216                0.05297662               -0.19679666                0.01938488                0.01981297
               8.86384971                7.88011696              100.17769371                1.00000000               -0.08638823               -0.00259214                0.09670370               -0.22497330                0.11587309                0.05354051
               9.86256705                7.87537177              100.18456903                1.00000000               -0.12826565                0.05129079                0.24111873               -0.21843455                0.09995595                0.09066846
              -0.13394977                8.91533711              100.11494743                1.00000000               -0.03435546               -0.03644791                0.11318504               -0.01586608                0.04950875               -0.02714152
               0.86570667                8.91149966              100.12382060                1.00000000               -0.02268790               -0.05078963                0.17457986               -0.02532992               -0.03923954                0.00278862
               1.86559647                8.90748303              100.13061745                1.00000000               -0.04278564               -0.02239028                0.13114535               -0.00472314               -0.04535406                0.00817396
               2.86485096                8.90388450              100.13743362                1.00000000               -0.10256597               -0.02038233                0.14410243                0.03849471               -0.00633266                0.00757360
               3.86354515                8.90047701              100.14563877                1.00000000               -0.08076576               -0.02401278                0.12910200                0.03241474                0.00002894               -0.01205280
               4.86323565                8.89685427              100.15489678                1.00000000                0.01805510               -0.05212985                0.08117154                0.01322051                0.03725879               -0.07799867
               5.86390625                8.89297537              100.16426592                1.00000000                0.13466720               -0.05634164                0.04404057               -0.24894622               -0.00436692               -0.11432331
               6.86592899                8.88859070              100.17156081                1.00000000                0.12897390               -0.06673312                0.06385154               -0.26051607                0.01330213               -0.00592219
               7.86648573                8.88456800              100.17745507                1.00000000               -0.00119969               -0.08657599                0.09711086               -0.22559196                0.05227215                0.11513074
               8.86590500                8.87952174              100.18420264                1.00000000               -0.06768500               -0.06875053                0.17452040               -0.22638137                0.05689802                0.05805345
               9.86513203                8.87519616              100.19118903                1.00000000               -0.07729651               -0.02246374                0.13878071               -0.13941232                0.02794269                0.01309054
              -0.13011765                9.91495958              100.11739139                1.00000000               -0.03328955               -0.03775317                0.11535132               -0.01985254                0.04515464               -0.01648272
               0.86954945                9.91092894              100.12631297                1.00000000               -0.03105484               -0.05707227                0.17442499               -0.00151014               -0.06115545               -0.01338623
               1.86926125                9.90724382              100.13273848                1.00000000               -0.05645780               -0.02392036                0.12627835                0.00740529               -0.06710641                0.00856819
               2.86842029                9.90374749              100.13935286                1.00000000               -0.09827598               -0.01370155                0.11131372                0.00694013               -0.02383287               -0.00419102
               3.86729573                9.90024396              100.14735005                1.00000000               -0.07566895               -0.02330456                0.08281450                0.01122274                0.00858997               -0.01406274
               4.86690692                9.89647079              100.15645479                1.00000000               -0.01549233               -0.03834812                0.05015057               -0.01987697                0.05949377               -0.02538836
               5.86698588                9.89250388              100.16604105                1.00000000                0.03668722               -0.04714911                0.01621994               -0.12307220                0.10868356               -0.04666324
               6.86764066                9.88785008              100.17594856                1.00000000                0.09330319               -0.07406219                0.09393000               -0.28966674                0.11631118                0.00636019
               7.86885195                9.88328721              100.18407139                1.00000000                0.05266302               -0.12807919                0.23901034               -0.21878533                0.09125586                0.09870372
               8.86869392                9.87874195              100.19094923                1.00000000               -0.02109966               -0.07797900                0.13744571               -0.13934323                0.01335842                0.02805490
               9.86842995                9.87492250              100.19809569                1.00000000               -0.02639669               -0.02736652               -0.00524899               -0.05215268               -0.02024941               -0.02116529
         1          2         13         12        122        123        134        133  
         2          3         14         13        123        124        135        134  
         3          4         15         14        124        125        136        135  
         4          5         16         15        125        126        137        136  
         5          6         17         16        126        127        138        137  
         6          7         18         17        127        128        139        138  
         7          8         19         18        128        129        140        139  
         8          9         20         19        129        130        141        140  
         9         10         21         20        130        131        142        141  
        10         11         22         21        131        132        143        142  
        12         13         24         23        133        134        145        144  
        13         14         25         24        134        135        146        145  
        14         15         26         25        135        136        147        146  
        15         16         27         26        136        137        148        147  
        16         17         28         27        137        138        149        148  
        17         18         29         28        138        139        150        149  
        18         19         30         29        139        140        151        150  
        19         20         31         30        140        141        152        151  
        20         21         32         31        141        142        153        152  
        21         22         33         32        142        143        154        153  
        23         24         35         34        144        145        156        155  
        24         25         36         35        145        146        157        156  
        25         26         37         36        146        147        158        157  
        26         27         38         37        147        148        159        158  
        27         28         39         38        148        149        160        159  
        28         29         40         39        149        150        161        160  
        29         30         41         40        150        151        162        161  
        30         31         42         41        151        152        163        162  
        31         32         43         42        152        153        164        163  
        32         33         44         43        153        154        165        164  
        34         35         46         45        155        156        167        166  
        35         36         47         46        156        157        168        167  
        36         37         48         47        157        158        169        168  
        37         38         49         48        158        159        170        169  
        38         39         50         49        159        160        171        170  
        39         40         51         50        160        161        172        171  
        40         41         52         51        161        162        173        172  
        41         42         53         52        162        163        174        173  
        42         43         54         53        163        164        175        174  
        43         44         55         54        164        165        176        175  
        45         46         57         56        166        167        178        177  
        46         47         58         57        167        168        179        178  
        47         48         59         58        168        169        180        179  
        48         49         60         59        169        170        181        180  
        49         50         61         60        170        171        182        181  
        50         51         62         61        171        172        183        182  
        51         52         63         62        172        173        184        183  
        52         53         64         63        173        174        185        184  
        53         54         65         64        174        175        186        185  
        54         55         66         65        175        176        187        186  
        56         57         68         67        177        178        189        188  
        57         58         69         68        178        179        190        189  
        58         59         70         69        179        180        191        190  
        59         60         71         70        180        181        192        191  
        60         61         72         71        181        182        193        192  
        61         62         73         72        182        183        194        193  
        62         63         74         73        183        184        195        194  
        63         64         75         74        184        185        196        195  
        64         65         76         75        185        186        197        196  
        65         66         77         76        186        187        198        197  
        67         68         79         78        188        189        200        199  
        68         69         80         79        189        190        201        200  
        69         70         81         80        190        191        202        201  
        70         71         82         81        191        192        203        202  
        71         72         83         82        192        193        204        203  
        72         73         84         83        193        194        205        204  
        73         74         85         84        194        195        206        205  
        74         75         86         85        195        196        207        206  
        75         76         87         86        196        197        208        207  
        76         77         88         87        197        198        209        208  
        78         79         90         89        199        200        211        210  
        79         80         91         90        200        201        212        211  
        80         81         92         91        201        202        213        212  
        81         82         93         92        202        203        214        213  
        82         83         94         93        203        204        215        214  
        83         84         95         94        204        205        216        215  
        84         85         96         95        205        206        217        216  
        85         86         97         96        206        207        218        217  
        86         87         98         97        207        208        219        218  
        87         88         99         98        208        209        220        219  
        89         90        101        100        210        211        222        221  
        90         91        102        101        211        212        223        222  
        91         92        103        102        212        213        224        223  
        92         93        104        103        213        214        225        224  
        93         94        105        104        214        215        226        225  
        94         95        106        105        215        216        227        226  
        95         96        107        106        216        217        228        227  
        96         97        108        107        217        218        229        228  
        97         98        109        108        218        219        230        229  
        98         99        110        109        219        220        231        230  
       100        101        112        111        221        222        233        232  
       101        102        113        112        222        223        234        233  
       102        103        114        113        223        224        235        234  
       103        104        115        114        224        225        236        235  
       104        105        116        115        225        226        237        236  
       105        106        117        116        226        227        238        237  
       106        107        118        117        227        228        239        238  
       107        108        119        118        228        229        240        239  
       108        109        120        119        229        230        241        240  
       109        110        121        120        230        231        242        241  
       122        123        134        133        243        244        255        254  
       123        124        135        134        244        245        256        255  
       124        125        136        135        245        246        257        256  
       125        126        137        136        246        247        258        257  
       126        127        138        137        247        248        259        258  
       127        128        139        138        248        249        260        259  
       128        129        140        139        249        250        261        260  
       129        130        141        140        250        251        262        261  
       130        131        142        141        251        252        263        262  
       131        132        143        142        252        253        264        263  
       133        134        145        144        254        255        266        265  
       134        135        146        145        255        256        267        266  
       135        136        147        146        256        257        268        267  
       136        137        148        147        257        258        269        268  
       137        138        149        148        258        259        270        269  
       138        139        150        149        259        260        271        270  
       139        140        151        150        260        261        272        271  
       140        141        152        151        261        262        273        272  
       141        142        153        152        262        263        274        273  
       142        143        154        153        263        264        275        274  
       144        145        156        155        265        266        277        276  
       145        146        157        156        266        267        278        277  
       146        147        158        157        267        268        279        278  
       147        148        159        158        268        269        280        279  
       148        149        160        159        269        270        281        280  
       149        150        161        160        270        271        282        281  
       150        151        162        161        271        272        283        282  
       151        152        163        162        272        273        284        283  
       152        153        164        163        273        274        285        284  
       153        154        165        164        274        275        286        285  
       155        156        167        166        276        277        288        287  
       156        157        168        167        277        278        289        288  
       157        158        169        168        278        279        290        289  
       158        159        170        169        279        280        291        290  
       159        160        171        170        280        281        292        291  
       160        161        172        171        281        282        293        292  
       161        162        173        172        282        283        294        293  
       162        163        174        173        283        284        295        294  
       163        164        175        174        284        285        296        295  
       164        165        176        175        285        286        297        296  
       166        167        178        177        287        288        299        298  
       167        168        179        178        288        289        300        299  
       168        169        180        179        289        290        301        300  
       169        170        181        180        290        291        302        301  
       170        171        182        181        291        292        303        302  
       171        172        183        182        292        293        304        303  
       172        173        184        183        293        294        305        304  
       173        174        185        184        294        295        306        305  
       174        175        186        185        295        296        307        306  
       175        176        187        186        296        297        308        307  
       177        178        189        188        298        299        310        309  
       178        179        190        189        299        300        311        310  
       179        180        191        190        300        301        312        311  
       180        181        192        191        301        302        313        312  
       181        182        193        192        302        303        314        313  
       182        183        194        193        303        304        315        314  
       183        184        195        194        304        305        316        315  
       184        185        196        195        305        306        317        316  
       185        186        197        196        306        307        318        317  
       186        187        198        197        307        308        319        318  
       188        189        200        199        309        310        321        320  
       189        190        201        200        310        311        322        321  
       190        191        202        201        311        312        323        322  
       191        192        203        202        312        313        324        323  
       192        193        204        203        313        314        325        324  
       193        194        205        204        314        315        326        325  
       194        195        206        205        315        316        327        326  
       195        196        207        206        316        317        328        327  
       196        197        208        207        317        318        329        328  
       197        198        209        208        318        319        330        329  
       199        200        211        210        320        321        332        331  
       200        201        212        211        321        322        333        332  
       201        202        213        212        322        323        334        333  
       202        203        214        213        323        324        335        334  
       203        204        215        214        324        325        336        335  
       204        205        216        215        325        326        337        336  
       205        206        217        216        326        327        338        337  
       206        207        218        217        327        328        339        338  
       207        208        219        218        328        329        340        339  
       208        209        220        219        329        330        341        340  
       210        211        222        221        331        332        343        342  
       211        212        223        222        332        333        344        343  
       212        213        224        223        333        334        345        344  
       213        214        225        224        334        335        346        345  
       214        215        226        225        335        336        347        346  
       215        216        227        226        336        337        348        347  
       216        217        228        227        337        338        349        348  
       217        218        229        228        338        339        350        349  
       218        219        230        229        339        340        351        350  
       219        220        231        230        340        341        352        351  
       221        222        233        232        342        343        354        353  
       222        223        234        233        343        344        355        354  
       223        224        235        234        344        345        356        355  
       224        225        236        235        345        346        357        356  
       225        226        237        236        346        347        358        357  
       226        227        238        237        347        348        359        358  
       227        228        239        238        348        349        360        359  
       228        229        240        239        349        350        361        360  
       229        230        241        240        350        351        362        361  
       230        231        242        241        351        352        363        362  
       243        244        255        254        364        365        376        375  
       244        245        256        255        365        366        377        376  
       245        246        257        256        366        367        378        377  
       246        247        258        257        367        368        379        378  
       247        248        259        258        368        369        380        379  
       248        249        260        259        369        370        381        380  
       249        250        261        260        370        371        382        381  
       250        251        262        261        371        372        383        382  
       251        252        263        262        372        373        384        383  
       252        253        264        263        373        374        385        384  
       254        255        266        265        375        376        387        386  
       255        256        267        266        376        377        388        387  
       256        257        268        267        377        378        389        388  
       257        258        269        268        378        379        390        389  
       258        259        270        269        379        380        391        390  
       259        260        271        270        380        381        392        391  
       260        261        272        271        381        382        393        392  
       261        262        273        272        382        383        394        393  
       262        263        274        273        383        384        395        394  
       263        264        275        274        384        385        396        395  
       265        266        277        276        386        387        398        397  
       266        267        278        277        387        388        399        398  
       267        268        279        278        388        389        400        399  
       268        269        280        279        389        390        401        400  
       269        270        281        280        390        391        402        401  
       270        271        282        281        391        392        403        402  
       271        272        283        282        392        393        404        403  
       272        273        284        283        393        394        405        404  
       273        274        285        284        394        395        406        405  
       274        275        286        285        395        396        407        406  
       276        277        288        287        397        398        409        408  
       277        278        289        288        398        399        410        409  
       278        279        290        289        399        400        411        410  
       279        280        291        290        400        401        412        411  
       280        281        292        291        401        402        413        412  
       281        282        293        292        402        403        414        413  
       282        283        294        293        403        404        415        414  
       283        284        295        294        404        405        416        415  
       284        285        296        295        405        406        417        416  
       285        286        297        296        406        407        418        417  
       287        288        299        298        408        409        420        419  
       288        289        300        299        409        410        421        420  
       289        290        301        300        410        411        422        421  
       290        291        302        301        411        412        423        422  
       291        292        303        302        412        413        424        423  
       292        293        304        303        413        414        425        424  
       293        294        305        304        414        415        426        425  
       294        295        306        305        415        416        427        426  
       295        296        307        306        416        417        428        427  
       296        297        308        307        417        418        429        428  
       298        299        310        309        419        420        431        430  
       299        300        311        310        420        421        432        431  
       300        301        312        311        421        422        433        432  
       301        302        313        312        422        423        434        433  
       302        303        314        313        423        424        435        434  
       303        304        315        314        424        425        436        435  
       304        305        316        315        425        426        437        436  
       305        306        317        316        426        427        438        437  
       306        307        318        317        427        428        439        438  
       307        308        319        318        428        429        440        439  
       309        310        321        320        430        431        442        441  
       310        311        322        321        431        432        443        442  
       311        312        323        322        432        433        444        443  
       312        313        324        323        433        434        445        444  
       313        314        325        324        434        435        446        445  
       314        315        326        325        435        436        447        446  
       315        316        327        326        436        437        448        447  
       316        317        328        327        437        438        449        448  
       317        318        329        328        438        439        450        449  
       318        319        330        329        439        440        451        450  
       320        321        332        331        441        442        453        452  
       321        322        333        332        442        443        454        453  
       322        323        334        333        443        444        455        454  
       323        324        335        334        444        445        456        455  
       324        325        336        335        445        446        457        456  
       325        326        337        336        446        447        458        457  
       326        327        338        337        447        448        459        458  
       327        328        339        338        448        449        460        459  
       328        329        340        339        449        450        461        460  
       329        330        341        340        450        451        462        461  
       331        332        343        342        452        453        464        463  
       332        333        344        343        453        454        465        464  
       333        334        345        344        454        455        466        465  
       334        335        346        345        455        456        467        466  
       335        336        347        346        456        457        468        467  
       336        337        348        347        457        458        469        468  
       337        338        349        348        458        459        470        469  
       338        339        350        349        459        460        471        470  
       339        340        351        350        460        461        472        471  
       340        341        352        351        461        462        473        472  
       342        343        354        353        463        464        475        474  
       343        344        355        354        464        465        476        475  
       344        345        356        355        465        466        477        476  
       345        346        357        356        466        467        478        477  
       346        347        358        357        467        468        479        478  
       347        348        359        358        468        469        480        479  
       348        349        360        359        469        470        481        480  
       349        350        361        360        470        471        482        481  
       350        351        362        361        471        472        483        482  
       351        352        363        362        472        473        484        483  
       364        365        376        375        485        486        497        496  
       365        366        377        376        486        487        498        497  
       366        367        378        377        487        488        499        498  
       367        368        379        378        488        489        500        499  
       368        369        380        379        489        490        501        500  
       369        370        381        380        490        491        502        501  
       370        371        382        381        491        492        503        502  
       371        372        383        382        492        493        504        503  
       372        373        384        383        493        494        505        504  
       373        374        385        384        494        495        506        505  
       375        376        387        386        496        497        508        507  
       376        377        388        387        497        498        509        508  
       377        378        389        388        498        499        510        509  
       378        379        390        389        499        500        511        510  
       379        380        391        390        500        501        512        511  
       380        381        392        391        501        502        513        512  
       381        382        393        392        502        503        514        513  
       382        383        394        393        503        504        515        514  
       383        384        395        394        504        505        516        515  
       384        385        396        395        505        506        517        516  
       386        387        398        397        507        508        519        518  
       387        388        399        398        508        509        520        519  
       388        389        400        399        509        510        521        520  
       389        390        401        400        510        511        522        521  
       390        391        402        401        511        512        523        522  
       391        392        403        402        512        513        524        523  
       392        393        404        403        513        514        525        524  
       393        394        405        404        514        515        526        525  
       394        395        406        405        515        516        527        526  
       395        396        407        406        516        517        528        527  
       397        398        409        408        518        519        530        529  
       398        399        410        409        519        520        531        530  
       399        400        411        410        520        521        532        531  
       400        401        412        411        521        522        533        532  
       401        402        413        412        522        523        534        533  
       402        403        414        413        523        524        535        534  
       403        404        415        414        524        525        536        535  
       404        405        416        415        525        526        537        536  
       405        406        417        416        526        527        538        537  
       406        407        418        417        527        528        539        538  
       408        409        420        419        529        530        541        540  
       409        410        421        420        530        531        542        541  
       410        411        422        421        531        532        543        542  
       411        412        423        422        532        533        544        543  
       412        413        424        423        533        534        545        544  
       413        414        425        424        534        535        546        545  
       414        415        426        425        535        536        547        546  
       415        416        427        426        536        537        548        547  
       416        417        428        427        537        538        549        548  
       417        418        429        428        538        539        550        549  
       419        420        431        430        540        541        552        551  
       420        421        432        431        541        542        553        552  
       421        422        433        432        542        543        554        553  
       422        423        434        433        543        544        555        554  
       423        424        435        434        544        545        556        555  
       424        425        436        435        545        546        557        556  
       425        426        437        436        546        547        558        557  
       426        427        438        437        547        548        559        558  
       427        428        439        438        548        549        560        559  
       428        429        440        439        549        550        561        560  
       430        431        442        441        551        552        563        562  
       431        432        443        442        552        553        564        563  
       432        433        444        443        553        554        565        564  
       433        434        445        444        554        555        566        565  
       434        435        446        445        555        556        567        566  
       435        436        447        446        556        557        568        567  
       436        437        448        447        557        558        569        568  
       437        438        449        448        558        559        570        569  
       438        439        450        449        559        560        571        570  
       439        440        451        450        560        561        572        571  
       441        442        453        452        562        563        574        573  
       442        443        454        453        563        564        575        574  
       443        444        455        454        564        565        576        575  
       444        445        456        455        565        566        577        576  
       445        446        457        456        566        567        578        577  
       446        447        458        457        567        568        579        578  
       447        448        459        458        568        569        580        579  
       448        449        460        459        569        570        581        580  
       449        450        461        460        570        571        582        581  
       450        451        462        461        571        572        583        582  
       452        453        464        463        573        574        585        584  
       453        454        465        464        574        575        586        585  
       454        455        466        465        575        576        587        586  
       455        456        467        466        576        577        588        587  
       456        457        468        467        577        578        589        588  
       457        458        469        468        578        579        590        589  
       458        459        470        469        579        580        591        590  
       459        460        471        470        580        581        592        591  
       460        461        472        471        581        582        593        592  
       461        462        473        472        582        583        594        593  
       463        464        475        474        584        585        596        595  
       464        465        476        475        585        586        597        596  
       465        466        477        476        586        587        598        597  
       466        467        478        477        587        588        599        598  
       467        468        479        478        588        589        600        599  
       468        469        480        479        589        590        601        600  
       469        470        481        480        590        591        602        601  
       470        471        482        481        591        592        603        602  
       471        472        483        482        592        593        604        603  
       472        473        484        483        593        594        605        604  
       485        486        497        496        606        607        618        617  
       486        487        498        497        607        608        619        618  
       487        488        499        498        608        609        620        619  
       488        489        500        499        609        610        621        620  
       489        490        501        500        610        611        622        621  
       490        491        502        501        611        612        623        622  
       491        492        503        502        612        613        624        623  
       492        493        504        503        613        614        625        624  
       493        494        505        504        614        615        626        625  
       494        495        506        505        615        616        627        626  
       496        497        508        507        617        618        629        628  
       497        498        509        508        618        619        630        629  
       498        499        510        509        619        620        631        630  
       499        500        511        510        620        621        632        631  
       500        501        512        511        621        622        633        632  
       501        502        513        512        622        623        634        633  
       502        503        514        513        623        624        635        634  
       503        504        515        514        624        625        636        635  
       504        505        516        515        625        626        637        636  
       505        506        517        516        626        627        638        637  
       507        508        519        518        628        629        640        639  
       508        509        520        519        629        630        641        640  
       509        510        521        520        630        631        642        641  
       510        511        522        521        631        632        643        642  
       511        512        523        522        632        633        644        643  
       512        513        524        523        633        634        645        644  
       513        514        525        524        634        635        646        645  
       514        515        526        525        635        636        647        646  
       515        516        527        526        636        637        648        647  
       516        517        528        527        637        638        649        648  
       518        519        530        529        639        640        651        650  
       519        520        531        530        640        641        652        651  
       520        521        532        531        641        642        653        652  
       521        522        533        532        642        643        654        653  
       522        523        534        533        643        644        655        654  
       523        524        535        534        644        645        656        655  
       524        525        536        535        645        646        657        656  
       525        526        537        536        646        647        658        657  
       526        527        538        537        647        648        659        658  
       527        528        539        538        648        649        660        659  
       529        530        541        540        650        651        662        661  
       530        531        542        541        651        652        663        662  
       531        532        543        542        652        653        664        663  
       532        533        544        543        653        654        665        664  
       533        534        545        544        654        655        666        665  
       534        535        546        545        655        656        667        666  
       535        536        547        546        656        657        668        667  
       536        537        548        547        657        658        669        668  
       537        538        549        548        658        659        670        669  
       538        539        550        549        659        660        671        670  
       540        541        552        551        661        662        673        672  
       541        542        553        552        662        663        674        673  
       542        543        554        553        663        664        675        674  
       543        544        555        554        664        665        676        675  
       544        545        556        555        665        666        677        676  
       545        546        557        556        666        667        678        677  
       546        547        558        557        667        668        679        678  
       547        548        559        558        668        669        680        679  
       548        549        560        559        669        670        681        680  
       549        550        561        560        670        671        682        681  
       551        552        563        562        672        673        684        683  
       552        553        564        563        673        674        685        684  
       553        554        565        564        674        675        686        685  
       554        555        566        565        675        676        687        686  
       555        556        567        566        676        677        688        687  
       556        557        568        567        677        678        689        688  
       557        558        569        568        678        679        690        689  
       558        559        570        569        679        680        691        690  
       559        560        571        570        680        681        692        691  
       560        561        572        571        681        682        693        692  
       562        563        574        573        683        684        695        694  
       563        564        575        574        684        685        696        695  
       564        565        576        575        685        686        697        696  
       565        566        577        576        686        687        698        697  
       566        567        578        577        687        688        699        698  
       567        568        579        578        688        689        700        699  
       568        569        580        579        689        690        701        700  
       569        570        581        580        690        691        702        701  
       570        571        582        581        691        692        703        702  
       571        572        583        582        692        693        704        703  
       573        574        585        584        694        695        706        705  
       574        575        586        585        695        696        707        706  
       575        576        587        586        696        697        708        707  
       576        577        588        587        697        698        709        708  
       577        578        589        588        698        699        710        709  
       578        579        590        589        699        700        711        710  
       579        580        591        590        700        701        712        711  
       580        581        592        591        701        702        713        712  
       581        582        593        592        702        703        714        713  
       582        583        594        593        703        704        715        714  
       584        585        596        595        705        706        717        716  
       585        586        597        596        706        707        718        717  
       586        587        598        597        707        708        719        718  
       587        588        599        598        708        709        720        719  
       588        589        600        599        709        710        721        720  
       589        590        601        600        710        711        722        721  
       590        591        602        601        711        712        723        722  
       591        592        603        602        712        713        724        723  
       592        593        604        603        713        714        725        724  
       593        594        605        604        714        715        726        725  
       606        607        618        617        727        728        739        738  
       607        608        619        618        728        729        740        739  
       608        609        620        619        729        730        741        740  
       609        610        621        620        730        731        742        741  
       610        611        622        621        731        732        743        742  
       611        612        623        622        732        733        744        743  
       612        613        624        623        733        734        745        744  
       613        614        625        624        734        735        746        745  
       614        615        626        625        735        736        747        746  
       615        616        627        626        736        737        748        747  
       617        618        629        628        738        739        750        749  
       618        619        630        629        739        740        751        750  
       619        620        631        630        740        741        752        751  
       620        621        632        631        741        742        753        752  
       621        622        633        632        742        743        754        753  
       622        623        634        633        743        744        755        754  
       623        624        635        634        744        745        756        755  
       624        625        636        635        745        746        757        756  
       625        626        637        636        746        747        758        757  
       626        627        638        637        747        748        759        758  
       628        629        640        639        749        750        761        760  
       629        630        641        640        750        751        762        761  
       630        631        642        641        751        752        763        762  
       631        632        643        642        752        753        764        763  
       632        633        644        643        753        754        765        764  
       633        634        645        644        754        755        766        765  
       634        635        646        645        755        756        767        766  
       635        636        647        646        756        757        768        767  
       636        637        648        647        757        758        769        768  
       637        638        649        648        758        759        770        769  
       639        640        651        650        760        761        772        771  
       640        641        652        651        761        762        773        772  
       641        642        653        652        762        763        774        773  
       642        643        654        653        763        764        775        774  
       643        644        655        654        764        765        776        775  
       644        645        656        655        765        766        777        776  
       645        646        657        656        766        767        778        777  
       646        647        658        657        767        768        779        778  
       647        648        659        658        768        769        780        779  
       648        649        660        659        769        770        781        780  
       650        651        662        661        771        772        783        782  
       651        652        663        662        772        773        784        783  
       652        653        664        663        773        774        785        784  
       653        654        665        664        774        775        786        785  
       654        655        666        665        775        776        787        786  
       655        656        667        666        776        777        788        787  
       656        657        668        667        777        778        789        788  
       657        658        669        668        778        779        790        789  
       658        659        670        669        779        780        791        790  
       659        660        671        670        780        781        792        791  
       661        662        673        672        782        783        794        793  
       662        663        674        673        783        784        795        794  
       663        664        675        674        784        785        796        795  
       664        665        676        675        785        786        797        796  
       665        666        677        676        786        787        798        797  
       666        667        678        677        787        788        799        798  
       667        668        679        678        788        789        800        799  
       668        669        680        679        789        790        801        800  
       669        670        681        680        790        791        802        801  
       670        671        682        681        791        792        803        802  
       672        673        684        683        793        794        805        804  
       673        674        685        684        794        795        806        805  
       674        675        686        685        795        796        807        806  
       675        676        687        686        796        797        808        807  
       676        677        688        687        797        798        809        808  
       677        678        689        688        798        799        810        809  
       678        679        690        689        799        800        811        810  
       679        680        691        690        800        801        812        811  
       680        681        692        691        801        802        813        812  
       681        682        693        692        802        803        814        813  
       683        684        695        694        804        805        816        815  
       684        685        696        695        805        806        817        816  
       685        686        697        696        806        807        818        817  
       686        687        698        697        807        808        819        818  
       687        688        699        698        808        809        820        819  
       688        689        700        699        809        810        821        820  
       689        690        701        700        810        811        822        821  
       690        691        702        701        811        812        823        822  
       691        692        703        702        812        813        824        823  
       692        693        704        703        813        814        825        824  
       694        695        706        705        815        816        827        826  
       695        696        707        706        816        817        828        827  
       696        697        708        707        817        818        829        828  
       697        698        709        708        818        819        830        829  
       698        699        710        709        819        820        831        830  
       699        700        711        710        820        821        832        831  
       700        701        712        711        821        822        833        832  
       701        702        713        712        822        823        834        833  
       702        703        714        713        823        824        835        834  
       703        704        715        714        824        825        836        835  
       705        706        717        716        826        827        838        837  
       706        707        718        717        827        828        839        838  
       707        708        719        718        828        829        840        839  
       708        709        720        719        829        830        841        840  
       709        710        721        720        830        831        842        841  
       710        711        722        721        831        832        843        842  
       711        712        723        722        832        833        844        843  
       712        713        724        723        833        834        845        844  
       713        714        725        724        834        835        846        845  
       714        715        726        725        835        836        847        846  
       727        728        739        738        848        849        860        859  
       728        729        740        739        849        850        861        860  
       729        730        741        740        850        851        862        861  
       730        731        742        741        851        852        863        862  
       731        732        743        742        852        853        864        863  
       732        733        744        743        853        854        865        864  
       733        734        745        744        854        855        866        865  
       734        735        746        745        855        856        867        866  
       735        736        747        746        856        857        868        867  
       736        737        748        747        857        858        869        868  
       738        739        750        749        859        860        871        870  
       739        740        751        750        860        861        872        871  
       740        741        752        751        861        862        873        872  
       741        742        753        752        862        863        874        873  
       742        743        754        753        863        864        875        874  
       743        744        755        754        864        865        876        875  
       744        745        756        755        865        866        877        876  
       745        746        757        756        866        867        878        877  
       746        747        758        757        867        868        879        878  
       747        748        759        758        868        869        880        879  
       749        750        761        760        870        871        882        881  
       750        751        762        761        871        872        883        882  
       751        752        763        762        872        873        884        883  
       752        753        764        763        873        874        885        884  
       753        754        765        764        874        875        886        885  
       754        755        766        765        875        876        887        886  
       755        756        767        766        876        877        888        887  
       756        757        768        767        877        878        889        888  
       757        758        769        768        878        879        890        889  
       758        759        770        769        879        880        891        890  
       760        761        772        771        881        882        893        892  
       761        762        773        772        882        883        894        893  
       762        763        774        773        883        884        895        894  
       763        764        775        774        884        885        896        895  
       764        765        776        775        885        886        897        896  
       765        766        777        776        886        887        898        897  
       766        767        778        777        887        888        899        898  
       767        768        779        778        888        889        900        899  
       768        769        780        779        889        890        901        900  
       769        770        781        780        890        891        902        901  
       771        772        783        782        892        893        904        903  
       772        773        784        783        893        894        905        904  
       773        774        785        784        894        895        906        905  
       774        775        786        785        895        896        907        906  
       775        776        787        786        896        897        908        907  
       776        777        788        787        897        898        909        908  
       777        778        789        788        898        899        910        909  
       778        779        790        789        899        900        911        910  
       779        780        791        790        900        901        912        911  
       780        781        792        791        901        902        913        912  
       782        783        794        793        903        904        915        914  
       783        784        795        794        904        905        916        915  
       784        785        796        795        905        906        917        916  
       785        786        797        796        906        907        918        917  
       786        787        798        797        907        908        919        918  
       787        788        799        798        908        909        920        919  
       788        789        800        799        909        910        921        920  
       789        790        801        800        910        911        922        921  
       790        791        802        801        911        912        923        922  
       791        792        803        802        912        913        924        923  
       793        794        805        804        914        915        926        925  
       794        795        806        805        915        916        927        926  
       795        796        807        806        916        917        928        927  
       796        797        808        807        917        918        929        928  
       797        798        809        808        918        919        930        929  
       798        799        810        809        919        920        931        930  
       799        800        811        810        920        921        932        931  
       800        801        812        811        921        922        933        932  
       801        802        813        812        922        923        934        933  
       802        803        814        813        923        924        935        934  
       804        805        816        815        925        926        937        936  
       805        806        817        816        926        927        938        937  
       806        807        818        817        927        928        939        938  
       807        808        819        818        928        929        940        939  
       808        809        820        819        929        930        941        940  
       809        810        821        820        930        931        942        941  
       810        811        822        821        931        932        943        942  
       811        812        823        822        932        933        944        943  
       812        813        824        823        933        934        945        944  
       813        814        825        824        934        935        946        945  
       815        816        827        826        936        937        948        947  
       816        817        828        827        937        938        949        948  
       817        818        829        828        938        939        950        949  
       818        819        830        829        939        940        951        950  
       819        820        831        830        940        941        952        951  
       820        821        832        831        941        942        953        952  
       821        822        833        832        942        943        954        953  
       822        823        834        833        943        944        955        954  
       823        824        835        834        944        945        956        955  
       824        825        836        835        945        946        957        956  
       826        827        838        837        947        948        959        958  
       827        828        839        838        948        949        960        959  
       828        829        840        839        949        950        961        960  
       829        830        841        840        950        951        962        961  
       830        831        842        841        951        952        963        962  
       831        832        843        842        952        953        964        963  
       832        833        844        843        953        954        965        964  
       833        834        845        844        954        955        966        965  
       834        835        846        845        955        956        967        966  
       835        836        847        846        956        957        968        967  
       848        849        860        859        969        970        981        980  
       849        850        861        860        970        971        982        981  
       850        851        862        861        971        972        983        982  
       851        852        863        862        972        973        984        983  
       852        853        864        863        973        974        985        984  
       853        854        865        864        974        975        986        985  
       854        855        866        865        975        976        987        986  
       855        856        867        866        976        977        988        987  
       856        857        868        867        977        978        989        988  
       857        858        869        868        978        979        990        989  
       859        860        871        870        980        981        992        991  
       860        861        872        871        981        982        993        992  
       861        862        873        872        982        983        994        993  
       862        863        874        873        983        984        995        994  
       863        864        875        874        984        985        996        995  
       864        865        876        875        985        986        997        996  
       865        866        877        876        986        987        998        997  
       866        867        878        877        987        988        999        998  
       867        868        879        878        988        989       1000        999  
       868        869        880        879        989        990       1001       1000  
       870        871        882        881        991        992       1003       1002  
       871        872        883        882        992        993       1004       1003  
       872        873        884        883        993        994       1005       1004  
       873        874        885        884        994        995       1006       1005  
       874        875        886        885        995        996       1007       1006  
       875        876        887        886        996        997       1008       1007  
       876        877        888        887        997        998       1009       1008  
       877        878        889        888        998        999       1010       1009  
       878        879        890        889        999       1000       1011       1010  
       879        880        891        890       1000       1001       1012       1011  
       881        882        893        892       1002       1003       1014       1013  
       882        883        894        893       1003       1004       1015       1014  
       883        884        895        894       1004       1005       1016       1015  
       884        885        896        895       1005       1006       1017       1016  
       885        886        897        896       1006       1007       1018       1017  
       886        887        898        897       1007       1008       1019       1018  
       887        888        899        898       1008       1009       1020       1019  
       888        889        900        899       1009       1010       1021       1020  
       889        890        901        900       1010       1011       1022       1021  
       890        891        902        901       1011       1012       1023       1022  
       892        893        904        903       1013       1014       1025       1024  
       893        894        905        904       1014       1015       1026       1025  
       894        895        906        905       1015       1016       1027       1026  
       895        896        907        906       1016       1017       1028       1027  
       896        897        908        907       1017       1018       1029       1028  
       897        898        909        908       1018       1019       1030       1029  
       898        899        910        909       1019       1020       1031       1030  
       899        900        911        910       1020       1021       1032       1031  
       900        901        912        911       1021       1022       1033       1032  
       901        902        913        912       1022       1023       1034       1033  
       903        904        915        914       1024       1025       1036       1035  
       904        905        916        915       1025       1026       1037       1036  
       905        906        917        916       1026       1027       1038       1037  
       906        907        918        917       1027       1028       1039       1038  
       907        908        919        918       1028       1029       1040       1039  
       908        909        920        919       1029       1030       1041       1040  
       909        910        921        920       1030       1031       1042       1041  
       910        911        922        921       1031       1032       1043       1042  
       911        912        923        922       1032       1033       1044       1043  
       912        913        924        923       1033       1034       1045       1044  
       914        915        926        925       1035       1036       1047       1046  
       915        916        927        926       1036       1037       1048       1047  
       916        917        928        927       1037       1038       1049       1048  
       917        918        929        928       1038       1039       1050       1049  
       918        919        930        929       1039       1040       1051       1050  
       919        920        931        930       1040       1041       1052       1051  
       920        921        932        931       1041       1042       1053       1052  
       921        922        933        932       1042       1043       1054       1053  
       922        923        934        933       1043       1044       1055       1054  
       923        924        935        934       1044       1045       1056       1055  
       925        926        937        936       1046       1047       1058       1057  
       926        927        938        937       1047       1048       1059       1058  
       927        928        939        938       1048       1049       1060       1059  
       928        929        940        939       1049       1050       1061       1060  
       929        930        941        940       1050       1051       1062       1061  
       930        931        942        941       1051       1052       1063       1062  
       931        932        943        942       1052       1053       1064       1063  
       932        933        944        943       1053       1054       1065       1064  
       933        934        945        944       1054       1055       1066       1065  
       934        935        946        945       1055       1056       1067       1066  
       936        937        948        947       1057       1058       1069       1068  
       937        938        949        948       1058       1059       1070       1069  
       938        939        950        949       1059       1060       1071       1070  
       939        940        951        950       1060       1061       1072       1071  
       940        941        952        951       1061       1062       1073       1072  
       941        942        953        952       1062       1063       1074       1073  
       942        943        954        953       1063       1064       1075       1074  
       943        944        955        954       1064       1065       1076       1075  
       944        945        956        955       1065       1066       1077       1076  
       945        946        957        956       1066       1067       1078       1077  
       947        948        959        958       1068       1069       1080       1079  
       948        949        960        959       1069       1070       1081       1080  
       949        950        961        960       1070       1071       1082       1081  
       950        951        962        961       1071       1072       1083       1082  
       951        952        963        962       1072       1073       1084       1083  
       952        953        964        963       1073       1074       1085       1084  
       953        954        965        964       1074       1075       1086       1085  
       954        955        966        965       1075       1076       1087       1086  
       955        956        967        966       1076       1077       1088       1087  
       956        957        968        967       1077       1078       1089       1088  
       969        970        981        980       1090       1091       1102       1101  
       970        971        982        981       1091       1092       1103       1102  
       971        972        983        982       1092       1093       1104       1103  
       972        973        984        983       1093       1094       1105       1104  
       973        974        985        984       1094       1095       1106       1105  
       974        975        986        985       1095       1096       1107       1106  
       975        976        987        986       1096       1097       1108       1107  
       976        977        988        987       1097       1098       1109       1108  
       977        978        989        988       1098       1099       1110       1109  
       978        979        990        989       1099       1100       1111       1110  
       980        981        992        991       1101       1102       1113       1112  
       981        982        993        992       1102       1103       1114       1113  
       982        983        994        993       1103       1104       1115       1114  
       983        984        995        994       1104       1105       1116       1115  
       984        985        996        995       1105       1106       1117       1116  
       985        986        997        996       1106       1107       1118       1117  
       986        987        998        997       1107       1108       1119       1118  
       987        988        999        998       1108       1109       1120       1119  
       988        989       1000        999       1109       1110       1121       1120  
       989        990       1001       1000       1110       1111       1122       1121  
       991        992       1003       1002       1112       1113       1124       1123  
       992        993       1004       1003       1113       1114       1125       1124  
       993        994       1005       1004       1114       1115       1126       1125  
       994        995       1006       1005       1115       1116       1127       1126  
       995        996       1007       1006       1116       1117       1128       1127  
       996        997       1008       1007       1117       1118       1129       1128  
       997        998       1009       1008       1118       1119       1130       1129  
       998        999       1010       1009       1119       1120       1131       1130  
       999       1000       1011       1010       1120       1121       1132       1131  
      1000       1001       1012       1011       1121       1122       1133       1132  
      1002       1003       1014       1013       1123       1124       1135       1134  
      1003       1004       1015       1014       1124       1125       1136       1135  
      1004       1005       1016       1015       1125       1126       1137       1136  
      1005       1006       1017       1016       1126       1127       1138       1137  
      1006       1007       1018       1017       1127       1128       1139       1138  
      1007       1008       1019       1018       1128       1129       1140       1139  
      1008       1009       1020       1019       1129       1130       1141       1140  
      1009       1010       1021       1020       1130       1131       1142       1141  
      1010       1011       1022       1021       1131       1132       1143       1142  
      1011       1012       1023       1022       1132       1133       1144       1143  
      1013       1014       1025       1024       1134       1135       1146       1145  
      1014       1015       1026       1025       1135       1136       1147       1146  
      1015       1016       1027       1026       1136       1137       1148       1147  
      1016       1017       1028       1027       1137       1138       1149       1148  
      1017       1018       1029       1028       1138       1139       1150       1149  
      1018       1019       1030       1029       1139       1140       1151       1150  
      1019       1020       1031       1030       1140       1141       1152       1151  
      1020       1021       1032       1031       1141       1142       1153       1152  
      1021       1022       1033       1032       1142       1143       1154       1153  
      1022       1023       1034       1033       1143       1144       1155       1154  
      1024       1025       1036       1035       1145       1146       1157       1156  
      1025       1026       1037       1036       1146       1147       1158       1157  
      1026       1027       1038       1037       1147       1148       1159       1158  
      1027       1028       1039       1038       1148       1149       1160       1159  
      1028       1029       1040       1039       1149       1150       1161       1160  
      1029       1030       1041       1040       1150       1151       1162       1161  
      1030       1031       1042       1041       1151       1152       1163       1162  
      1031       1032       1043       1042       1152       1153       1164       1163  
      1032       1033       1044       1043       1153       1154       1165       1164  
      1033       1034       1045       1044       1154       1155       1166       1165  
      1035       1036       1047       1046       1156       1157       1168       1167  
      1036       1037       1048       1047       1157       1158       1169       1168  
      1037       1038       1049       1048       1158       1159       1170       1169  
      1038       1039       1050       1049       1159       1160       1171       1170  
      1039       1040       1051       1050       1160       1161       1172       1171  
      1040       1041       1052       1051       1161       1162       1173       1172  
      1041       1042       1053       1052       1162       1163       1174       1173  
      1042       1043       1054       1053       1163       1164       1175       1174  
      1043       1044       1055       1054       1164       1165       1176       1175  
      1044       1045       1056       1055       1165       1166       1177       1176  
      1046       1047       1058       1057       1167       1168       1179       1178  
      1047       1048       1059       1058       1168       1169       1180       1179  
      1048       1049       1060       1059       1169       1170       1181       1180  
      1049       1050       1061       1060       1170       1171       1182       1181  
      1050       1051       1062       1061       1171       1172       1183       1182  
      1051       1052       1063       1062       1172       1173       1184       1183  
      1052       1053       1064       1063       1173       1174       1185       1184  
      1053       1054       1065       1064       1174       1175       1186       1185  
      1054       1055       1066       1065       1175       1176       1187       1186  
      1055       1056       1067       1066       1176       1177       1188       1187  
      1057       1058       1069       1068       1178       1179       1190       1189  
      1058       1059       1070       1069       1179       1180       1191       1190  
      1059       1060       1071       1070       1180       1181       1192       1191  
      1060       1061       1072       1071       1181       1182       1193       1192  
      1061       1062       1073       1072       1182       1183       1194       1193  
      1062       1063       1074       1073       1183       1184       1195       1194  
      1063       1064       1075       1074       1184       1185       1196       1195  
      1064       1065       1076       1075       1185       1186       1197       1196  
      1065       1066       1077       1076       1186       1187       1198       1197  
      1066       1067       1078       1077       1187       1188       1199       1198  
      1068       1069       1080       1079       1189       1190       1201       1200  
      1069       1070       1081       1080       1190       1191       1202       1201  
      1070       1071       1082       1081       1191       1192       1203       1202  
      1071       1072       1083       1082       1192       1193       1204       1203  
      1072       1073       1084       1083       1193       1194       1205       1204  
      1073       1074       1085       1084       1194       1195       1206       1205  
      1074       1075       1086       1085       1195       1196       1207       1206  
      1075       1076       1087       1086       1196       1197       1208       1207  
      1076       1077       1088       1087       1197       1198       1209       1208  
      1077       1078       1089       1088       1198       1199       1210       1209  
      1090       1091       1102       1101       1211       1212       1223       1222  
      1091       1092       1103       1102       1212       1213       1224       1223  
      1092       1093       1104       1103       1213       1214       1225       1224  
      1093       1094       1105       1104       1214       1215       1226       1225  
      1094       1095       1106       1105       1215       1216       1227       1226  
      1095       1096       1107       1106       1216       1217       1228       1227  
      1096       1097       1108       1107       1217       1218       1229       1228  
      1097       1098       1109       1108       1218       1219       1230       1229  
      1098       1099       1110       1109       1219       1220       1231       1230  
      1099       1100       1111       1110       1220       1221       1232       1231  
      1101       1102       1113       1112       1222       1223       1234       1233  
      1102       1103       1114       1113       1223       1224       1235       1234  
      1103       1104       1115       1114       1224       1225       1236       1235  
      1104       1105       1116       1115       1225       1226       1237       1236  
      1105       1106       1117       1116       1226       1227       1238       1237  
      1106       1107       1118       1117       1227       1228       1239       1238  
      1107       1108       1119       1118       1228       1229       1240       1239  
      1108       1109       1120       1119       1229       1230       1241       1240  
      1109       1110       1121       1120       1230       1231       1242       1241  
      1110       1111       1122       1121       1231       1232       1243       1242  
      1112       1113       1124       1123       1233       1234       1245       1244  
      1113       1114       1125       1124       1234       1235       1246       1245  
      1114       1115       1126       1125       1235       1236       1247       1246  
      1115       1116       1127       1126       1236       1237       1248       1247  
      1116       1117       1128       1127       1237       1238       1249       1248  
      1117       1118       1129       1128       1238       1239       1250       1249  
      1118       1119       1130       1129       1239       1240       1251       1250  
      1119       1120       1131       1130       1240       1241       1252       1251  
      1120       1121       1132       1131       1241       1242       1253       1252  
      1121       1122       1133       1132       1242       1243       1254       1253  
      1123       1124       1135       1134       1244       1245       1256       1255  
      1124       1125       1136       1135       1245       1246       1257       1256  
      1125       1126       1137       1136       1246       1247       1258       1257  
      1126       1127       1138       1137       1247       1248       1259       1258  
      1127       1128       1139       1138       1248       1249       1260       1259  
      1128       1129       1140       1139       1249       1250       1261       1260  
      1129       1130       1141       1140       1250       1251       1262       1261  
      1130       1131       1142       1141       1251       1252       1263       1262  
      1131       1132       1143       1142       1252       1253       1264       1263  
      1132       1133       1144       1143       1253       1254       1265       1264  
      1134       1135       1146       1145       1255       1256       1267       1266  
      1135       1136       1147       1146       1256       1257       1268       1267  
      1136       1137       1148       1147       1257       1258       1269       1268  
      1137       1138       1149       1148       1258       1259       1270       1269  
      1138       1139       1150       1149       1259       1260       1271       1270  
      1139       1140       1151       1150       1260       1261       1272       1271  
      1140       1141       1152       1151       1261       1262       1273       1272  
      1141       1142       1153       1152       1262       1263       1274       1273  
      1142       1143       1154       1153       1263       1264       1275       1274  
      1143       1144       1155       1154       1264       1265       1276       1275  
      1145       1146       1157       1156       1266       1267       1278       1277  
      1146       1147       1158       1157       1267       1268       1279       1278  
      1147       1148       1159       1158       1268       1269       1280       1279  
      1148       1149       1160       1159       1269       1270       1281       1280  
      1149       1150       1161       1160       1270       1271       1282       1281  
      1150       1151       1162       1161       1271       1272       1283       1282  
      1151       1152       1163       1162       1272       1273       1284       1283  
      1152       1153       1164       1163       1273       1274       1285       1284  
      1153       1154       1165       1164       1274       1275       1286       1285  
      1154       1155       1166       1165       1275       1276       1287       1286  
      1156       1157       1168       1167       1277       1278       1289       1288  
      1157       1158       1169       1168       1278       1279       1290       1289  
      1158       1159       1170       1169       1279       1280       1291       1290  
      1159       1160       1171       1170       1280       1281       1292       1291  
      1160       1161       1172       1171       1281       1282       1293       1292  
      1161       1162       1173       1172       1282       1283       1294       1293  
      1162       1163       1174       1173       1283       1284       1295       1294  
      1163       1164       1175       1174       1284       1285       1296       1295  
      1164       1165       1176       1175       1285       1286       1297       1296  
      1165       1166       1177       1176       1286       1287       1298       1297  
      1167       1168       1179       1178       1288       1289       1300       1299  
      1168       1169       1180       1179       1289       1290       1301       1300  
      1169       1170       1181       1180       1290       1291       1302       1301  
      1170       1171       1182       1181       1291       1292       1303       1302  
      1171       1172       1183       1182       1292       1293       1304       1303  
      1172       1173       1184       1183       1293       1294       1305       1304  
      1173       1174       1185       1184       1294       1295       1306       1305  
      1174       1175       1186       1185       1295       1296       1307       1306  
      1175       1176       1187       1186       1296       1297       1308       1307  
      1176       1177       1188       1187       1297       1298       1309       1308  
      1178       1179       1190       1189       1299       1300       1311       1310  
      1179       1180       1191       1190       1300       1301       1312       1311  
      1180       1181       1192       1191       1301       1302       1313       1312  
      1181       1182       1193       1192       1302       1303       1314       1313  
      1182       1183       1194       1193       1303       1304       1315       1314  
      1183       1184       1195       1194       1304       1305       1316       1315  
      1184       1185       1196       1195       1305       1306       1317       1316  
      1185       1186       1197       1196       1306       1307       1318       1317  
      1186       1187       1198       1197       1307       1308       1319       1318  
      1187       1188       1199       1198       1308       1309       1320       1319  
      1189       1190       1201       1200       1310       1311       1322       1321  
      1190       1191       1202       1201       1311       1312       1323       1322  
      1191       1192       1203       1202       1312       1313       1324       1323  
      1192       1193       1204       1203       1313       1314       1325       1324  
      1193       1194       1205       1204       1314       1315       1326       1325  
      1194       1195       1206       1205       1315       1316       1327       1326  
      1195       1196       1207       1206       1316       1317       1328       1327  
      1196       1197       1208       1207       1317       1318       1329       1328  
      1197       1198       1209       1208       1318       1319       1330       1329  
      1198       1199       1210       1209       1319       1320       1331       1330  
      1211       1212       1223       1222       1332       1333       1344       1343  
      1212       1213       1224       1223       1333       1334       1345       1344  
      1213       1214       1225       1224       1334       1335       1346       1345  
      1214       1215       1226       1225       1335       1336       1347       1346  
      1215       1216       1227       1226       1336       1337       1348       1347  
      1216       1217       1228       1227       1337       1338       1349       1348  
      1217       1218       1229       1228       1338       1339       1350       1349  
      1218       1219       1230       1229       1339       1340       1351       1350  
      1219       1220       1231       1230       1340       1341       1352       1351  
      1220       1221       1232       1231       1341       1342       1353       1352  
      1222       1223       1234       1233       1343       1344       1355       1354  
      1223       1224       1235       1234       1344       1345       1356       1355  
      1224       1225       1236       1235       1345       1346       1357       1356  
      1225       1226       1237       1236       1346       1347       1358       1357  
      1226       1227       1238       1237       1347       1348       1359       1358  
      1227       1228       1239       1238       1348       1349       1360       1359  
      1228       1229       1240       1239       1349       1350       1361       1360  
      1229       1230       1241       1240       1350       1351       1362       1361  
      1230       1231       1242       1241       1351       1352       1363       1362  
      1231       1232       1243       1242       1352       1353       1364       1363  
      1233       1234       1245       1244       1354       1355       1366       1365  
      1234       1235       1246       1245       1355       1356       1367       1366  
      1235       1236       1247       1246       1356       1357       1368       1367  
      1236       1237       1248       1247       1357       1358       1369       1368  
      1237       1238       1249       1248       1358       1359       1370       1369  
      1238       1239       1250       1249       1359       1360       1371       1370  
      1239       1240       1251       1250       1360       1361       1372       1371  
      1240       1241       1252       1251       1361       1362       1373       1372  
      1241       1242       1253       1252       1362       1363       1374       1373  
      1242       1243       1254       1253       1363       1364       1375       1374  
      1244       1245       1256       1255       1365       1366       1377       1376  
      1245       1246       1257       1256       1366       1367       1378       1377  
      1246       1247       1258       1257       1367       1368       1379       1378  
      1247       1248       1259       1258       1368       1369       1380       1379  
      1248       1249       1260       1259       1369       1370       1381       1380  
      1249       1250       1261       1260       1370       1371       1382       1381  
      1250       1251       1262       1261       1371       1372       1383       1382  
      1251       1252       1263       1262       1372       1373       1384       1383  
      1252       1253       1264       1263       1373       1374       1385       1384  
      1253       1254       1265       1264       1374       1375       1386       1385  
      1255       1256       1267       1266       1376       1377       1388       1387  
      1256       1257       1268       1267       1377       1378       1389       1388  
      1257       1258       1269       1268       1378       1379       1390       1389  
      1258       1259       1270       1269       1379       1380       1391       1390  
      1259       1260       1271       1270       1380       1381       1392       1391  
      1260       1261       1272       1271       1381       1382       1393       1392  
      1261       1262       1273       1272       1382       1383       1394       1393  
      1262       1263       1274       1273       1383       1384       1395       1394  
      1263       1264       1275       1274       1384       1385       1396       1395  
      1264       1265       1276       1275       1385       1386       1397       1396  
      1266       1267       1278       1277       1387       1388       1399       1398  
      1267       1268       1279       1278       1388       1389       1400       1399  
      1268       1269       1280       1279       1389       1390       1401       1400  
      1269       1270       1281       1280       1390       1391       1402       1401  
      1270       1271       1282       1281       1391       1392       1403       1402  
      1271       1272       1283       1282       1392       1393       1404       1403  
      1272       1273       1284       1283       1393       1394       1405       1404  
      1273       1274       1285       1284       1394       1395       1406       1405  
      1274       1275       1286       1285       1395       1396       1407       1406  
      1275       1276       1287       1286       1396       1397       1408       1407  
      1277       1278       1289       1288       1398       1399       1410       1409  
      1278       1279       1290       1289       1399       1400       1411       1410  
      1279       1280       1291       1290       1400       1401       1412       1411  
      1280       1281       1292       1291       1401       1402       1413       1412  
      1281       1282       1293       1292       1402       1403       1414       1413  
      1282       1283       1294       1293       1403       1404       1415       1414  
      1283       1284       1295       1294       1404       1405       1416       1415  
      1284       1285       1296       1295       1405       1406       1417       1416  
      1285       1286       1297       1296       1406       1407       1418       1417  
      1286       1287       1298       1297       1407       1408       1419       1418  
      1288       1289       1300       1299       1409       1410       1421       1420  
      1289       1290       1301       1300       1410       1411       1422       1421  
      1290       1291       1302       1301       1411       1412       1423       1422  
      1291       1292       1303       1302       1412       1413       1424       1423  
      1292       1293       1304       1303       1413       1414       1425       1424  
      1293       1294       1305       1304       1414       1415       1426       1425  
      1294       1295       1306       1305       1415       1416       1427       1426  
      1295       1296       1307       1306       1416       1417       1428       1427  
      1296       1297       1308       1307       1417       1418       1429       1428  
      1297       1298       1309       1308       1418       1419       1430       1429  
      1299       1300       1311       1310       1420       1421       1432       1431  
      1300       1301       1312       1311       1421       1422       1433       1432  
      1301       1302       1313       1312       1422       1423       1434       1433  
      1302       1303       1314       1313       1423       1424       1435       1434  
      1303       1304       1315       1314       1424       1425       1436       1435  
      1304       1305       1316       1315       1425       1426       1437       1436  
      1305       1306       1317       1316       1426       1427       1438       1437  
      1306       1307       1318       1317       1427       1428       1439       1438  
      1307       1308       1319       1318       1428       1429       1440       1439  
      1308       1309       1320       1319       1429       1430       1441       1440  
      1310       1311       1322       1321       1431       1432       1443       1442  
      1311       1312       1323       1322       1432       1433       1444       1443  
      1312       1313       1324       1323       1433       1434       1445       1444  
      1313       1314       1325       1324       1434       1435       1446       1445  
      1314       1315       1326       1325       1435       1436       1447       1446  
      1315       1316       1327       1326       1436       1437       1448       1447  
      1316       1317       1328       1327       1437       1438       1449       1448  
      1317       1318       1329       1328       1438       1439       1450       1449  
      1318       1319       1330       1329       1439       1440       1451       1450  
      1319       1320       1331       1330       1440       1441       1452       1451  
      1332       1333       1344       1343       1453       1454       1465       1464  
      1333       1334       1345       1344       1454       1455       1466       1465  
      1334       1335       1346       1345       1455       1456       1467       1466  
      1335       1336       1347       1346       1456       1457       1468       1467  
      1336       1337       1348       1347       1457       1458       1469       1468  
      1337       1338       1349       1348       1458       1459       1470       1469  
      1338       1339       1350       1349       1459       1460       1471       1470  
      1339       1340       1351       1350       1460       1461       1472       1471  
      1340       1341       1352       1351       1461       1462       1473       1472  
      1341       1342       1353       1352       1462       1463       1474       1473  
      1343       1344       1355       1354       1464       1465       1476       1475  
      1344       1345       1356       1355       1465       1466       1477       1476  
      1345       1346       1357       1356       1466       1467       1478       1477  
      1346       1347       1358       1357       1467       1468       1479       1478  
      1347       1348       1359       1358       1468       1469       1480       1479  
      1348       1349       1360       1359       1469       1470       1481       1480  
      1349       1350       1361       1360       1470       1471       1482       1481  
      1350       1351       1362       1361       1471       1472       1483       1482  
      1351       1352       1363       1362       1472       1473       1484       1483  
      1352       1353       1364       1363       1473       1474       1485       1484  
      1354       1355       1366       1365       1475       1476       1487       1486  
      1355       1356       1367       1366       1476       1477       1488       1487  
      1356       1357       1368       1367       1477       1478       1489       1488  
      1357       1358       1369       1368       1478       1479       1490       1489  
      1358       1359       1370       1369       1479       1480       1491       1490  
      1359       1360       1371       1370       1480       1481       1492       1491  
      1360       1361       1372       1371       1481       1482       1493       1492  
      1361       1362       1373       1372       1482       1483       1494       1493  
      1362       1363       1374       1373       1483       1484       1495       1494  
      1363       1364       1375       1374       1484       1485       1496       1495  
      1365       1366       1377       1376       1486       1487       1498       1497  
      1366       1367       1378       1377       1487       1488       1499       1498  
      1367       1368       1379       1378       1488       1489       1500       1499  
      1368       1369       1380       1379       1489       1490       1501       1500  
      1369       1370       1381       1380       1490       1491       1502       1501  
      1370       1371       1382       1381       1491       1492       1503       1502  
      1371       1372       1383       1382       1492       1493       1504       1503  
      1372       1373       1384       1383       1493       1494       1505       1504  
      1373       1374       1385       1384       1494       1495       1506       1505  
      1374       1375       1386       1385       1495       1496       1507       1506  
      1376       1377       1388       1387       1497       1498       1509       1508  
      1377       1378       1389       1388       1498       1499       1510       1509  
      1378       1379       1390       1389       1499       1500       1511       1510  
      1379       1380       1391       1390       1500       1501       1512       1511  
      1380       1381       1392       1391       1501       1502       1513       1512  
      1381       1382       1393       1392       1502       1503       1514       1513  
      1382       1383       1394       1393       1503       1504       1515       1514  
      1383       1384       1395       1394       1504       1505       1516       1515  
      1384       1385       1396       1395       1505       1506       1517       1516  
      1385       1386       1397       1396       1506       1507       1518       1517  
      1387       1388       1399       1398       1508       1509       1520       1519  
      1388       1389       1400       1399       1509       1510       1521       1520  
      1389       1390       1401       1400       1510       1511       1522       1521  
      1390       1391       1402       1401       1511       1512       1523       1522  
      1391       1392       1403       1402       1512       1513       1524       1523  
      1392       1393       1404       1403       1513       1514       1525       1524  
      1393       1394       1405       1404       1514       1515       1526       1525  
      1394       1395       1406       1405       1515       1516       1527       1526  
      1395       1396       1407       1406       1516       1517       1528       1527  
      1396       1397       1408       1407       1517       1518       1529       1528  
      1398       1399       1410       1409       1519       1520       1531       1530  
      1399       1400       1411       1410       1520       1521       1532       1531  
      1400       1401       1412       1411       1521       1522       1533       1532  
      1401       1402       1413       1412       1522       1523       1534       1533  
      1402       1403       1414       1413       1523       1524       1535       1534  
      1403       1404       1415       1414       1524       1525       1536       1535  
      1404       1405       1416       1415       1525       1526       1537       1536  
      1405       1406       1417       1416       1526       1527       1538       1537  
      1406       1407       1418       1417       1527       1528       1539       1538  
      1407       1408       1419       1418       1528       1529       1540       1539  
      1409       1410       1421       1420       1530       1531       1542       1541  
      1410       1411       1422       1421       1531       1532       1543       1542  
      1411       1412       1423       1422       1532       1533       1544       1543  
      1412       1413       1424       1423       1533       1534       1545       1544  
      1413       1414       1425       1424       1534       1535       1546       1545  
      1414       1415       1426       1425       1535       1536       1547       1546  
      1415       1416       1427       1426       1536       1537       1548       1547  
      1416       1417       1428       1427       1537       1538       1549       1548  
      1417       1418       1429       1428       1538       1539       1550       1549  
      1418       1419       1430       1429       1539       1540       1551       1550  
      1420       1421       1432       1431       1541       1542       1553       1552  
      1421       1422       1433       1432       1542       1543       1554       1553  
      1422       1423       1434       1433       1543       1544       1555       1554  
      1423       1424       1435       1434       1544       1545       1556       1555  
      1424       1425       1436       1435       1545       1546       1557       1556  
      1425       1426       1437       1436       1546       1547       1558       1557  
      1426       1427       1438       1437       1547       1548       1559       1558  
      1427       1428       1439       1438       1548       1549       1560       1559  
      1428       1429       1440       1439       1549       1550       1561       1560  
      1429       1430       1441       1440       1550       1551       1562       1561  
      1431       1432       1443       1442       1552       1553       1564       1563  
      1432       1433       1444       1443       1553       1554       1565       1564  
      1433       1434       1445       1444       1554       1555       1566       1565  
      1434       1435       1446       1445       1555       1556       1567       1566  
      1435       1436       1447       1446       1556       1557       1568       1567  
      1436       1437       1448       1447       1557       1558       1569       1568  
      1437       1438       1449       1448       1558       1559       1570       1569  
      1438       1439       1450       1449       1559       1560       1571       1570  
      1439       1440       1451       1450       1560       1561       1572       1571  
      1440       1441       1452       1451       1561       1562       1573       1572  
      1453       1454       1465       1464       1574       1575       1586       1585  
      1454       1455       1466       1465       1575       1576       1587       1586  
      1455       1456       1467       1466       1576       1577       1588       1587  
      1456       1457       1468       1467       1577       1578       1589       1588  
      1457       1458       1469       1468       1578       1579       1590       1589  
      1458       1459       1470       1469       1579       1580       1591       1590  
      1459       1460       1471       1470       1580       1581       1592       1591  
      1460       1461       1472       1471       1581       1582       1593       1592  
      1461       1462       1473       1472       1582       1583       1594       1593  
      1462       1463       1474       1473       1583       1584       1595       1594  
      1464       1465       1476       1475       1585       1586       1597       1596  
      1465       1466       1477       1476       1586       1587       1598       1597  
      1466       1467       1478       1477       1587       1588       1599       1598  
      1467       1468       1479       1478       1588       1589       1600       1599  
      1468       1469       1480       1479       1589       1590       1601       1600  
      1469       1470       1481       1480       1590       1591       1602       1601  
      1470       1471       1482       1481       1591       1592       1603       1602  
      1471       1472       1483       1482       1592       1593       1604       1603  
      1472       1473       1484       1483       1593       1594       1605       1604  
      1473       1474       1485       1484       1594       1595       1606       1605  
      1475       1476       1487       1486       1596       1597       1608       1607  
      1476       1477       1488       1487       1597       1598       1609       1608  
      1477       1478       1489       1488       1598       1599       1610       1609  
      1478       1479       1490       1489       1599       1600       1611       1610  
      1479       1480       1491       1490       1600       1601       1612       1611  
      1480       1481       1492       1491       1601       1602       1613       1612  
      1481       1482       1493       1492       1602       1603       1614       1613  
      1482       1483       1494       1493       1603       1604       1615       1614  
      1483       1484       1495       1494       1604       1605       1616       1615  
      1484       1485       1496       1495       1605       1606       1617       1616  
      1486       1487       1498       1497       1607       1608       1619       1618  
      1487       1488       1499       1498       1608       1609       1620       1619  
      1488       1489       1500       1499       1609       1610       1621       1620  
      1489       1490       1501       1500       1610       1611       1622       1621  
      1490       1491       1502       1501       1611       1612       1623       1622  
      1491       1492       1503       1502       1612       1613       1624       1623  
      1492       1493       1504       1503       1613       1614       1625       1624  
      1493       1494       1505       1504       1614       1615       1626       1625  
      1494       1495       1506       1505       1615       1616       1627       1626  
      1495       1496       1507       1506       1616       1617       1628       1627  
      1497       1498       1509       1508       1618       1619       1630       1629  
      1498       1499       1510       1509       1619       1620       1631       1630  
      1499       1500       1511       1510       1620       1621       1632       1631  
      1500       1501       1512       1511       1621       1622       1633       1632  
      1501       1502       1513       1512       1622       1623       1634       1633  
      1502       1503       1514       1513       1623       1624       1635       1634  
      1503       1504       1515       1514       1624       1625       1636       1635  
      1504       1505       1516       1515       1625       1626       1637       1636  
      1505       1506       1517       1516       1626       1627       1638       1637  
      1506       1507       1518       1517       1627       1628       1639       1638  
      1508       1509       1520       1519       1629       1630       1641       1640  
      1509       1510       1521       1520       1630       1631       1642       1641  
      1510       1511       1522       1521       1631       1632       1643       1642  
      1511       1512       1523       1522       1632       1633       1644       1643  
      1512       1513       1524       1523       1633       1634       1645       1644  
      1513       1514       1525       1524       1634       1635       1646       1645  
      1514       1515       1526       1525       1635       1636       1647       1646  
      1515       1516       1527       1526       1636       1637       1648       1647  
      1516       1517       1528       1527       1637       1638       1649       1648  
      1517       1518       1529       1528       1638       1639       1650       1649  
      1519       1520       1531       1530       1640       1641       1652       1651  
      1520       1521       1532       1531       1641       1642       1653       1652  
      1521       1522       1533       1532       1642       1643       1654       1653  
      1522       1523       1534       1533       1643       1644       1655       1654  
      1523       1524       1535       1534       1644       1645       1656       1655  
      1524       1525       1536       1535       1645       1646       1657       1656  
      1525       1526       1537       1536       1646       1647       1658       1657  
      1526       1527       1538       1537       1647       1648       1659       1658  
      1527       1528       1539       1538       1648       1649       1660       1659  
      1528       1529       1540       1539       1649       1650       1661       1660  
      1530       1531       1542       1541       1651       1652       1663       1662  
      1531       1532       1543       1542       1652       1653       1664       1663  
      1532       1533       1544       1543       1653       1654       1665       1664  
      1533       1534       1545       1544       1654       1655       1666       1665  
      1534       1535       1546       1545       1655       1656       1667       1666  
      1535       1536       1547       1546       1656       1657       1668       1667  
      1536       1537       1548       1547       1657       1658       1669       1668  
      1537       1538       1549       1548       1658       1659       1670       1669  
      1538       1539       1550       1549       1659       1660       1671       1670  
      1539       1540       1551       1550       1660       1661       1672       1671  
      1541       1542       1553       1552       1662       1663       1674       1673  
      1542       1543       1554       1553       1663       1664       1675       1674  
      1543       1544       1555       1554       1664       1665       1676       1675  
      1544       1545       1556       1555       1665       1666       1677       1676  
      1545       1546       1557       1556       1666       1667       1678       1677  
      1546       1547       1558       1557       1667       1668       1679       1678  
      1547       1548       1559       1558       1668       1669       1680       1679  
      1548       1549       1560       1559       1669       1670       1681       1680  
      1549       1550       1561       1560       1670       1671       1682       1681  
      1550       1551       1562       1561       1671       1672       1683       1682  
      1552       1553       1564       1563       1673       1674       1685       1684  
      1553       1554       1565       1564       1674       1675       1686       1685  
      1554       1555       1566       1565       1675       1676       1687       1686  
      1555       1556       1567       1566       1676       1677       1688       1687  
      1556       1557       1568       1567       1677       1678       1689       1688  
      1557       1558       1569       1568       1678       1679       1690       1689  
      1558       1559       1570       1569       1679       1680       1691       1690  
      1559       1560       1571       1570       1680       1681       1692       1691  
      1560       1561       1572       1571       1681       1682       1693       1692  
      1561       1562       1573       1572       1682       1683       1694       1693  
      1574       1575       1586       1585       1695       1696       1707       1706  
      1575       1576       1587       1586       1696       1697       1708       1707  
      1576       1577       1588       1587       1697       1698       1709       1708  
      1577       1578       1589       1588       1698       1699       1710       1709  
      1578       1579       1590       1589       1699       1700       1711       1710  
      1579       1580       1591       1590       1700       1701       1712       1711  
      1580       1581       1592       1591       1701       1702       1713       1712  
      1581       1582       1593       1592       1702       1703       1714       1713  
      1582       1583       1594       1593       1703       1704       1715       1714  
      1583       1584       1595       1594       1704       1705       1716       1715  
      1585       1586       1597       1596       1706       1707       1718       1717  
      1586       1587       1598       1597       1707       1708       1719       1718  
      1587       1588       1599       1598       1708       1709       1720       1719  
      1588       1589       1600       1599       1709       1710       1721       1720  
      1589       1590       1601       1600       1710       1711       1722       1721  
      1590       1591       1602       1601       1711       1712       1723       1722  
      1591       1592       1603       1602       1712       1713       1724       1723  
      1592       1593       1604       1603       1713       1714       1725       1724  
      1593       1594       1605       1604       1714       1715       1726       1725  
      1594       1595       1606       1605       1715       1716       1727       1726  
      1596       1597       1608       1607       1717       1718       1729       1728  
      1597       1598       1609       1608       1718       1719       1730       1729  
      1598       1599       1610       1609       1719       1720       1731       1730  
      1599       1600       1611       1610       1720       1721       1732       1731  
      1600       1601       1612       1611       1721       1722       1733       1732  
      1601       1602       1613       1612       1722       1723       1734       1733  
      1602       1603       1614       1613       1723       1724       1735       1734  
      1603       1604       1615       1614       1724       1725       1736       1735  
      1604       1605       1616       1615       1725       1726       1737       1736  
      1605       1606       1617       1616       1726       1727       1738       1737  
      1607       1608       1619       1618       1728       1729       1740       1739  
      1608       1609       1620       1619       1729       1730       1741       1740  
      1609       1610       1621       1620       1730       1731       1742       1741  
      1610       1611       1622       1621       1731       1732       1743       1742  
      1611       1612       1623       1622       1732       1733       1744       1743  
      1612       1613       1624       1623       1733       1734       1745       1744  
      1613       1614       1625       1624       1734       1735       1746       1745  
      1614       1615       1626       1625       1735       1736       1747       1746  
      1615       1616       1627       1626       1736       1737       1748       1747  
      1616       1617       1628       1627       1737       1738       1749       1748  
      1618       1619       1630       1629       1739       1740       1751       1750  
      1619       1620       1631       1630       1740       1741       1752       1751  
      1620       1621       1632       1631       1741       1742       1753       1752  
      1621       1622       1633       1632       1742       1743       1754       1753  
      1622       1623       1634       1633       1743       1744       1755       1754  
      1623       1624       1635       1634       1744       1745       1756       1755  
      1624       1625       1636       1635       1745       1746       1757       1756  
      1625       1626       1637       1636       1746       1747       1758       1757  
      1626       1627       1638       1637       1747       1748       1759       1758  
      1627       1628       1639       1638       1748       1749       1760       1759  
      1629       1630       1641       1640       1750       1751       1762       1761  
      1630       1631       1642       1641       1751       1752       1763       1762  
      1631       1632       1643       1642       1752       1753       1764       1763  
      1632       1633       1644       1643       1753       1754       1765       1764  
      1633       1634       1645       1644       1754       1755       1766       1765  
      1634       1635       1646       1645       1755       1756       1767       1766  
      1635       1636       1647       1646       1756       1757       1768       1767  
      1636       1637       1648       1647       1757       1758       1769       1768  
      1637       1638       1649       1648       1758       1759       1770       1769  
      1638       1639       1650       1649       1759       1760       1771       1770  
      1640       1641       1652       1651       1761       1762       1773       1772  
      1641       1642       1653       1652       1762       1763       1774       1773  
      1642       1643       1654       1653       1763       1764       1775       1774  
      1643       1644       1655       1654       1764       1765       1776       1775  
      1644       1645       1656       1655       1765       1766       1777       1776  
      1645       1646       1657       1656       1766       1767       1778       1777  
      1646       1647       1658       1657       1767       1768       1779       1778  
      1647       1648       1659       1658       1768       1769       1780       1779  
      1648       1649       1660       1659       1769       1770       1781       1780  
      1649       1650       1661       1660       1770       1771       1782       1781  
      1651       1652       1663       1662       1772       1773       1784       1783  
      1652       1653       1664       1663       1773       1774       1785       1784  
      1653       1654       1665       1664       1774       1775       1786       1785  
      1654       1655       1666       1665       1775       1776       1787       1786  
      1655       1656       1667       1666       1776       1777       1788       1787  
      1656       1657       1668       1667       1777       1778       1789       1788  
      1657       1658       1669       1668       1778       1779       1790       1789  
      1658       1659       1670       1669       1779       1780       1791       1790  
      1659       1660       1671       1670       1780       1781       1792       1791  
      1660       1661       1672       1671       1781       1782       1793       1792  
      1662       1663       1674       1673       1783       1784       1795       1794  
      1663       1664       1675       1674       1784       1785       1796       1795  
      1664       1665       1676       1675       1785       1786       1797       1796  
      1665       1666       1677       1676       1786       1787       1798       1797  
      1666       1667       1678       1677       1787       1788       1799       1798  
      1667       1668       1679       1678       1788       1789       1800       1799  
      1668       1669       1680       1679       1789       1790       1801       1800  
      1669       1670       1681       1680       1790       1791       1802       1801  
      1670       1671       1682       1681       1791       1792       1803       1802  
      1671       1672       1683       1682       1792       1793       1804       1803  
      1673       1674       1685       1684       1794       1795       1806       1805  
      1674       1675       1686       1685       1795       1796       1807       1806  
      1675       1676       1687       1686       1796       1797       1808       1807  
      1676       1677       1688       1687       1797       1798       1809       1808  
      1677       1678       1689       1688       1798       1799       1810       1809  
      1678       1679       1690       1689       1799       1800       1811       1810  
      1679       1680       1691       1690       1800       1801       1812       1811  
      1680       1681       1692       1691       1801       1802       1813       1812  
      1681       1682       1693       1692       1802       1803       1814       1813  
      1682       1683       1694       1693       1803       1804       1815       1814  
      1695       1696       1707       1706       1816       1817       1828       1827  
      1696       1697       1708       1707       1817       1818       1829       1828  
      1697       1698       1709       1708       1818       1819       1830       1829  
      1698       1699       1710       1709       1819       1820       1831       1830  
      1699       1700       1711       1710       1820       1821       1832       1831  
      1700       1701       1712       1711       1821       1822       1833       1832  
      1701       1702       1713       1712       1822       1823       1834       1833  
      1702       1703       1714       1713       1823       1824       1835       1834  
      1703       1704       1715       1714       1824       1825       1836       1835  
      1704       1705       1716       1715       1825       1826       1837       1836  
      1706       1707       1718       1717       1827       1828       1839       1838  
      1707       1708       1719       1718       1828       1829       1840       1839  
      1708       1709       1720       1719       1829       1830       1841       1840  
      1709       1710       1721       1720       1830       1831       1842       1841  
      1710       1711       1722       1721       1831       1832       1843       1842  
      1711       1712       1723       1722       1832       1833       1844       1843  
      1712       1713       1724       1723       1833       1834       1845       1844  
      1713       1714       1725       1724       1834       1835       1846       1845  
      1714       1715       1726       1725       1835       1836       1847       1846  
      1715       1716       1727       1726       1836       1837       1848       1847  
      1717       1718       1729       1728       1838       1839       1850       1849  
      1718       1719       1730       1729       1839       1840       1851       1850  
      1719       1720       1731       1730       1840       1841       1852       1851  
      1720       1721       1732       1731       1841       1842       1853       1852  
      1721       1722       1733       1732       1842       1843       1854       1853  
      1722       1723       1734       1733       1843       1844       1855       1854  
      1723       1724       1735       1734       1844       1845       1856       1855  
      1724       1725       1736       1735       1845       1846       1857       1856  
      1725       1726       1737       1736       1846       1847       1858       1857  
      1726       1727       1738       1737       1847       1848       1859       1858  
      1728       1729       1740       1739       1849       1850       1861       1860  
      1729       1730       1741       1740       1850       1851       1862       1861  
      1730       1731       1742       1741       1851       1852       1863       1862  
      1731       1732       1743       1742       1852       1853       1864       1863  
      1732       1733       1744       1743       1853       1854       1865       1864  
      1733       1734       1745       1744       1854       1855       1866       1865  
      1734       1735       1746       1745       1855       1856       1867       1866  
      1735       1736       1747       1746       1856       1857       1868       1867  
      1736       1737       1748       1747       1857       1858       1869       1868  
      1737       1738       1749       1748       1858       1859       1870       1869  
      1739       1740       1751       1750       1860       1861       1872       1871  
      1740       1741       1752       1751       1861       1862       1873       1872  
      1741       1742       1753       1752       1862       1863       1874       1873  
      1742       1743       1754       1753       1863       1864       1875       1874  
      1743       1744       1755       1754       1864       1865       1876       1875  
      1744       1745       1756       1755       1865       1866       1877       1876  
      1745       1746       1757       1756       1866       1867       1878       1877  
      1746       1747       1758       1757       1867       1868       1879       1878  
      1747       1748       1759       1758       1868       1869       1880       1879  
      1748       1749       1760       1759       1869       1870       1881       1880  
      1750       1751       1762       1761       1871       1872       1883       1882  
      1751       1752       1763       1762       1872       1873       1884       1883  
      1752       1753       1764       1763       1873       1874       1885       1884  
      1753       1754       1765       1764       1874       1875       1886       1885  
      1754       1755       1766       1765       1875       1876       1887       1886  
      1755       1756       1767       1766       1876       1877       1888       1887  
      1756       1757       1768       1767       1877       1878       1889       1888  
      1757       1758       1769       1768       1878       1879       1890       1889  
      1758       1759       1770       1769       1879       1880       1891       1890  
      1759       1760       1771       1770       1880       1881       1892       1891  
      1761       1762       1773       1772       1882       1883       1894       1893  
      1762       1763       1774       1773       1883       1884       1895       1894  
      1763       1764       1775       1774       1884       1885       1896       1895  
      1764       1765       1776       1775       1885       1886       1897       1896  
      1765       1766       1777       1776       1886       1887       1898       1897  
      1766       1767       1778       1777       1887       1888       1899       1898  
      1767       1768       1779       1778       1888       1889       1900       1899  
      1768       1769       1780       1779       1889       1890       1901       1900  
      1769       1770       1781       1780       1890       1891       1902       1901  
      1770       1771       1782       1781       1891       1892       1903       1902  
      1772       1773       1784       1783       1893       1894       1905       1904  
      1773       1774       1785       1784       1894       1895       1906       1905  
      1774       1775       1786       1785       1895       1896       1907       1906  
      1775       1776       1787       1786       1896       1897       1908       1907  
      1776       1777       1788       1787       1897       1898       1909       1908  
      1777       1778       1789       1788       1898       1899       1910       1909  
      1778       1779       1790       1789       1899       1900       1911       1910  
      1779       1780       1791       1790       1900       1901       1912       1911  
      1780       1781       1792       1791       1901       1902       1913       1912  
      1781       1782       1793       1792       1902       1903       1914       1913  
      1783       1784       1795       1794       1904       1905       1916       1915  
      1784       1785       1796       1795       1905       1906       1917       1916  
      1785       1786       1797       1796       1906       1907       1918       1917  
      1786       1787       1798       1797       1907       1908       1919       1918  
      1787       1788       1799       1798       1908       1909       1920       1919  
      1788       1789       1800       1799       1909       1910       1921       1920  
      1789       1790       1801       1800       1910       1911       1922       1921  
      1790       1791       1802       1801       1911       1912       1923       1922  
      1791       1792       1803       1802       1912       1913       1924       1923  
      1792       1793       1804       1803       1913       1914       1925       1924  
      1794       1795       1806       1805       1915       1916       1927       1926  
      1795       1796       1807       1806       1916       1917       1928       1927  
      1796       1797       1808       1807       1917       1918       1929       1928  
      1797       1798       1809       1808       1918       1919       1930       1929  
      1798       1799       1810       1809       1919       1920       1931       1930  
      1799       1800       1811       1810       1920       1921       1932       1931  
      1800       1801       1812       1811       1921       1922       1933       1932  
      1801       1802       1813       1812       1922       1923       1934       1933  
      1802       1803       1814       1813       1923       1924       1935       1934  
      1803       1804       1815       1814       1924       1925       1936       1935  
      1816       1817       1828       1827       1937       1938       1949       1948  
      1817       1818       1829       1828       1938       1939       1950       1949  
      1818       1819       1830       1829       1939       1940       1951       1950  
      1819       1820       1831       1830       1940       1941       1952       1951  
      1820       1821       1832       1831       1941       1942       1953       1952  
      1821       1822       1833       1832       1942       1943       1954       1953  
      1822       1823       1834       1833       1943       1944       1955       1954  
      1823       1824       1835       1834       1944       1945       1956       1955  
      1824       1825       1836       1835       1945       1946       1957       1956  
      1825       1826       1837       1836       1946       1947       1958       1957  
      1827       1828       1839       1838       1948       1949       1960       1959  
      1828       1829       1840       1839       1949       1950       1961       1960  
      1829       1830       1841       1840       1950       1951       1962       1961  
      1830       1831       1842       1841       1951       1952       1963       1962  
      1831       1832       1843       1842       1952       1953       1964       1963  
      1832       1833       1844       1843       1953       1954       1965       1964  
      1833       1834       1845       1844       1954       1955       1966       1965  
      1834       1835       1846       1845       1955       1956       1967       1966  
      1835       1836       1847       1846       1956       1957       1968       1967  
      1836       1837       1848       1847       1957       1958       1969       1968  
      1838       1839       1850       1849       1959       1960       1971       1970  
      1839       1840       1851       1850       1960       1961       1972       1971  
      1840       1841       1852       1851       1961       1962       1973       1972  
      1841       1842       1853       1852       1962       1963       1974       1973  
      1842       1843       1854       1853       1963       1964       1975       1974  
      1843       1844       1855       1854       1964       1965       1976       1975  
      1844       1845       1856       1855       1965       1966       1977       1976  
      1845       1846       1857       1856       1966       1967       1978       1977  
      1846       1847       1858       1857       1967       1968       1979       1978  
      1847       1848       1859       1858       1968       1969       1980       1979  
      1849       1850       1861       1860       1970       1971       1982       1981  
      1850       1851       1862       1861       1971       1972       1983       1982  
      1851       1852       1863       1862       1972       1973       1984       1983  
      1852       1853       1864       1863       1973       1974       1985       1984  
      1853       1854       1865       1864       1974       1975       1986       1985  
      1854       1855       1866       1865       1975       1976       1987       1986  
      1855       1856       1867       1866       1976       1977       1988       1987  
      1856       1857       1868       1867       1977       1978       1989       1988  
      1857       1858       1869       1868       1978       1979       1990       1989  
      1858       1859       1870       1869       1979       1980       1991       1990  
      1860       1861       1872       1871       1981       1982       1993       1992  
      1861       1862       1873       1872       1982       1983       1994       1993  
      1862       1863       1874       1873       1983       1984       1995       1994  
      1863       1864       1875       1874       1984       1985       1996       1995  
      1864       1865       1876       1875       1985       1986       1997       1996  
      1865       1866       1877       1876       1986       1987       1998       1997  
      1866       1867       1878       1877       1987       1988       1999       1998  
      1867       1868       1879       1878       1988       1989       2000       1999  
      1868       1869       1880       1879       1989       1990       2001       2000  
      1869       1870       1881       1880       1990       1991       2002       2001  
      1871       1872       1883       1882       1992       1993       2004       2003  
      1872       1873       1884       1883       1993       1994       2005       2004  
      1873       1874       1885       1884       1994       1995       2006       2005  
      1874       1875       1886       1885       1995       1996       2007       2006  
      1875       1876       1887       1886       1996       1997       2008       2007  
      1876       1877       1888       1887       1997       1998       2009       2008  
      1877       1878       1889       1888       1998       1999       2010       2009  
      1878       1879       1890       1889       1999       2000       2011       2010  
      1879       1880       1891       1890       2000       2001       2012       2011  
      1880       1881       1892       1891       2001       2002       2013       2012  
      1882       1883       1894       1893       2003       2004       2015       2014  
      1883       1884       1895       1894       2004       2005       2016       2015  
      1884       1885       1896       1895       2005       2006       2017       2016  
      1885       1886       1897       1896       2006       2007       2018       2017  
      1886       1887       1898       1897       2007       2008       2019       2018  
      1887       1888       1899       1898       2008       2009       2020       2019  
      1888       1889       1900       1899       2009       2010       2021       2020  
      1889       1890       1901       1900       2010       2011       2022       2021  
      1890       1891       1902       1901       2011       2012       2023       2022  
      1891       1892       1903       1902       2012       2013       2024       2023  
      1893       1894       1905       1904       2014       2015       2026       2025  
      1894       1895       1906       1905       2015       2016       2027       2026  
      1895       1896       1907       1906       2016       2017       2028       2027  
      1896       1897       1908       1907       2017       2018       2029       2028  
      1897       1898       1909       1908       2018       2019       2030       2029  
      1898       1899       1910       1909       2019       2020       2031       2030  
      1899       1900       1911       1910       2020       2021       2032       2031  
      1900       1901       1912       1911       2021       2022       2033       2032  
      1901       1902       1913       1912       2022       2023       2034       2033  
      1902       1903       1914       1913       2023       2024       2035       2034  
      1904       1905       1916       1915       2025       2026       2037       2036  
      1905       1906       1917       1916       2026       2027       2038       2037  
      1906       1907       1918       1917       2027       2028       2039       2038  
      1907       1908       1919       1918       2028       2029       2040       2039  
      1908       1909       1920       1919       2029       2030       2041       2040  
      1909       1910       1921       1920       2030       2031       2042       2041  
      1910       1911       1922       1921       2031       2032       2043       2042  
      1911       1912       1923       1922       2032       2033       2044       2043  
      1912       1913       1924       1923       2033       2034       2045       2044  
      1913       1914       1925       1924       2034       2035       2046       2045  
      1915       1916       1927       1926       2036       2037       2048       2047  
      1916       1917       1928       1927       2037       2038       2049       2048  
      1917       1918       1929       1928       2038       2039       2050       2049  
      1918       1919       1930       1929       2039       2040       2051       2050  
      1919       1920       1931       1930       2040       2041       2052       2051  
      1920       1921       1932       1931       2041       2042       2053       2052  
      1921       1922       1933       1932       2042       2043       2054       2053  
      1922       1923       1934       1933       2043       2044       2055       2054  
      1923       1924       1935       1934       2044       2045       2056       2055  
      1924       1925       1936       1935       2045       2046       2057       2056  
      1937       1938       1949       1948       2058       2059       2070       2069  
      1938       1939       1950       1949       2059       2060       2071       2070  
      1939       1940       1951       1950       2060       2061       2072       2071  
      1940       1941       1952       1951       2061       2062       2073       2072  
      1941       1942       1953       1952       2062       2063       2074       2073  
      1942       1943       1954       1953       2063       2064       2075       2074  
      1943       1944       1955       1954       2064       2065       2076       2075  
      1944       1945       1956       1955       2065       2066       2077       2076  
      1945       1946       1957       1956       2066       2067       2078       2077  
      1946       1947       1958       1957       2067       2068       2079       2078  
      1948       1949       1960       1959       2069       2070       2081       2080  
      1949       1950       1961       1960       2070       2071       2082       2081  
      1950       1951       1962       1961       2071       2072       2083       2082  
      1951       1952       1963       1962       2072       2073       2084       2083  
      1952       1953       1964       1963       2073       2074       2085       2084  
      1953       1954       1965       1964       2074       2075       2086       2085  
      1954       1955       1966       1965       2075       2076       2087       2086  
      1955       1956       1967       1966       2076       2077       2088       2087  
      1956       1957       1968       1967       2077       2078       2089       2088  
      1957       1958       1969       1968       2078       2079       2090       2089  
      1959       1960       1971       1970       2080       2081       2092       2091  
      1960       1961       1972       1971       2081       2082       2093       2092  
      1961       1962       1973       1972       2082       2083       2094       2093  
      1962       1963       1974       1973       2083       2084       2095       2094  
      1963       1964       1975       1974       2084       2085       2096       2095  
      1964       1965       1976       1975       2085       2086       2097       2096  
      1965       1966       1977       1976       2086       2087       2098       2097  
      1966       1967       1978       1977       2087       2088       2099       2098  
      1967       1968       1979       1978       2088       2089       2100       2099  
      1968       1969       1980       1979       2089       2090       2101       2100  
      1970       1971       1982       1981       2091       2092       2103       2102  
      1971       1972       1983       1982       2092       2093       2104       2103  
      1972       1973       1984       1983       2093       2094       2105       2104  
      1973       1974       1985       1984       2094       2095       2106       2105  
      1974       1975       1986       1985       2095       2096       2107       2106  
      1975       1976       1987       1986       2096       2097       2108       2107  
      1976       1977       1988       1987       2097       2098       2109       2108  
      1977       1978       1989       1988       2098       2099       2110       2109  
      1978       1979       1990       1989       2099       2100       2111       2110  
      1979       1980       1991       1990       2100       2101       2112       2111  
      1981       1982       1993       1992       2102       2103       2114       2113  
      1982       1983       1994       1993       2103       2104       2115       2114  
      1983       1984       1995       1994       2104       2105       2116       2115  
      1984       1985       1996       1995       2105       2106       2117       2116  
      1985       1986       1997       1996       2106       2107       2118       2117  
      1986       1987       1998       1997       2107       2108       2119       2118  
      1987       1988       1999       1998       2108       2109       2120       2119  
      1988       1989       2000       1999       2109       2110       2121       2120  
      1989       1990       2001       2000       2110       2111       2122       2121  
      1990       1991       2002       2001       2111       2112       2123       2122  
      1992       1993       2004       2003       2113       2114       2125       2124  
      1993       1994       2005       2004       2114       2115       2126       2125  
      1994       1995       2006       2005       2115       2116       2127       2126  
      1995       1996       2007       2006       2116       2117       2128       2127  
      1996       1997       2008       2007       2117       2118       2129       2128  
      1997       1998       2009       2008       2118       2119       2130       2129  
      1998       1999       2010       2009       2119       2120       2131       2130  
      1999       2000       2011       2010       2120       2121       2132       2131  
      2000       2001       2012       2011       2121       2122       2133       2132  
      2001       2002       2013       2012       2122       2123       2134       2133  
      2003       2004       2015       2014       2124       2125       2136       2135  
      2004       2005       2016       2015       2125       2126       2137       2136  
      2005       2006       2017       2016       2126       2127       2138       2137  
      2006       2007       2018       2017       2127       2128       2139       2138  
      2007       2008       2019       2018       2128       2129       2140       2139  
      2008       2009       2020       2019       2129       2130       2141       2140  
      2009       2010       2021       2020       2130       2131       2142       2141  
      2010       2011       2022       2021       2131       2132       2143       2142  
      2011       2012       2023       2022       2132       2133       2144       2143  
      2012       2013       2024       2023       2133       2134       2145       2144  
      2014       2015       2026       2025       2135       2136       2147       2146  
      2015       2016       2027       2026       2136       2137       2148       2147  
      2016       2017       2028       2027       2137       2138       2149       2148  
      2017       2018       2029       2028       2138       2139       2150       2149  
      2018       2019       2030       2029       2139       2140       2151       2150  
      2019       2020       2031       2030       2140       2141       2152       2151  
      2020       2021       2032       2031       2141       2142       2153       2152  
      2021       2022       2033       2032       2142       2143       2154       2153  
      2022       2023       2034       2033       2143       2144       2155       2154  
      2023       2024       2035       2034       2144       2145       2156       2155  
      2025       2026       2037       2036       2146       2147       2158       2157  
      2026       2027       2038       2037       2147       2148       2159       2158  
      2027       2028       2039       2038       2148       2149       2160       2159  
      2028       2029       2040       2039       2149       2150       2161       2160  
      2029       2030       2041       2040       2150       2151       2162       2161  
      2030       2031       2042       2041       2151       2152       2163       2162  
      2031       2032       2043       2042       2152       2153       2164       2163  
      2032       2033       2044       2043       2153       2154       2165       2164  
      2033       2034       2045       2044       2154       2155       2166       2165  
      2034       2035       2046       2045       2155       2156       2167       2166  
      2036       2037       2048       2047       2157       2158       2169       2168  
      2037       2038       2049       2048       2158       2159       2170       2169  
      2038       2039       2050       2049       2159       2160       2171       2170  
      2039       2040       2051       2050       2160       2161       2172       2171  
      2040       2041       2052       2051       2161       2162       2173       2172  
      2041       2042       2053       2052       2162       2163       2174       2173  
      2042       2043       2054       2053       2163       2164       2175       2174  
      2043       2044       2055       2054       2164       2165       2176       2175  
      2044       2045       2056       2055       2165       2166       2177       2176  
      2045       2046       2057       2056       2166       2167       2178       2177  
      2058       2059       2070       2069       2179       2180       2191       2190  
      2059       2060       2071       2070       2180       2181       2192       2191  
      2060       2061       2072       2071       2181       2182       2193       2192  
      2061       2062       2073       2072       2182       2183       2194       2193  
      2062       2063       2074       2073       2183       2184       2195       2194  
      2063       2064       2075       2074       2184       2185       2196       2195  
      2064       2065       2076       2075       2185       2186       2197       2196  
      2065       2066       2077       2076       2186       2187       2198       2197  
      2066       2067       2078       2077       2187       2188       2199       2198  
      2067       2068       2079       2078       2188       2189       2200       2199  
      2069       2070       2081       2080       2190       2191       2202       2201  
      2070       2071       2082       2081       2191       2192       2203       2202  
      2071       2072       2083       2082       2192       2193       2204       2203  
      2072       2073       2084       2083       2193       2194       2205       2204  
      2073       2074       2085       2084       2194       2195       2206       2205  
      2074       2075       2086       2085       2195       2196       2207       2206  
      2075       2076       2087       2086       2196       2197       2208       2207  
      2076       2077       2088       2087       2197       2198       2209       2208  
      2077       2078       2089       2088       2198       2199       2210       2209  
      2078       2079       2090       2089       2199       2200       2211       2210  
      2080       2081       2092       2091       2201       2202       2213       2212  
      2081       2082       2093       2092       2202       2203       2214       2213  
      2082       2083       2094       2093       2203       2204       2215       2214  
      2083       2084       2095       2094       2204       2205       2216       2215  
      2084       2085       2096       2095       2205       2206       2217       2216  
      2085       2086       2097       2096       2206       2207       2218       2217  
      2086       2087       2098       2097       2207       2208       2219       2218  
      2087       2088       2099       2098       2208       2209       2220       2219  
      2088       2089       2100       2099       2209       2210       2221       2220  
      2089       2090       2101       2100       2210       2211       2222       2221  
      2091       2092       2103       2102       2212       2213       2224       2223  
      2092       2093       2104       2103       2213       2214       2225       2224  
      2093       2094       2105       2104       2214       2215       2226       2225  
      2094       2095       2106       2105       2215       2216       2227       2226  
      2095       2096       2107       2106       2216       2217       2228       2227  
      2096       2097       2108       2107       2217       2218       2229       2228  
      2097       2098       2109       2108       2218       2219       2230       2229  
      2098       2099       2110       2109       2219       2220       2231       2230  
      2099       2100       2111       2110       2220       2221       2232       2231  
      2100       2101       2112       2111       2221       2222       2233       2232  
      2102       2103       2114       2113       2223       2224       2235       2234  
      2103       2104       2115       2114       2224       2225       2236       2235  
      2104       2105       2116       2115       2225       2226       2237       2236  
      2105       2106       2117       2116       2226       2227       2238       2237  
      2106       2107       2118       2117       2227       2228       2239       2238  
      2107       2108       2119       2118       2228       2229       2240       2239  
      2108       2109       2120       2119       2229       2230       2241       2240  
      2109       2110       2121       2120       2230       2231       2242       2241  
      2110       2111       2122       2121       2231       2232       2243       2242  
      2111       2112       2123       2122       2232       2233       2244       2243  
      2113       2114       2125       2124       2234       2235       2246       2245  
      2114       2115       2126       2125       2235       2236       2247       2246  
      2115       2116       2127       2126       2236       2237       2248       2247  
      2116       2117       2128       2127       2237       2238       2249       2248  
      2117       2118       2129       2128       2238       2239       2250       2249  
      2118       2119       2130       2129       2239       2240       2251       2250  
      2119       2120       2131       2130       2240       2241       2252       2251  
      2120       2121       2132       2131       2241       2242       2253       2252  
      2121       2122       2133       2132       2242       2243       2254       2253  
      2122       2123       2134       2133       2243       2244       2255       2254  
      2124       2125       2136       2135       2245       2246       2257       2256  
      2125       2126       2137       2136       2246       2247       2258       2257  
      2126       2127       2138       2137       2247       2248       2259       2258  
      2127       2128       2139       2138       2248       2249       2260       2259  
      2128       2129       2140       2139       2249       2250       2261       2260  
      2129       2130       2141       2140       2250       2251       2262       2261  
      2130       2131       2142       2141       2251       2252       2263       2262  
      2131       2132       2143       2142       2252       2253       2264       2263  
      2132       2133       2144       2143       2253       2254       2265       2264  
      2133       2134       2145       2144       2254       2255       2266       2265  
      2135       2136       2147       2146       2256       2257       2268       2267  
      2136       2137       2148       2147       2257       2258       2269       2268  
      2137       2138       2149       2148       2258       2259       2270       2269  
      2138       2139       2150       2149       2259       2260       2271       2270  
      2139       2140       2151       2150       2260       2261       2272       2271  
      2140       2141       2152       2151       2261       2262       2273       2272  
      2141       2142       2153       2152       2262       2263       2274       2273  
      2142       2143       2154       2153       2263       2264       2275       2274  
      2143       2144       2155       2154       2264       2265       2276       2275  
      2144       2145       2156       2155       2265       2266       2277       2276  
      2146       2147       2158       2157       2267       2268       2279       2278  
      2147       2148       2159       2158       2268       2269       2280       2279  
      2148       2149       2160       2159       2269       2270       2281       2280  
      2149       2150       2161       2160       2270       2271       2282       2281  
      2150       2151       2162       2161       2271       2272       2283       2282  
      2151       2152       2163       2162       2272       2273       2284       2283  
      2152       2153       2164       2163       2273       2274       2285       2284  
      2153       2154       2165       2164       2274       2275       2286       2285  
      2154       2155       2166       2165       2275       2276       2287       2286  
      2155       2156       2167       2166       2276       2277       2288       2287  
      2157       2158       2169       2168       2278       2279       2290       2289  
      2158       2159       2170       2169       2279       2280       2291       2290  
      2159       2160       2171       2170       2280       2281       2292       2291  
      2160       2161       2172       2171       2281       2282       2293       2292  
      2161       2162       2173       2172       2282       2283       2294       2293  
      2162       2163       2174       2173       2283       2284       2295       2294  
      2163       2164       2175       2174       2284       2285       2296       2295  
      2164       2165       2176       2175       2285       2286       2297       2296  
      2165       2166       2177       2176       2286       2287       2298       2297  
      2166       2167       2178       2177       2287       2288       2299       2298  
      2179       2180       2191       2190       2300       2301       2312       2311  
      2180       2181       2192       2191       2301       2302       2313       2312  
      2181       2182       2193       2192       2302       2303       2314       2313  
      2182       2183       2194       2193       2303       2304       2315       2314  
      2183       2184       2195       2194       2304       2305       2316       2315  
      2184       2185       2196       2195       2305       2306       2317       2316  
      2185       2186       2197       2196       2306       2307       2318       2317  
      2186       2187       2198       2197       2307       2308       2319       2318  
      2187       2188       2199       2198       2308       2309       2320       2319  
      2188       2189       2200       2199       2309       2310       2321       2320  
      2190       2191       2202       2201       2311       2312       2323       2322  
      2191       2192       2203       2202       2312       2313       2324       2323  
      2192       2193       2204       2203       2313       2314       2325       2324  
      2193       2194       2205       2204       2314       2315       2326       2325  
      2194       2195       2206       2205       2315       2316       2327       2326  
      2195       2196       2207       2206       2316       2317       2328       2327  
      2196       2197       2208       2207       2317       2318       2329       2328  
      2197       2198       2209       2208       2318       2319       2330       2329  
      2198       2199       2210       2209       2319       2320       2331       2330  
      2199       2200       2211       2210       2320       2321       2332       2331  
      2201       2202       2213       2212       2322       2323       2334       2333  
      2202       2203       2214       2213       2323       2324       2335       2334  
      2203       2204       2215       2214       2324       2325       2336       2335  
      2204       2205       2216       2215       2325       2326       2337       2336  
      2205       2206       2217       2216       2326       2327       2338       2337  
      2206       2207       2218       2217       2327       2328       2339       2338  
      2207       2208       2219       2218       2328       2329       2340       2339  
      2208       2209       2220       2219       2329       2330       2341       2340  
      2209       2210       2221       2220       2330       2331       2342       2341  
      2210       2211       2222       2221       2331       2332       2343       2342  
      2212       2213       2224       2223       2333       2334       2345       2344  
      2213       2214       2225       2224       2334       2335       2346       2345  
      2214       2215       2226       2225       2335       2336       2347       2346  
      2215       2216       2227       2226       2336       2337       2348       2347  
      2216       2217       2228       2227       2337       2338       2349       2348  
      2217       2218       2229       2228       2338       2339       2350       2349  
      2218       2219       2230       2229       2339       2340       2351       2350  
      2219       2220       2231       2230       2340       2341       2352       2351  
      2220       2221       2232       2231       2341       2342       2353       2352  
      2221       2222       2233       2232       2342       2343       2354       2353  
      2223       2224       2235       2234       2344       2345       2356       2355  
      2224       2225       2236       2235       2345       2346       2357       2356  
      2225       2226       2237       2236       2346       2347       2358       2357  
      2226       2227       2238       2237       2347       2348       2359       2358  
      2227       2228       2239       2238       2348       2349       2360       2359  
      2228       2229       2240       2239       2349       2350       2361       2360  
      2229       2230       2241       2240       2350       2351       2362       2361  
      2230       2231       2242       2241       2351       2352       2363       2362  
      2231       2232       2243       2242       2352       2353       2364       2363  
      2232       2233       2244       2243       2353       2354       2365       2364  
      2234       2235       2246       2245       2355       2356       2367       2366  
      2235       2236       2247       2246       2356       2357       2368       2367  
      2236       2237       2248       2247       2357       2358       2369       2368  
      2237       2238       2249       2248       2358       2359       2370       2369  
      2238       2239       2250       2249       2359       2360       2371       2370  
      2239       2240       2251       2250       2360       2361       2372       2371  
      2240       2241       2252       2251       2361       2362       2373       2372  
      2241       2242       2253       2252       2362       2363       2374       2373  
      2242       2243       2254       2253       2363       2364       2375       2374  
      2243       2244       2255       2254       2364       2365       2376       2375  
      2245       2246       2257       2256       2366       2367       2378       2377  
      2246       2247       2258       2257       2367       2368       2379       2378  
      2247       2248       2259       2258       2368       2369       2380       2379  
      2248       2249       2260       2259       2369       2370       2381       2380  
      2249       2250       2261       2260       2370       2371       2382       2381  
      2250       2251       2262       2261       2371       2372       2383       2382  
      2251       2252       2263       2262       2372       2373       2384       2383  
      2252       2253       2264       2263       2373       2374       2385       2384  
      2253       2254       2265       2264       2374       2375       2386       2385  
      2254       2255       2266       2265       2375       2376       2387       2386  
      2256       2257       2268       2267       2377       2378       2389       2388  
      2257       2258       2269       2268       2378       2379       2390       2389  
      2258       2259       2270       2269       2379       2380       2391       2390  
      2259       2260       2271       2270       2380       2381       2392       2391  
      2260       2261       2272       2271       2381       2382       2393       2392  
      2261       2262       2273       2272       2382       2383       2394       2393  
      2262       2263       2274       2273       2383       2384       2395       2394  
      2263       2264       2275       2274       2384       2385       2396       2395  
      2264       2265       2276       2275       2385       2386       2397       2396  
      2265       2266       2277       2276       2386       2387       2398       2397  
      2267       2268       2279       2278       2388       2389       2400       2399  
      2268       2269       2280       2279       2389       2390       2401       2400  
      2269       2270       2281       2280       2390       2391       2402       2401  
      2270       2271       2282       2281       2391       2392       2403       2402  
      2271       2272       2283       2282       2392       2393       2404       2403  
      2272       2273       2284       2283       2393       2394       2405       2404  
      2273       2274       2285       2284       2394       2395       2406       2405  
      2274       2275       2286       2285       2395       2396       2407       2406  
      2275       2276       2287       2286       2396       2397       2408       2407  
      2276       2277       2288       2287       2397       2398       2409       2408  
      2278       2279       2290       2289       2399       2400       2411       2410  
      2279       2280       2291       2290       2400       2401       2412       2411  
      2280       2281       2292       2291       2401       2402       2413       2412  
      2281       2282       2293       2292       2402       2403       2414       2413  
      2282       2283       2294       2293       2403       2404       2415       2414  
      2283       2284       2295       2294       2404       2405       2416       2415  
      2284       2285       2296       2295       2405       2406       2417       2416  
      2285       2286       2297       2296       2406       2407       2418       2417  
      2286       2287       2298       2297       2407       2408       2419       2418  
      2287       2288       2299       2298       2408       2409       2420       2419  
      2300       2301       2312       2311       2421       2422       2433       2432  
      2301       2302       2313       2312       2422       2423       2434       2433  
      2302       2303       2314       2313       2423       2424       2435       2434  
      2303       2304       2315       2314       2424       2425       2436       2435  
      2304       2305       2316       2315       2425       2426       2437       2436  
      2305       2306       2317       2316       2426       2427       2438       2437  
      2306       2307       2318       2317       2427       2428       2439       2438  
      2307       2308       2319       2318       2428       2429       2440       2439  
      2308       2309       2320       2319       2429       2430       2441       2440  
      2309       2310       2321       2320       2430       2431       2442       2441  
      2311       2312       2323       2322       2432       2433       2444       2443  
      2312       2313       2324       2323       2433       2434       2445       2444  
      2313       2314       2325       2324       2434       2435       2446       2445  
      2314       2315       2326       2325       2435       2436       2447       2446  
      2315       2316       2327       2326       2436       2437       2448       2447  
      2316       2317       2328       2327       2437       2438       2449       2448  
      2317       2318       2329       2328       2438       2439       2450       2449  
      2318       2319       2330       2329       2439       2440       2451       2450  
      2319       2320       2331       2330       2440       2441       2452       2451  
      2320       2321       2332       2331       2441       2442       2453       2452  
      2322       2323       2334       2333       2443       2444       2455       2454  
      2323       2324       2335       2334       2444       2445       2456       2455  
      2324       2325       2336       2335       2445       2446       2457       2456  
      2325       2326       2337       2336       2446       2447       2458       2457  
      2326       2327       2338       2337       2447       2448       2459       2458  
      2327       2328       2339       2338       2448       2449       2460       2459  
      2328       2329       2340       2339       2449       2450       2461       2460  
      2329       2330       2341       2340       2450       2451       2462       2461  
      2330       2331       2342       2341       2451       2452       2463       2462  
      2331       2332       2343       2342       2452       2453       2464       2463  
      2333       2334       2345       2344       2454       2455       2466       2465  
      2334       2335       2346       2345       2455       2456       2467       2466  
      2335       2336       2347       2346       2456       2457       2468       2467  
      2336       2337       2348       2347       2457       2458       2469       2468  
      2337       2338       2349       2348       2458       2459       2470       2469  
      2338       2339       2350       2349       2459       2460       2471       2470  
      2339       2340       2351       2350       2460       2461       2472       2471  
      2340       2341       2352       2351       2461       2462       2473       2472  
      2341       2342       2353       2352       2462       2463       2474       2473  
      2342       2343       2354       2353       2463       2464       2475       2474  
      2344       2345       2356       2355       2465       2466       2477       2476  
      2345       2346       2357       2356       2466       2467       2478       2477  
      2346       2347       2358       2357       2467       2468       2479       2478  
      2347       2348       2359       2358       2468       2469       2480       2479  
      2348       2349       2360       2359       2469       2470       2481       2480  
      2349       2350       2361       2360       2470       2471       2482       2481  
      2350       2351       2362       2361       2471       2472       2483       2482  
      2351       2352       2363       2362       2472       2473       2484       2483  
      2352       2353       2364       2363       2473       2474       2485       2484  
      2353       2354       2365       2364       2474       2475       2486       2485  
      2355       2356       2367       2366       2476       2477       2488       2487  
      2356       2357       2368       2367       2477       2478       2489       2488  
      2357       2358       2369       2368       2478       2479       2490       2489  
      2358       2359       2370       2369       2479       2480       2491       2490  
      2359       2360       2371       2370       2480       2481       2492       2491  
      2360       2361       2372       2371       2481       2482       2493       2492  
      2361       2362       2373       2372       2482       2483       2494       2493  
      2362       2363       2374       2373       2483       2484       2495       2494  
      2363       2364       2375       2374       2484       2485       2496       2495  
      2364       2365       2376       2375       2485       2486       2497       2496  
      2366       2367       2378       2377       2487       2488       2499       2498  
      2367       2368       2379       2378       2488       2489       2500       2499  
      2368       2369       2380       2379       2489       2490       2501       2500  
      2369       2370       2381       2380       2490       2491       2502       2501  
      2370       2371       2382       2381       2491       2492       2503       2502  
      2371       2372       2383       2382       2492       2493       2504       2503  
      2372       2373       2384       2383       2493       2494       2505       2504  
      2373       2374       2385       2384       2494       2495       2506       2505  
      2374       2375       2386       2385       2495       2496       2507       2506  
      2375       2376       2387       2386       2496       2497       2508       2507  
      2377       2378       2389       2388       2498       2499       2510       2509  
      2378       2379       2390       2389       2499       2500       2511       2510  
      2379       2380       2391       2390       2500       2501       2512       2511  
      2380       2381       2392       2391       2501       2502       2513       2512  
      2381       2382       2393       2392       2502       2503       2514       2513  
      2382       2383       2394       2393       2503       2504       2515       2514  
      2383       2384       2395       2394       2504       2505       2516       2515  
      2384       2385       2396       2395       2505       2506       2517       2516  
      2385       2386       2397       2396       2506       2507       2518       2517  
      2386       2387       2398       2397       2507       2508       2519       2518  
      2388       2389       2400       2399       2509       2510       2521       2520  
      2389       2390       2401       2400       2510       2511       2522       2521  
      2390       2391       2402       2401       2511       2512       2523       2522  
      2391       2392       2403       2402       2512       2513       2524       2523  
      2392       2393       2404       2403       2513       2514       2525       2524  
      2393       2394       2405       2404       2514       2515       2526       2525  
      2394       2395       2406       2405       2515       2516       2527       2526  
      2395       2396       2407       2406       2516       2517       2528       2527  
      2396       2397       2408       2407       2517       2518       2529       2528  
      2397       2398       2409       2408       2518       2519       2530       2529  
      2399       2400       2411       2410       2520       2521       2532       2531  
      2400       2401       2412       2411       2521       2522       2533       2532  
      2401       2402       2413       2412       2522       2523       2534       2533  
      2402       2403       2414       2413       2523       2524       2535       2534  
      2403       2404       2415       2414       2524       2525       2536       2535  
      2404       2405       2416       2415       2525       2526       2537       2536  
      2405       2406       2417       2416       2526       2527       2538       2537  
      2406       2407       2418       2417       2527       2528       2539       2538  
      2407       2408       2419       2418       2528       2529       2540       2539  
      2408       2409       2420       2419       2529       2530       2541       2540  
      2421       2422       2433       2432       2542       2543       2554       2553  
      2422       2423       2434       2433       2543       2544       2555       2554  
      2423       2424       2435       2434       2544       2545       2556       2555  
      2424       2425       2436       2435       2545       2546       2557       2556  
      2425       2426       2437       2436       2546       2547       2558       2557  
      2426       2427       2438       2437       2547       2548       2559       2558  
      2427       2428       2439       2438       2548       2549       2560       2559  
      2428       2429       2440       2439       2549       2550       2561       2560  
      2429       2430       2441       2440       2550       2551       2562       2561  
      2430       2431       2442       2441       2551       2552       2563       2562  
      2432       2433       2444       2443       2553       2554       2565       2564  
      2433       2434       2445       2444       2554       2555       2566       2565  
      2434       2435       2446       2445       2555       2556       2567       2566  
      2435       2436       2447       2446       2556       2557       2568       2567  
      2436       2437       2448       2447       2557       2558       2569       2568  
      2437       2438       2449       2448       2558       2559       2570       2569  
      2438       2439       2450       2449       2559       2560       2571       2570  
      2439       2440       2451       2450       2560       2561       2572       2571  
      2440       2441       2452       2451       2561       2562       2573       2572  
      2441       2442       2453       2452       2562       2563       2574       2573  
      2443       2444       2455       2454       2564       2565       2576       2575  
      2444       2445       2456       2455       2565       2566       2577       2576  
      2445       2446       2457       2456       2566       2567       2578       2577  
      2446       2447       2458       2457       2567       2568       2579       2578  
      2447       2448       2459       2458       2568       2569       2580       2579  
      2448       2449       2460       2459       2569       2570       2581       2580  
      2449       2450       2461       2460       2570       2571       2582       2581  
      2450       2451       2462       2461       2571       2572       2583       2582  
      2451       2452       2463       2462       2572       2573       2584       2583  
      2452       2453       2464       2463       2573       2574       2585       2584  
      2454       2455       2466       2465       2575       2576       2587       2586  
      2455       2456       2467       2466       2576       2577       2588       2587  
      2456       2457       2468       2467       2577       2578       2589       2588  
      2457       2458       2469       2468       2578       2579       2590       2589  
      2458       2459       2470       2469       2579       2580       2591       2590  
      2459       2460       2471       2470       2580       2581       2592       2591  
      2460       2461       2472       2471       2581       2582       2593       2592  
      2461       2462       2473       2472       2582       2583       2594       2593  
      2462       2463       2474       2473       2583       2584       2595       2594  
      2463       2464       2475       2474       2584       2585       2596       2595  
      2465       2466       2477       2476       2586       2587       2598       2597  
      2466       2467       2478       2477       2587       2588       2599       2598  
      2467       2468       2479       2478       2588       2589       2600       2599  
      2468       2469       2480       2479       2589       2590       2601       2600  
      2469       2470       2481       2480       2590       2591       2602       2601  
      2470       2471       2482       2481       2591       2592       2603       2602  
      2471       2472       2483       2482       2592       2593       2604       2603  
      2472       2473       2484       2483       2593       2594       2605       2604  
      2473       2474       2485       2484       2594       2595       2606       2605  
      2474       2475       2486       2485       2595       2596       2607       2606  
      2476       2477       2488       2487       2597       2598       2609       2608  
      2477       2478       2489       2488       2598       2599       2610       2609  
      2478       2479       2490       2489       2599       2600       2611       2610  
      2479       2480       2491       2490       2600       2601       2612       2611  
      2480       2481       2492       2491       2601       2602       2613       2612  
      2481       2482       2493       2492       2602       2603       2614       2613  
      2482       2483       2494       2493       2603       2604       2615       2614  
      2483       2484       2495       2494       2604       2605       2616       2615  
      2484       2485       2496       2495       2605       2606       2617       2616  
      2485       2486       2497       2496       2606       2607       2618       2617  
      2487       2488       2499       2498       2608       2609       2620       2619  
      2488       2489       2500       2499       2609       2610       2621       2620  
      2489       2490       2501       2500       2610       2611       2622       2621  
      2490       2491       2502       2501       2611       2612       2623       2622  
      2491       2492       2503       2502       2612       2613       2624       2623  
      2492       2493       2504       2503       2613       2614       2625       2624  
      2493       2494       2505       2504       2614       2615       2626       2625  
      2494       2495       2506       2505       2615       2616       2627       2626  
      2495       2496       2507       2506       2616       2617       2628       2627  
      2496       2497       2508       2507       2617       2618       2629       2628  
      2498       2499       2510       2509       2619       2620       2631       2630  
      2499       2500       2511       2510       2620       2621       2632       2631  
      2500       2501       2512       2511       2621       2622       2633       2632  
      2501       2502       2513       2512       2622       2623       2634       2633  
      2502       2503       2514       2513       2623       2624       2635       2634  
      2503       2504       2515       2514       2624       2625       2636       2635  
      2504       2505       2516       2515       2625       2626       2637       2636  
      2505       2506       2517       2516       2626       2627       2638       2637  
      2506       2507       2518       2517       2627       2628       2639       2638  
      2507       2508       2519       2518       2628       2629       2640       2639  
      2509       2510       2521       2520       2630       2631       2642       2641  
      2510       2511       2522       2521       2631       2632       2643       2642  
      2511       2512       2523       2522       2632       2633       2644       2643  
      2512       2513       2524       2523       2633       2634       2645       2644  
      2513       2514       2525       2524       2634       2635       2646       2645  
      2514       2515       2526       2525       2635       2636       2647       2646  
      2515       2516       2527       2526       2636       2637       2648       2647  
      2516       2517       2528       2527       2637       2638       2649       2648  
      2517       2518       2529       2528       2638       2639       2650       2649  
      2518       2519       2530       2529       2639       2640       2651       2650  
      2520       2521       2532       2531       2641       2642       2653       2652  
      2521       2522       2533       2532       2642       2643       2654       2653  
      2522       2523       2534       2533       2643       2644       2655       2654  
      2523       2524       2535       2534       2644       2645       2656       2655  
      2524       2525       2536       2535       2645       2646       2657       2656  
      2525       2526       2537       2536       2646       2647       2658       2657  
      2526       2527       2538       2537       2647       2648       2659       2658  
      2527       2528       2539       2538       2648       2649       2660       2659  
      2528       2529       2540       2539       2649       2650       2661       2660  
      2529       2530       2541       2540       2650       2651       2662       2661  
      2542       2543       2554       2553       2663       2664       2675       2674  
      2543       2544       2555       2554       2664       2665       2676       2675  
      2544       2545       2556       2555       2665       2666       2677       2676  
      2545       2546       2557       2556       2666       2667       2678       2677  
      2546       2547       2558       2557       2667       2668       2679       2678  
      2547       2548       2559       2558       2668       2669       2680       2679  
      2548       2549       2560       2559       2669       2670       2681       2680  
      2549       2550       2561       2560       2670       2671       2682       2681  
      2550       2551       2562       2561       2671       2672       2683       2682  
      2551       2552       2563       2562       2672       2673       2684       2683  
      2553       2554       2565       2564       2674       2675       2686       2685  
      2554       2555       2566       2565       2675       2676       2687       2686  
      2555       2556       2567       2566       2676       2677       2688       2687  
      2556       2557       2568       2567       2677       2678       2689       2688  
      2557       2558       2569       2568       2678       2679       2690       2689  
      2558       2559       2570       2569       2679       2680       2691       2690  
      2559       2560       2571       2570       2680       2681       2692       2691  
      2560       2561       2572       2571       2681       2682       2693       2692  
      2561       2562       2573       2572       2682       2683       2694       2693  
      2562       2563       2574       2573       2683       2684       2695       2694  
      2564       2565       2576       2575       2685       2686       2697       2696  
      2565       2566       2577       2576       2686       2687       2698       2697  
      2566       2567       2578       2577       2687       2688       2699       2698  
      2567       2568       2579       2578       2688       2689       2700       2699  
      2568       2569       2580       2579       2689       2690       2701       2700  
      2569       2570       2581       2580       2690       2691       2702       2701  
      2570       2571       2582       2581       2691       2692       2703       2702  
      2571       2572       2583       2582       2692       2693       2704       2703  
      2572       2573       2584       2583       2693       2694       2705       2704  
      2573       2574       2585       2584       2694       2695       2706       2705  
      2575       2576       2587       2586       2696       2697       2708       2707  
      2576       2577       2588       2587       2697       2698       2709       2708  
      2577       2578       2589       2588       2698       2699       2710       2709  
      2578       2579       2590       2589       2699       2700       2711       2710  
      2579       2580       2591       2590       2700       2701       2712       2711  
      2580       2581       2592       2591       2701       2702       2713       2712  
      2581       2582       2593       2592       2702       2703       2714       2713  
      2582       2583       2594       2593       2703       2704       2715       2714  
      2583       2584       2595       2594       2704       2705       2716       2715  
      2584       2585       2596       2595       2705       2706       2717       2716  
      2586       2587       2598       2597       2707       2708       2719       2718  
      2587       2588       2599       2598       2708       2709       2720       2719  
      2588       2589       2600       2599       2709       2710       2721       2720  
      2589       2590       2601       2600       2710       2711       2722       2721  
      2590       2591       2602       2601       2711       2712       2723       2722  
      2591       2592       2603       2602       2712       2713       2724       2723  
      2592       2593       2604       2603       2713       2714       2725       2724  
      2593       2594       2605       2604       2714       2715       2726       2725  
      2594       2595       2606       2605       2715       2716       2727       2726  
      2595       2596       2607       2606       2716       2717       2728       2727  
      2597       2598       2609       2608       2718       2719       2730       2729  
      2598       2599       2610       2609       2719       2720       2731       2730  
      2599       2600       2611       2610       2720       2721       2732       2731  
      2600       2601       2612       2611       2721       2722       2733       2732  
      2601       2602       2613       2612       2722       2723       2734       2733  
      2602       2603       2614       2613       2723       2724       2735       2734  
      2603       2604       2615       2614       2724       2725       2736       2735  
      2604       2605       2616       2615       2725       2726       2737       2736  
      2605       2606       2617       2616       2726       2727       2738       2737  
      2606       2607       2618       2617       2727       2728       2739       2738  
      2608       2609       2620       2619       2729       2730       2741       2740  
      2609       2610       2621       2620       2730       2731       2742       2741  
      2610       2611       2622       2621       2731       2732       2743       2742  
      2611       2612       2623       2622       2732       2733       2744       2743  
      2612       2613       2624       2623       2733       2734       2745       2744  
      2613       2614       2625       2624       2734       2735       2746       2745  
      2614       2615       2626       2625       2735       2736       2747       2746  
      2615       2616       2627       2626       2736       2737       2748       2747  
      2616       2617       2628       2627       2737       2738       2749       2748  
      2617       2618       2629       2628       2738       2739       2750       2749  
      2619       2620       2631       2630       2740       2741       2752       2751  
      2620       2621       2632       2631       2741       2742       2753       2752  
      2621       2622       2633       2632       2742       2743       2754       2753  
      2622       2623       2634       2633       2743       2744       2755       2754  
      2623       2624       2635       2634       2744       2745       2756       2755  
      2624       2625       2636       2635       2745       2746       2757       2756  
      2625       2626       2637       2636       2746       2747       2758       2757  
      2626       2627       2638       2637       2747       2748       2759       2758  
      2627       2628       2639       2638       2748       2749       2760       2759  
      2628       2629       2640       2639       2749       2750       2761       2760  
      2630       2631       2642       2641       2751       2752       2763       2762  
      2631       2632       2643       2642       2752       2753       2764       2763  
      2632       2633       2644       2643       2753       2754       2765       2764  
      2633       2634       2645       2644       2754       2755       2766       2765  
      2634       2635       2646       2645       2755       2756       2767       2766  
      2635       2636       2647       2646       2756       2757       2768       2767  
      2636       2637       2648       2647       2757       2758       2769       2768  
      2637       2638       2649       2648       2758       2759       2770       2769  
      2638       2639       2650       2649       2759       2760       2771       2770  
      2639       2640       2651       2650       2760       2761       2772       2771  
      2641       2642       2653       2652       2762       2763       2774       2773  
      2642       2643       2654       2653       2763       2764       2775       2774  
      2643       2644       2655       2654       2764       2765       2776       2775  
      2644       2645       2656       2655       2765       2766       2777       2776  
      2645       2646       2657       2656       2766       2767       2778       2777  
      2646       2647       2658       2657       2767       2768       2779       2778  
      2647       2648       2659       2658       2768       2769       2780       2779  
      2648       2649       2660       2659       2769       2770       2781       2780  
      2649       2650       2661       2660       2770       2771       2782       2781  
      2650       2651       2662       2661       2771       2772       2783       2782  
      2663       2664       2675       2674       2784       2785       2796       2795  
      2664       2665       2676       2675       2785       2786       2797       2796  
      2665       2666       2677       2676       2786       2787       2798       2797  
      2666       2667       2678       2677       2787       2788       2799       2798  
      2667       2668       2679       2678       2788       2789       2800       2799  
      2668       2669       2680       2679       2789       2790       2801       2800  
      2669       2670       2681       2680       2790       2791       2802       2801  
      2670       2671       2682       2681       2791       2792       2803       2802  
      2671       2672       2683       2682       2792       2793       2804       2803  
      2672       2673       2684       2683       2793       2794       2805       2804  
      2674       2675       2686       2685       2795       2796       2807       2806  
      2675       2676       2687       2686       2796       2797       2808       2807  
      2676       2677       2688       2687       2797       2798       2809       2808  
      2677       2678       2689       2688       2798       2799       2810       2809  
      2678       2679       2690       2689       2799       2800       2811       2810  
      2679       2680       2691       2690       2800       2801       2812       2811  
      2680       2681       2692       2691       2801       2802       2813       2812  
      2681       2682       2693       2692       2802       2803       2814       2813  
      2682       2683       2694       2693       2803       2804       2815       2814  
      2683       2684       2695       2694       2804       2805       2816       2815  
      2685       2686       2697       2696       2806       2807       2818       2817  
      2686       2687       2698       2697       2807       2808       2819       2818  
      2687       2688       2699       2698       2808       2809       2820       2819  
      2688       2689       2700       2699       2809       2810       2821       2820  
      2689       2690       2701       2700       2810       2811       2822       2821  
      2690       2691       2702       2701       2811       2812       2823       2822  
      2691       2692       2703       2702       2812       2813       2824       2823  
      2692       2693       2704       2703       2813       2814       2825       2824  
      2693       2694       2705       2704       2814       2815       2826       2825  
      2694       2695       2706       2705       2815       2816       2827       2826  
      2696       2697       2708       2707       2817       2818       2829       2828  
      2697       2698       2709       2708       2818       2819       2830       2829  
      2698       2699       2710       2709       2819       2820       2831       2830  
      2699       2700       2711       2710       2820       2821       2832       2831  
      2700       2701       2712       2711       2821       2822       2833       2832  
      2701       2702       2713       2712       2822       2823       2834       2833  
      2702       2703       2714       2713       2823       2824       2835       2834  
      2703       2704       2715       2714       2824       2825       2836       2835  
      2704       2705       2716       2715       2825       2826       2837       2836  
      2705       2706       2717       2716       2826       2827       2838       2837  
      2707       2708       2719       2718       2828       2829       2840       2839  
      2708       2709       2720       2719       2829       2830       2841       2840  
      2709       2710       2721       2720       2830       2831       2842       2841  
      2710       2711       2722       2721       2831       2832       2843       2842  
      2711       2712       2723       2722       2832       2833       2844       2843  
      2712       2713       2724       2723       2833       2834       2845       2844  
      2713       2714       2725       2724       2834       2835       2846       2845  
      2714       2715       2726       2725       2835       2836       2847       2846  
      2715       2716       2727       2726       2836       2837       2848       2847  
      2716       2717       2728       2727       2837       2838       2849       2848  
      2718       2719       2730       2729       2839       2840       2851       2850  
      2719       2720       2731       2730       2840       2841       2852       2851  
      2720       2721       2732       2731       2841       2842       2853       2852  
      2721       2722       2733       2732       2842       2843       2854       2853  
      2722       2723       2734       2733       2843       2844       2855       2854  
      2723       2724       2735       2734       2844       2845       2856       2855  
      2724       2725       2736       2735       2845       2846       2857       2856  
      2725       2726       2737       2736       2846       2847       2858       2857  
      2726       2727       2738       2737       2847       2848       2859       2858  
      2727       2728       2739       2738       2848       2849       2860       2859  
      2729       2730       2741       2740       2850       2851       2862       2861  
      2730       2731       2742       2741       2851       2852       2863       2862  
      2731       2732       2743       2742       2852       2853       2864       2863  
      2732       2733       2744       2743       2853       2854       2865       2864  
      2733       2734       2745       2744       2854       2855       2866       2865  
      2734       2735       2746       2745       2855       2856       2867       2866  
      2735       2736       2747       2746       2856       2857       2868       2867  
      2736       2737       2748       2747       2857       2858       2869       2868  
      2737       2738       2749       2748       2858       2859       2870       2869  
      2738       2739       2750       2749       2859       2860       2871       2870  
      2740       2741       2752       2751       2861       2862       2873       2872  
      2741       2742       2753       2752       2862       2863       2874       2873  
      2742       2743       2754       2753       2863       2864       2875       2874  
      2743       2744       2755       2754       2864       2865       2876       2875  
      2744       2745       2756       2755       2865       2866       2877       2876  
      2745       2746       2757       2756       2866       2867       2878       2877  
      2746       2747       2758       2757       2867       2868       2879       2878  
      2747       2748       2759       2758       2868       2869       2880       2879  
      2748       2749       2760       2759       2869       2870       2881       2880  
      2749       2750       2761       2760       2870       2871       2882       2881  
      2751       2752       2763       2762       2872       2873       2884       2883  
      2752       2753       2764       2763       2873       2874       2885       2884  
      2753       2754       2765       2764       2874       2875       2886       2885  
      2754       2755       2766       2765       2875       2876       2887       2886  
      2755       2756       2767       2766       2876       2877       2888       2887  
      2756       2757       2768       2767       2877       2878       2889       2888  
      2757       2758       2769       2768       2878       2879       2890       2889  
      2758       2759       2770       2769       2879       2880       2891       2890  
      2759       2760       2771       2770       2880       2881       2892       2891  
      2760       2761       2772       2771       2881       2882       2893       2892  
      2762       2763       2774       2773       2883       2884       2895       2894  
      2763       2764       2775       2774       2884       2885       2896       2895  
      2764       2765       2776       2775       2885       2886       2897       2896  
      2765       2766       2777       2776       2886       2887       2898       2897  
      2766       2767       2778       2777       2887       2888       2899       2898  
      2767       2768       2779       2778       2888       2889       2900       2899  
      2768       2769       2780       2779       2889       2890       2901       2900  
      2769       2770       2781       2780       2890       2891       2902       2901  
      2770       2771       2782       2781       2891       2892       2903       2902  
      2771       2772       2783       2782       2892       2893       2904       2903  
      2784       2785       2796       2795       2905       2906       2917       2916  
      2785       2786       2797       2796       2906       2907       2918       2917  
      2786       2787       2798       2797       2907       2908       2919       2918  
      2787       2788       2799       2798       2908       2909       2920       2919  
      2788       2789       2800       2799       2909       2910       2921       2920  
      2789       2790       2801       2800       2910       2911       2922       2921  
      2790       2791       2802       2801       2911       2912       2923       2922  
      2791       2792       2803       2802       2912       2913       2924       2923  
      2792       2793       2804       2803       2913       2914       2925       2924  
      2793       2794       2805       2804       2914       2915       2926       2925  
      2795       2796       2807       2806       2916       2917       2928       2927  
      2796       2797       2808       2807       2917       2918       2929       2928  
      2797       2798       2809       2808       2918       2919       2930       2929  
      2798       2799       2810       2809       2919       2920       2931       2930  
      2799       2800       2811       2810       2920       2921       2932       2931  
      2800       2801       2812       2811       2921       2922       2933       2932  
      2801       2802       2813       2812       2922       2923       2934       2933  
      2802       2803       2814       2813       2923       2924       2935       2934  
      2803       2804       2815       2814       2924       2925       2936       2935  
      2804       2805       2816       2815       2925       2926       2937       2936  
      2806       2807       2818       2817       2927       2928       2939       2938  
      2807       2808       2819       2818       2928       2929       2940       2939  
      2808       2809       2820       2819       2929       2930       2941       2940  
      2809       2810       2821       2820       2930       2931       2942       2941  
      2810       2811       2822       2821       2931       2932       2943       2942  
      2811       2812       2823       2822       2932       2933       2944       2943  
      2812       2813       2824       2823       2933       2934       2945       2944  
      2813       2814       2825       2824       2934       2935       2946       2945  
      2814       2815       2826       2825       2935       2936       2947       2946  
      2815       2816       2827       2826       2936       2937       2948       2947  
      2817       2818       2829       2828       2938       2939       2950       2949  
      2818       2819       2830       2829       2939       2940       2951       2950  
      2819       2820       2831       2830       2940       2941       2952       2951  
      2820       2821       2832       2831       2941       2942       2953       2952  
      2821       2822       2833       2832       2942       2943       2954       2953  
      2822       2823       2834       2833       2943       2944       2955       2954  
      2823       2824       2835       2834       2944       2945       2956       2955  
      2824       2825       2836       2835       2945       2946       2957       2956  
      2825       2826       2837       2836       2946       2947       2958       2957  
      2826       2827       2838       2837       2947       2948       2959       2958  
      2828       2829       2840       2839       2949       2950       2961       2960  
      2829       2830       2841       2840       2950       2951       2962       2961  
      2830       2831       2842       2841       2951       2952       2963       2962  
      2831       2832       2843       2842       2952       2953       2964       2963  
      2832       2833       2844       2843       2953       2954       2965       2964  
      2833       2834       2845       2844       2954       2955       2966       2965  
      2834       2835       2846       2845       2955       2956       2967       2966  
      2835       2836       2847       2846       2956       2957       2968       2967  
      2836       2837       2848       2847       2957       2958       2969       2968  
      2837       2838       2849       2848       2958       2959       2970       2969  
      2839       2840       2851       2850       2960       2961       2972       2971  
      2840       2841       2852       2851       2961       2962       2973       2972  
      2841       2842       2853       2852       2962       2963       2974       2973  
      2842       2843       2854       2853       2963       2964       2975       2974  
      2843       2844       2855       2854       2964       2965       2976       2975  
      2844       2845       2856       2855       2965       2966       2977       2976  
      2845       2846       2857       2856       2966       2967       2978       2977  
      2846       2847       2858       2857       2967       2968       2979       2978  
      2847       2848       2859       2858       2968       2969       2980       2979  
      2848       2849       2860       2859       2969       2970       2981       2980  
      2850       2851       2862       2861       2971       2972       2983       2982  
      2851       2852       2863       2862       2972       2973       2984       2983  
      2852       2853       2864       2863       2973       2974       2985       2984  
      2853       2854       2865       2864       2974       2975       2986       2985  
      2854       2855       2866       2865       2975       2976       2987       2986  
      2855       2856       2867       2866       2976       2977       2988       2987  
      2856       2857       2868       2867       2977       2978       2989       2988  
      2857       2858       2869       2868       2978       2979       2990       2989  
      2858       2859       2870       2869       2979       2980       2991       2990  
      2859       2860       2871       2870       2980       2981       2992       2991  
      2861       2862       2873       2872       2982       2983       2994       2993  
      2862       2863       2874       2873       2983       2984       2995       2994  
      2863       2864       2875       2874       2984       2985       2996       2995  
      2864       2865       2876       2875       2985       2986       2997       2996  
      2865       2866       2877       2876       2986       2987       2998       2997  
      2866       2867       2878       2877       2987       2988       2999       2998  
      2867       2868       2879       2878       2988       2989       3000       2999  
      2868       2869       2880       2879       2989       2990       3001       3000  
      2869       2870       2881       2880       2990       2991       3002       3001  
      2870       2871       2882       2881       2991       2992       3003       3002  
      2872       2873       2884       2883       2993       2994       3005       3004  
      2873       2874       2885       2884       2994       2995       3006       3005  
      2874       2875       2886       2885       2995       2996       3007       3006  
      2875       2876       2887       2886       2996       2997       3008       3007  
      2876       2877       2888       2887       2997       2998       3009       3008  
      2877       2878       2889       2888       2998       2999       3010       3009  
      2878       2879       2890       2889       2999       3000       3011       3010  
      2879       2880       2891       2890       3000       3001       3012       3011  
      2880       2881       2892       2891       3001       3002       3013       3012  
      2881       2882       2893       2892       3002       3003       3014       3013  
      2883       2884       2895       2894       3004       3005       3016       3015  
      2884       2885       2896       2895       3005       3006       3017       3016  
      2885       2886       2897       2896       3006       3007       3018       3017  
      2886       2887       2898       2897       3007       3008       3019       3018  
      2887       2888       2899       2898       3008       3009       3020       3019  
      2888       2889       2900       2899       3009       3010       3021       3020  
      2889       2890       2901       2900       3010       3011       3022       3021  
      2890       2891       2902       2901       3011       3012       3023       3022  
      2891       2892       2903       2902       3012       3013       3024       3023  
      2892       2893       2904       2903       3013       3014       3025       3024  
      2905       2906       2917       2916       3026       3027       3038       3037  
      2906       2907       2918       2917       3027       3028       3039       3038  
      2907       2908       2919       2918       3028       3029       3040       3039  
      2908       2909       2920       2919       3029       3030       3041       3040  
      2909       2910       2921       2920       3030       3031       3042       3041  
      2910       2911       2922       2921       3031       3032       3043       3042  
      2911       2912       2923       2922       3032       3033       3044       3043  
      2912       2913       2924       2923       3033       3034       3045       3044  
      2913       2914       2925       2924       3034       3035       3046       3045  
      2914       2915       2926       2925       3035       3036       3047       3046  
      2916       2917       2928       2927       3037       3038       3049       3048  
      2917       2918       2929       2928       3038       3039       3050       3049  
      2918       2919       2930       2929       3039       3040       3051       3050  
      2919       2920       2931       2930       3040       3041       3052       3051  
      2920       2921       2932       2931       3041       3042       3053       3052  
      2921       2922       2933       2932       3042       3043       3054       3053  
      2922       2923       2934       2933       3043       3044       3055       3054  
      2923       2924       2935       2934       3044       3045       3056       3055  
      2924       2925       2936       2935       3045       3046       3057       3056  
      2925       2926       2937       2936       3046       3047       3058       3057  
      2927       2928       2939       2938       3048       3049       3060       3059  
      2928       2929       2940       2939       3049       3050       3061       3060  
      2929       2930       2941       2940       3050       3051       3062       3061  
      2930       2931       2942       2941       3051       3052       3063       3062  
      2931       2932       2943       2942       3052       3053       3064       3063  
      2932       2933       2944       2943       3053       3054       3065       3064  
      2933       2934       2945       2944       3054       3055       3066       3065  
      2934       2935       2946       2945       3055       3056       3067       3066  
      2935       2936       2947       2946       3056       3057       3068       3067  
      2936       2937       2948       2947       3057       3058       3069       3068  
      2938       2939       2950       2949       3059       3060       3071       3070  
      2939       2940       2951       2950       3060       3061       3072       3071  
      2940       2941       2952       2951       3061       3062       3073       3072  
      2941       2942       2953       2952       3062       3063       3074       3073  
      2942       2943       2954       2953       3063       3064       3075       3074  
      2943       2944       2955       2954       3064       3065       3076       3075  
      2944       2945       2956       2955       3065       3066       3077       3076  
      2945       2946       2957       2956       3066       3067       3078       3077  
      2946       2947       2958       2957       3067       3068       3079       3078  
      2947       2948       2959       2958       3068       3069       3080       3079  
      2949       2950       2961       2960       3070       3071       3082       3081  
      2950       2951       2962       2961       3071       3072       3083       3082  
      2951       2952       2963       2962       3072       3073       3084       3083  
      2952       2953       2964       2963       3073       3074       3085       3084  
      2953       2954       2965       2964       3074       3075       3086       3085  
      2954       2955       2966       2965       3075       3076       3087       3086  
      2955       2956       2967       2966       3076       3077       3088       3087  
      2956       2957       2968       2967       3077       3078       3089       3088  
      2957       2958       2969       2968       3078       3079       3090       3089  
      2958       2959       2970       2969       3079       3080       3091       3090  
      2960       2961       2972       2971       3081       3082       3093       3092  
      2961       2962       2973       2972       3082       3083       3094       3093  
      2962       2963       2974       2973       3083       3084       3095       3094  
      2963       2964       2975       2974       3084       3085       3096       3095  
      2964       2965       2976       2975       3085       3086       3097       3096  
      2965       2966       2977       2976       3086       3087       3098       3097  
      2966       2967       2978       2977       3087       3088       3099       3098  
      2967       2968       2979       2978       3088       3089       3100       3099  
      2968       2969       2980       2979       3089       3090       3101       3100  
      2969       2970       2981       2980       3090       3091       3102       3101  
      2971       2972       2983       2982       3092       3093       3104       3103  
      2972       2973       2984       2983       3093       3094       3105       3104  
      2973       2974       2985       2984       3094       3095       3106       3105  
      2974       2975       2986       2985       3095       3096       3107       3106  
      2975       2976       2987       2986       3096       3097       3108       3107  
      2976       2977       2988       2987       3097       3098       3109       3108  
      2977       2978       2989       2988       3098       3099       3110       3109  
      2978       2979       2990       2989       3099       3100       3111       3110  
      2979       2980       2991       2990       3100       3101       3112       3111  
      2980       2981       2992       2991       3101       3102       3113       3112  
      2982       2983       2994       2993       3103       3104       3115       3114  
      2983       2984       2995       2994       3104       3105       3116       3115  
      2984       2985       2996       2995       3105       3106       3117       3116  
      2985       2986       2997       2996       3106       3107       3118       3117  
      2986       2987       2998       2997       3107       3108       3119       3118  
      2987       2988       2999       2998       3108       3109       3120       3119  
      2988       2989       3000       2999       3109       3110       3121       3120  
      2989       2990       3001       3000       3110       3111       3122       3121  
      2990       2991       3002       3001       3111       3112       3123       3122  
      2991       2992       3003       3002       3112       3113       3124       3123  
      2993       2994       3005       3004       3114       3115       3126       3125  
      2994       2995       3006       3005       3115       3116       3127       3126  
      2995       2996       3007       3006       3116       3117       3128       3127  
      2996       2997       3008       3007       3117       3118       3129       3128  
      2997       2998       3009       3008       3118       3119       3130       3129  
      2998       2999       3010       3009       3119       3120       3131       3130  
      2999       3000       3011       3010       3120       3121       3132       3131  
      3000       3001       3012       3011       3121       3122       3133       3132  
      3001       3002       3013       3012       3122       3123       3134       3133  
      3002       3003       3014       3013       3123       3124       3135       3134  
      3004       3005       3016       3015       3125       3126       3137       3136  
      3005       3006       3017       3016       3126       3127       3138       3137  
      3006       3007       3018       3017       3127       3128       3139       3138  
      3007       3008       3019       3018       3128       3129       3140       3139  
      3008       3009       3020       3019       3129       3130       3141       3140  
      3009       3010       3021       3020       3130       3131       3142       3141  
      3010       3011       3022       3021       3131       3132       3143       3142  
      3011       3012       3023       3022       3132       3133       3144       3143  
      3012       3013       3024       3023       3133       3134       3145       3144  
      3013       3014       3025       3024       3134       3135       3146       3145  
      3026       3027       3038       3037       3147       3148       3159       3158  
      3027       3028       3039       3038       3148       3149       3160       3159  
      3028       3029       3040       3039       3149       3150       3161       3160  
      3029       3030       3041       3040       3150       3151       3162       3161  
      3030       3031       3042       3041       3151       3152       3163       3162  
      3031       3032       3043       3042       3152       3153       3164       3163  
      3032       3033       3044       3043       3153       3154       3165       3164  
      3033       3034       3045       3044       3154       3155       3166       3165  
      3034       3035       3046       3045       3155       3156       3167       3166  
      3035       3036       3047       3046       3156       3157       3168       3167  
      3037       3038       3049       3048       3158       3159       3170       3169  
      3038       3039       3050       3049       3159       3160       3171       3170  
      3039       3040       3051       3050       3160       3161       3172       3171  
      3040       3041       3052       3051       3161       3162       3173       3172  
      3041       3042       3053       3052       3162       3163       3174       3173  
      3042       3043       3054       3053       3163       3164       3175       3174  
      3043       3044       3055       3054       3164       3165       3176       3175  
      3044       3045       3056       3055       3165       3166       3177       3176  
      3045       3046       3057       3056       3166       3167       3178       3177  
      3046       3047       3058       3057       3167       3168       3179       3178  
      3048       3049       3060       3059       3169       3170       3181       3180  
      3049       3050       3061       3060       3170       3171       3182       3181  
      3050       3051       3062       3061       3171       3172       3183       3182  
      3051       3052       3063       3062       3172       3173       3184       3183  
      3052       3053       3064       3063       3173       3174       3185       3184  
      3053       3054       3065       3064       3174       3175       3186       3185  
      3054       3055       3066       3065       3175       3176       3187       3186  
      3055       3056       3067       3066       3176       3177       3188       3187  
      3056       3057       3068       3067       3177       3178       3189       3188  
      3057       3058       3069       3068       3178       3179       3190       3189  
      3059       3060       3071       3070       3180       3181       3192       3191  
      3060       3061       3072       3071       3181       3182       3193       3192  
      3061       3062       3073       3072       3182       3183       3194       3193  
      3062       3063       3074       3073       3183       3184       3195       3194  
      3063       3064       3075       3074       3184       3185       3196       3195  
      3064       3065       3076       3075       3185       3186       3197       3196  
      3065       3066       3077       3076       3186       3187       3198       3197  
      3066       3067       3078       3077       3187       3188       3199       3198  
      3067       3068       3079       3078       3188       3189       3200       3199  
      3068       3069       3080       3079       3189       3190       3201       3200  
      3070       3071       3082       3081       3191       3192       3203       3202  
      3071       3072       3083       3082       3192       3193       3204       3203  
      3072       3073       3084       3083       3193       3194       3205       3204  
      3073       3074       3085       3084       3194       3195       3206       3205  
      3074       3075       3086       3085       3195       3196       3207       3206  
      3075       3076       3087       3086       3196       3197       3208       3207  
      3076       3077       3088       3087       3197       3198       3209       3208  
      3077       3078       3089       3088       3198       3199       3210       3209  
      3078       3079       3090       3089       3199       3200       3211       3210  
      3079       3080       3091       3090       3200       3201       3212       3211  
      3081       3082       3093       3092       3202       3203       3214       3213  
      3082       3083       3094       3093       3203       3204       3215       3214  
      3083       3084       3095       3094       3204       3205       3216       3215  
      3084       3085       3096       3095       3205       3206       3217       3216  
      3085       3086       3097       3096       3206       3207       3218       3217  
      3086       3087       3098       3097       3207       3208       3219       3218  
      3087       3088       3099       3098       3208       3209       3220       3219  
      3088       3089       3100       3099       3209       3210       3221       3220  
      3089       3090       3101       3100       3210       3211       3222       3221  
      3090       3091       3102       3101       3211       3212       3223       3222  
      3092       3093       3104       3103       3213       3214       3225       3224  
      3093       3094       3105       3104       3214       3215       3226       3225  
      3094       3095       3106       3105       3215       3216       3227       3226  
      3095       3096       3107       3106       3216       3217       3228       3227  
      3096       3097       3108       3107       3217       3218       3229       3228  
      3097       3098       3109       3108       3218       3219       3230       3229  
      3098       3099       3110       3109       3219       3220       3231       3230  
      3099       3100       3111       3110       3220       3221       3232       3231  
      3100       3101       3112       3111       3221       3222       3233       3232  
      3101       3102       3113       3112       3222       3223       3234       3233  
      3103       3104       3115       3114       3224       3225       3236       3235  
      3104       3105       3116       3115       3225       3226       3237       3236  
      3105       3106       3117       3116       3226       3227       3238       3237  
      3106       3107       3118       3117       3227       3228       3239       3238  
      3107       3108       3119       3118       3228       3229       3240       3239  
      3108       3109       3120       3119       3229       3230       3241       3240  
      3109       3110       3121       3120       3230       3231       3242       3241  
      3110       3111       3122       3121       3231       3232       3243       3242  
      3111       3112       3123       3122       3232       3233       3244       3243  
      3112       3113       3124       3123       3233       3234       3245       3244  
      3114       3115       3126       3125       3235       3236       3247       3246  
      3115       3116       3127       3126       3236       3237       3248       3247  
      3116       3117       3128       3127       3237       3238       3249       3248  
      3117       3118       3129       3128       3238       3239       3250       3249  
      3118       3119       3130       3129       3239       3240       3251       3250  
      3119       3120       3131       3130       3240       3241       3252       3251  
      3120       3121       3132       3131       3241       3242       3253       3252  
      3121       3122       3133       3132       3242       3243       3254       3253  
      3122       3123       3134       3133       3243       3244       3255       3254  
      3123       3124       3135       3134       3244       3245       3256       3255  
      3125       3126       3137       3136       3246       3247       3258       3257  
      3126       3127       3138       3137       3247       3248       3259       3258  
      3127       3128       3139       3138       3248       3249       3260       3259  
      3128       3129       3140       3139       3249       3250       3261       3260  
      3129       3130       3141       3140       3250       3251       3262       3261  
      3130       3131       3142       3141       3251       3252       3263       3262  
      3131       3132       3143       3142       3252       3253       3264       3263  
      3132       3133       3144       3143       3253       3254       3265       3264  
      3133       3134       3145       3144       3254       3255       3266       3265  
      3134       3135       3146       3145       3255       3256       3267       3266  
      3147       3148       3159       3158       3268       3269       3280       3279  
      3148       3149       3160       3159       3269       3270       3281       3280  
      3149       3150       3161       3160       3270       3271       3282       3281  
      3150       3151       3162       3161       3271       3272       3283       3282  
      3151       3152       3163       3162       3272       3273       3284       3283  
      3152       3153       3164       3163       3273       3274       3285       3284  
      3153       3154       3165       3164       3274       3275       3286       3285  
      3154       3155       3166       3165       3275       3276       3287       3286  
      3155       3156       3167       3166       3276       3277       3288       3287  
      3156       3157       3168       3167       3277       3278       3289       3288  
      3158       3159       3170       3169       3279       3280       3291       3290  
      3159       3160       3171       3170       3280       3281       3292       3291  
      3160       3161       3172       3171       3281       3282       3293       3292  
      3161       3162       3173       3172       3282       3283       3294       3293  
      3162       3163       3174       3173       3283       3284       3295       3294  
      3163       3164       3175       3174       3284       3285       3296       3295  
      3164       3165       3176       3175       3285       3286       3297       3296  
      3165       3166       3177       3176       3286       3287       3298       3297  
      3166       3167       3178       3177       3287       3288       3299       3298  
      3167       3168       3179       3178       3288       3289       3300       3299  
      3169       3170       3181       3180       3290       3291       3302       3301  
      3170       3171       3182       3181       3291       3292       3303       3302  
      3171       3172       3183       3182       3292       3293       3304       3303  
      3172       3173       3184       3183       3293       3294       3305       3304  
      3173       3174       3185       3184       3294       3295       3306       3305  
      3174       3175       3186       3185       3295       3296       3307       3306  
      3175       3176       3187       3186       3296       3297       3308       3307  
      3176       3177       3188       3187       3297       3298       3309       3308  
      3177       3178       3189       3188       3298       3299       3310       3309  
      3178       3179       3190       3189       3299       3300       3311       3310  
      3180       3181       3192       3191       3301       3302       3313       3312  
      3181       3182       3193       3192       3302       3303       3314       3313  
      3182       3183       3194       3193       3303       3304       3315       3314  
      3183       3184       3195       3194       3304       3305       3316       3315  
      3184       3185       3196       3195       3305       3306       3317       3316  
      3185       3186       3197       3196       3306       3307       3318       3317  
      3186       3187       3198       3197       3307       3308       3319       3318  
      3187       3188       3199       3198       3308       3309       3320       3319  
      3188       3189       3200       3199       3309       3310       3321       3320  
      3189       3190       3201       3200       3310       3311       3322       3321  
      3191       3192       3203       3202       3312       3313       3324       3323  
      3192       3193       3204       3203       3313       3314       3325       3324  
      3193       3194       3205       3204       3314       3315       3326       3325  
      3194       3195       3206       3205       3315       3316       3327       3326  
      3195       3196       3207       3206       3316       3317       3328       3327  
      3196       3197       3208       3207       3317       3318       3329       3328  
      3197       3198       3209       3208       3318       3319       3330       3329  
      3198       3199       3210       3209       3319       3320       3331       3330  
      3199       3200       3211       3210       3320       3321       3332       3331  
      3200       3201       3212       3211       3321       3322       3333       3332  
      3202       3203       3214       3213       3323       3324       3335       3334  
      3203       3204       3215       3214       3324       3325       3336       3335  
      3204       3205       3216       3215       3325       3326       3337       3336  
      3205       3206       3217       3216       3326       3327       3338       3337  
      3206       3207       3218       3217       3327       3328       3339       3338  
      3207       3208       3219       3218       3328       3329       3340       3339  
      3208       3209       3220       3219       3329       3330       3341       3340  
      3209       3210       3221       3220       3330       3331       3342       3341  
      3210       3211       3222       3221       3331       3332       3343       3342  
      3211       3212       3223       3222       3332       3333       3344       3343  
      3213       3214       3225       3224       3334       3335       3346       3345  
      3214       3215       3226       3225       3335       3336       3347       3346  
      3215       3216       3227       3226       3336       3337       3348       3347  
      3216       3217       3228       3227       3337       3338       3349       3348  
      3217       3218       3229       3228       3338       3339       3350       3349  
      3218       3219       3230       3229       3339       3340       3351       3350  
      3219       3220       3231       3230       3340       3341       3352       3351  
      3220       3221       3232       3231       3341       3342       3353       3352  
      3221       3222       3233       3232       3342       3343       3354       3353  
      3222       3223       3234       3233       3343       3344       3355       3354  
      3224       3225       3236       3235       3345       3346       3357       3356  
      3225       3226       3237       3236       3346       3347       3358       3357  
      3226       3227       3238       3237       3347       3348       3359       3358  
      3227       3228       3239       3238       3348       3349       3360       3359  
      3228       3229       3240       3239       3349       3350       3361       3360  
      3229       3230       3241       3240       3350       3351       3362       3361  
      3230       3231       3242       3241       3351       3352       3363       3362  
      3231       3232       3243       3242       3352       3353       3364       3363  
      3232       3233       3244       3243       3353       3354       3365       3364  
      3233       3234       3245       3244       3354       3355       3366       3365  
      3235       3236       3247       3246       3356       3357       3368       3367  
      3236       3237       3248       3247       3357       3358       3369       3368  
      3237       3238       3249       3248       3358       3359       3370       3369  
      3238       3239       3250       3249       3359       3360       3371       3370  
      3239       3240       3251       3250       3360       3361       3372       3371  
      3240       3241       3252       3251       3361       3362       3373       3372  
      3241       3242       3253       3252       3362       3363       3374       3373  
      3242       3243       3254       3253       3363       3364       3375       3374  
      3243       3244       3255       3254       3364       3365       3376       3375  
      3244       3245       3256       3255       3365       3366       3377       3376  
      3246       3247       3258       3257       3367       3368       3379       3378  
      3247       3248       3259       3258       3368       3369       3380       3379  
      3248       3249       3260       3259       3369       3370       3381       3380  
      3249       3250       3261       3260       3370       3371       3382       3381  
      3250       3251       3262       3261       3371       3372       3383       3382  
      3251       3252       3263       3262       3372       3373       3384       3383  
      3252       3253       3264       3263       3373       3374       3385       3384  
      3253       3254       3265       3264       3374       3375       3386       3385  
      3254       3255       3266       3265       3375       3376       3387       3386  
      3255       3256       3267       3266       3376       3377       3388       3387  
      3268       3269       3280       3279       3389       3390       3401       3400  
      3269       3270       3281       3280       3390       3391       3402       3401  
      3270       3271       3282       3281       3391       3392       3403       3402  
      3271       3272       3283       3282       3392       3393       3404       3403  
      3272       3273       3284       3283       3393       3394       3405       3404  
      3273       3274       3285       3284       3394       3395       3406       3405  
      3274       3275       3286       3285       3395       3396       3407       3406  
      3275       3276       3287       3286       3396       3397       3408       3407  
      3276       3277       3288       3287       3397       3398       3409       3408  
      3277       3278       3289       3288       3398       3399       3410       3409  
      3279       3280       3291       3290       3400       3401       3412       3411  
      3280       3281       3292       3291       3401       3402       3413       3412  
      3281       3282       3293       3292       3402       3403       3414       3413  
      3282       3283       3294       3293       3403       3404       3415       3414  
      3283       3284       3295       3294       3404       3405       3416       3415  
      3284       3285       3296       3295       3405       3406       3417       3416  
      3285       3286       3297       3296       3406       3407       3418       3417  
      3286       3287       3298       3297       3407       3408       3419       3418  
      3287       3288       3299       3298       3408       3409       3420       3419  
      3288       3289       3300       3299       3409       3410       3421       3420  
      3290       3291       3302       3301       3411       3412       3423       3422  
      3291       3292       3303       3302       3412       3413       3424       3423  
      3292       3293       3304       3303       3413       3414       3425       3424  
      3293       3294       3305       3304       3414       3415       3426       3425  
      3294       3295       3306       3305       3415       3416       3427       3426  
      3295       3296       3307       3306       3416       3417       3428       3427  
      3296       3297       3308       3307       3417       3418       3429       3428  
      3297       3298       3309       3308       3418       3419       3430       3429  
      3298       3299       3310       3309       3419       3420       3431       3430  
      3299       3300       3311       3310       3420       3421       3432       3431  
      3301       3302       3313       3312       3422       3423       3434       3433  
      3302       3303       3314       3313       3423       3424       3435       3434  
      3303       3304       3315       3314       3424       3425       3436       3435  
      3304       3305       3316       3315       3425       3426       3437       3436  
      3305       3306       3317       3316       3426       3427       3438       3437  
      3306       3307       3318       3317       3427       3428       3439       3438  
      3307       3308       3319       3318       3428       3429       3440       3439  
      3308       3309       3320       3319       3429       3430       3441       3440  
      3309       3310       3321       3320       3430       3431       3442       3441  
      3310       3311       3322       3321       3431       3432       3443       3442  
      3312       3313       3324       3323       3433       3434       3445       3444  
      3313       3314       3325       3324       3434       3435       3446       3445  
      3314       3315       3326       3325       3435       3436       3447       3446  
      3315       3316       3327       3326       3436       3437       3448       3447  
      3316       3317       3328       3327       3437       3438       3449       3448  
      3317       3318       3329       3328       3438       3439       3450       3449  
      3318       3319       3330       3329       3439       3440       3451       3450  
      3319       3320       3331       3330       3440       3441       3452       3451  
      3320       3321       3332       3331       3441       3442       3453       3452  
      3321       3322       3333       3332       3442       3443       3454       3453  
      3323       3324       3335       3334       3444       3445       3456       3455  
      3324       3325       3336       3335       3445       3446       3457       3456  
      3325       3326       3337       3336       3446       3447       3458       3457  
      3326       3327       3338       3337       3447       3448       3459       3458  
      3327       3328       3339       3338       3448       3449       3460       3459  
      3328       3329       3340       3339       3449       3450       3461       3460  
      3329       3330       3341       3340       3450       3451       3462       3461  
      3330       3331       3342       3341       3451       3452       3463       3462  
      3331       3332       3343       3342       3452       3453       3464       3463  
      3332       3333       3344       3343       3453       3454       3465       3464  
      3334       3335       3346       3345       3455       3456       3467       3466  
      3335       3336       3347       3346       3456       3457       3468       3467  
      3336       3337       3348       3347       3457       3458       3469       3468  
      3337       3338       3349       3348       3458       3459       3470       3469  
      3338       3339       3350       3349       3459       3460       3471       3470  
      3339       3340       3351       3350       3460       3461       3472       3471  
      3340       3341       3352       3351       3461       3462       3473       3472  
      3341       3342       3353       3352       3462       3463       3474       3473  
      3342       3343       3354       3353       3463       3464       3475       3474  
      3343       3344       3355       3354       3464       3465       3476       3475  
      3345       3346       3357       3356       3466       3467       3478       3477  
      3346       3347       3358       3357       3467       3468       3479       3478  
      3347       3348       3359       3358       3468       3469       3480       3479  
      3348       3349       3360       3359       3469       3470       3481       3480  
      3349       3350       3361       3360       3470       3471       3482       3481  
      3350       3351       3362       3361       3471       3472       3483       3482  
      3351       3352       3363       3362       3472       3473       3484       3483  
      3352       3353       3364       3363       3473       3474       3485       3484  
      3353       3354       3365       3364       3474       3475       3486       3485  
      3354       3355       3366       3365       3475       3476       3487       3486  
      3356       3357       3368       3367       3477       3478       3489       3488  
      3357       3358       3369       3368       3478       3479       3490       3489  
      3358       3359       3370       3369       3479       3480       3491       3490  
      3359       3360       3371       3370       3480       3481       3492       3491  
      3360       3361       3372       3371       3481       3482       3493       3492  
      3361       3362       3373       3372       3482       3483       3494       3493  
      3362       3363       3374       3373       3483       3484       3495       3494  
      3363       3364       3375       3374       3484       3485       3496       3495  
      3364       3365       3376       3375       3485       3486       3497       3496  
      3365       3366       3377       3376       3486       3487       3498       3497  
      3367       3368       3379       3378       3488       3489       3500       3499  
      3368       3369       3380       3379       3489       3490       3501       3500  
      3369       3370       3381       3380       3490       3491       3502       3501  
      3370       3371       3382       3381       3491       3492       3503       3502  
      3371       3372       3383       3382       3492       3493       3504       3503  
      3372       3373       3384       3383       3493       3494       3505       3504  
      3373       3374       3385       3384       3494       3495       3506       3505  
      3374       3375       3386       3385       3495       3496       3507       3506  
      3375       3376       3387       3386       3496       3497       3508       3507  
      3376       3377       3388       3387       3497       3498       3509       3508  
      3389       3390       3401       3400       3510       3511       3522       3521  
      3390       3391       3402       3401       3511       3512       3523       3522  
      3391       3392       3403       3402       3512       3513       3524       3523  
      3392       3393       3404       3403       3513       3514       3525       3524  
      3393       3394       3405       3404       3514       3515       3526       3525  
      3394       3395       3406       3405       3515       3516       3527       3526  
      3395       3396       3407       3406       3516       3517       3528       3527  
      3396       3397       3408       3407       3517       3518       3529       3528  
      3397       3398       3409       3408       3518       3519       3530       3529  
      3398       3399       3410       3409       3519       3520       3531       3530  
      3400       3401       3412       3411       3521       3522       3533       3532  
      3401       3402       3413       3412       3522       3523       3534       3533  
      3402       3403       3414       3413       3523       3524       3535       3534  
      3403       3404       3415       3414       3524       3525       3536       3535  
      3404       3405       3416       3415       3525       3526       3537       3536  
      3405       3406       3417       3416       3526       3527       3538       3537  
      3406       3407       3418       3417       3527       3528       3539       3538  
      3407       3408       3419       3418       3528       3529       3540       3539  
      3408       3409       3420       3419       3529       3530       3541       3540  
      3409       3410       3421       3420       3530       3531       3542       3541  
      3411       3412       3423       3422       3532       3533       3544       3543  
      3412       3413       3424       3423       3533       3534       3545       3544  
      3413       3414       3425       3424       3534       3535       3546       3545  
      3414       3415       3426       3425       3535       3536       3547       3546  
      3415       3416       3427       3426       3536       3537       3548       3547  
      3416       3417       3428       3427       3537       3538       3549       3548  
      3417       3418       3429       3428       3538       3539       3550       3549  
      3418       3419       3430       3429       3539       3540       3551       3550  
      3419       3420       3431       3430       3540       3541       3552       3551  
      3420       3421       3432       3431       3541       3542       3553       3552  
      3422       3423       3434       3433       3543       3544       3555       3554  
      3423       3424       3435       3434       3544       3545       3556       3555  
      3424       3425       3436       3435       3545       3546       3557       3556  
      3425       3426       3437       3436       3546       3547       3558       3557  
      3426       3427       3438       3437       3547       3548       3559       3558  
      3427       3428       3439       3438       3548       3549       3560       3559  
      3428       3429       3440       3439       3549       3550       3561       3560  
      3429       3430       3441       3440       3550       3551       3562       3561  
      3430       3431       3442       3441       3551       3552       3563       3562  
      3431       3432       3443       3442       3552       3553       3564       3563  
      3433       3434       3445       3444       3554       3555       3566       3565  
      3434       3435       3446       3445       3555       3556       3567       3566  
      3435       3436       3447       3446       3556       3557       3568       3567  
      3436       3437       3448       3447       3557       3558       3569       3568  
      3437       3438       3449       3448       3558       3559       3570       3569  
      3438       3439       3450       3449       3559       3560       3571       3570  
      3439       3440       3451       3450       3560       3561       3572       3571  
      3440       3441       3452       3451       3561       3562       3573       3572  
      3441       3442       3453       3452       3562       3563       3574       3573  
      3442       3443       3454       3453       3563       3564       3575       3574  
      3444       3445       3456       3455       3565       3566       3577       3576  
      3445       3446       3457       3456       3566       3567       3578       3577  
      3446       3447       3458       3457       3567       3568       3579       3578  
      3447       3448       3459       3458       3568       3569       3580       3579  
      3448       3449       3460       3459       3569       3570       3581       3580  
      3449       3450       3461       3460       3570       3571       3582       3581  
      3450       3451       3462       3461       3571       3572       3583       3582  
      3451       3452       3463       3462       3572       3573       3584       3583  
      3452       3453       3464       3463       3573       3574       3585       3584  
      3453       3454       3465       3464       3574       3575       3586       3585  
      3455       3456       3467       3466       3576       3577       3588       3587  
      3456       3457       3468       3467       3577       3578       3589       3588  
      3457       3458       3469       3468       3578       3579       3590       3589  
      3458       3459       3470       3469       3579       3580       3591       3590  
      3459       3460       3471       3470       3580       3581       3592       3591  
      3460       3461       3472       3471       3581       3582       3593       3592  
      3461       3462       3473       3472       3582       3583       3594       3593  
      3462       3463       3474       3473       3583       3584       3595       3594  
      3463       3464       3475       3474       3584       3585       3596       3595  
      3464       3465       3476       3475       3585       3586       3597       3596  
      3466       3467       3478       3477       3587       3588       3599       3598  
      3467       3468       3479       3478       3588       3589       3600       3599  
      3468       3469       3480       3479       3589       3590       3601       3600  
      3469       3470       3481       3480       3590       3591       3602       3601  
      3470       3471       3482       3481       3591       3592       3603       3602  
      3471       3472       3483       3482       3592       3593       3604       3603  
      3472       3473       3484       3483       3593       3594       3605       3604  
      3473       3474       3485       3484       3594       3595       3606       3605  
      3474       3475       3486       3485       3595       3596       3607       3606  
      3475       3476       3487       3486       3596       3597       3608       3607  
      3477       3478       3489       3488       3598       3599       3610       3609  
      3478       3479       3490       3489       3599       3600       3611       3610  
      3479       3480       3491       3490       3600       3601       3612       3611  
      3480       3481       3492       3491       3601       3602       3613       3612  
      3481       3482       3493       3492       3602       3603       3614       3613  
      3482       3483       3494       3493       3603       3604       3615       3614  
      3483       3484       3495       3494       3604       3605       3616       3615  
      3484       3485       3496       3495       3605       3606       3617       3616  
      3485       3486       3497       3496       3606       3607       3618       3617  
      3486       3487       3498       3497       3607       3608       3619       3618  
      3488       3489       3500       3499       3609       3610       3621       3620  
      3489       3490       3501       3500       3610       3611       3622       3621  
      3490       3491       3502       3501       3611       3612       3623       3622  
      3491       3492       3503       3502       3612       3613       3624       3623  
      3492       3493       3504       3503       3613       3614       3625       3624  
      3493       3494       3505       3504       3614       3615       3626       3625  
      3494       3495       3506       3505       3615       3616       3627       3626  
      3495       3496       3507       3506       3616       3617       3628       3627  
      3496       3497       3508       3507       3617       3618       3629       3628  
      3497       3498       3509       3508       3618       3619       3630       3629  
      3510       3511       3522       3521       3631       3632       3643       3642  
      3511       3512       3523       3522       3632       3633       3644       3643  
      3512       3513       3524       3523       3633       3634       3645       3644  
      3513       3514       3525       3524       3634       3635       3646       3645  
      3514       3515       3526       3525       3635       3636       3647       3646  
      3515       3516       3527       3526       3636       3637       3648       3647  
      3516       3517       3528       3527       3637       3638       3649       3648  
      3517       3518       3529       3528       3638       3639       3650       3649  
      3518       3519       3530       3529       3639       3640       3651       3650  
      3519       3520       3531       3530       3640       3641       3652       3651  
      3521       3522       3533       3532       3642       3643       3654       3653  
      3522       3523       3534       3533       3643       3644       3655       3654  
      3523       3524       3535       3534       3644       3645       3656       3655  
      3524       3525       3536       3535       3645       3646       3657       3656  
      3525       3526       3537       3536       3646       3647       3658       3657  
      3526       3527       3538       3537       3647       3648       3659       3658  
      3527       3528       3539       3538       3648       3649       3660       3659  
      3528       3529       3540       3539       3649       3650       3661       3660  
      3529       3530       3541       3540       3650       3651       3662       3661  
      3530       3531       3542       3541       3651       3652       3663       3662  
      3532       3533       3544       3543       3653       3654       3665       3664  
      3533       3534       3545       3544       3654       3655       3666       3665  
      3534       3535       3546       3545       3655       3656       3667       3666  
      3535       3536       3547       3546       3656       3657       3668       3667  
      3536       3537       3548       3547       3657       3658       3669       3668  
      3537       3538       3549       3548       3658       3659       3670       3669  
      3538       3539       3550       3549       3659       3660       3671       3670  
      3539       3540       3551       3550       3660       3661       3672       3671  
      3540       3541       3552       3551       3661       3662       3673       3672  
      3541       3542       3553       3552       3662       3663       3674       3673  
      3543       3544       3555       3554       3664       3665       3676       3675  
      3544       3545       3556       3555       3665       3666       3677       3676  
      3545       3546       3557       3556       3666       3667       3678       3677  
      3546       3547       3558       3557       3667       3668       3679       3678  
      3547       3548       3559       3558       3668       3669       3680       3679  
      3548       3549       3560       3559       3669       3670       3681       3680  
      3549       3550       3561       3560       3670       3671       3682       3681  
      3550       3551       3562       3561       3671       3672       3683       3682  
      3551       3552       3563       3562       3672       3673       3684       3683  
      3552       3553       3564       3563       3673       3674       3685       3684  
      3554       3555       3566       3565       3675       3676       3687       3686  
      3555       3556       3567       3566       3676       3677       3688       3687  
      3556       3557       3568       3567       3677       3678       3689       3688  
      3557       3558       3569       3568       3678       3679       3690       3689  
      3558       3559       3570       3569       3679       3680       3691       3690  
      3559       3560       3571       3570       3680       3681       3692       3691  
      3560       3561       3572       3571       3681       3682       3693       3692  
      3561       3562       3573       3572       3682       3683       3694       3693  
      3562       3563       3574       3573       3683       3684       3695       3694  
      3563       3564       3575       3574       3684       3685       3696       3695  
      3565       3566       3577       3576       3686       3687       3698       3697  
      3566       3567       3578       3577       3687       3688       3699       3698  
      3567       3568       3579       3578       3688       3689       3700       3699  
      3568       3569       3580       3579       3689       3690       3701       3700  
      3569       3570       3581       3580       3690       3691       3702       3701  
      3570       3571       3582       3581       3691       3692       3703       3702  
      3571       3572       3583       3582       3692       3693       3704       3703  
      3572       3573       3584       3583       3693       3694       3705       3704  
      3573       3574       3585       3584       3694       3695       3706       3705  
      3574       3575       3586       3585       3695       3696       3707       3706  
      3576       3577       3588       3587       3697       3698       3709       3708  
      3577       3578       3589       3588       3698       3699       3710       3709  
      3578       3579       3590       3589       3699       3700       3711       3710  
      3579       3580       3591       3590       3700       3701       3712       3711  
      3580       3581       3592       3591       3701       3702       3713       3712  
      3581       3582       3593       3592       3702       3703       3714       3713  
      3582       3583       3594       3593       3703       3704       3715       3714  
      3583       3584       3595       3594       3704       3705       3716       3715  
      3584       3585       3596       3595       3705       3706       3717       3716  
      3585       3586       3597       3596       3706       3707       3718       3717  
      3587       3588       3599       3598       3708       3709       3720       3719  
      3588       3589       3600       3599       3709       3710       3721       3720  
      3589       3590       3601       3600       3710       3711       3722       3721  
      3590       3591       3602       3601       3711       3712       3723       3722  
      3591       3592       3603       3602       3712       3713       3724       3723  
      3592       3593       3604       3603       3713       3714       3725       3724  
      3593       3594       3605       3604       3714       3715       3726       3725  
      3594       3595       3606       3605       3715       3716       3727       3726  
      3595       3596       3607       3606       3716       3717       3728       3727  
      3596       3597       3608       3607       3717       3718       3729       3728  
      3598       3599       3610       3609       3719       3720       3731       3730  
      3599       3600       3611       3610       3720       3721       3732       3731  
      3600       3601       3612       3611       3721       3722       3733       3732  
      3601       3602       3613       3612       3722       3723       3734       3733  
      3602       3603       3614       3613       3723       3724       3735       3734  
      3603       3604       3615       3614       3724       3725       3736       3735  
      3604       3605       3616       3615       3725       3726       3737       3736  
      3605       3606       3617       3616       3726       3727       3738       3737  
      3606       3607       3618       3617       3727       3728       3739       3738  
      3607       3608       3619       3618       3728       3729       3740       3739  
      3609       3610       3621       3620       3730       3731       3742       3741  
      3610       3611       3622       3621       3731       3732       3743       3742  
      3611       3612       3623       3622       3732       3733       3744       3743  
      3612       3613       3624       3623       3733       3734       3745       3744  
      3613       3614       3625       3624       3734       3735       3746       3745  
      3614       3615       3626       3625       3735       3736       3747       3746  
      3615       3616       3627       3626       3736       3737       3748       3747  
      3616       3617       3628       3627       3737       3738       3749       3748  
      3617       3618       3629       3628       3738       3739       3750       3749  
      3618       3619       3630       3629       3739       3740       3751       3750  
      3631       3632       3643       3642       3752       3753       3764       3763  
      3632       3633       3644       3643       3753       3754       3765       3764  
      3633       3634       3645       3644       3754       3755       3766       3765  
      3634       3635       3646       3645       3755       3756       3767       3766  
      3635       3636       3647       3646       3756       3757       3768       3767  
      3636       3637       3648       3647       3757       3758       3769       3768  
      3637       3638       3649       3648       3758       3759       3770       3769  
      3638       3639       3650       3649       3759       3760       3771       3770  
      3639       3640       3651       3650       3760       3761       3772       3771  
      3640       3641       3652       3651       3761       3762       3773       3772  
      3642       3643       3654       3653       3763       3764       3775       3774  
      3643       3644       3655       3654       3764       3765       3776       3775  
      3644       3645       3656       3655       3765       3766       3777       3776  
      3645       3646       3657       3656       3766       3767       3778       3777  
      3646       3647       3658       3657       3767       3768       3779       3778  
      3647       3648       3659       3658       3768       3769       3780       3779  
      3648       3649       3660       3659       3769       3770       3781       3780  
      3649       3650       3661       3660       3770       3771       3782       3781  
      3650       3651       3662       3661       3771       3772       3783       3782  
      3651       3652       3663       3662       3772       3773       3784       3783  
      3653       3654       3665       3664       3774       3775       3786       3785  
      3654       3655       3666       3665       3775       3776       3787       3786  
      3655       3656       3667       3666       3776       3777       3788       3787  
      3656       3657       3668       3667       3777       3778       3789       3788  
      3657       3658       3669       3668       3778       3779       3790       3789  
      3658       3659       3670       3669       3779       3780       3791       3790  
      3659       3660       3671       3670       3780       3781       3792       3791  
      3660       3661       3672       3671       3781       3782       3793       3792  
      3661       3662       3673       3672       3782       3783       3794       3793  
      3662       3663       3674       3673       3783       3784       3795       3794  
      3664       3665       3676       3675       3785       3786       3797       3796  
      3665       3666       3677       3676       3786       3787       3798       3797  
      3666       3667       3678       3677       3787       3788       3799       3798  
      3667       3668       3679       3678       3788       3789       3800       3799  
      3668       3669       3680       3679       3789       3790       3801       3800  
      3669       3670       3681       3680       3790       3791       3802       3801  
      3670       3671       3682       3681       3791       3792       3803       3802  
      3671       3672       3683       3682       3792       3793       3804       3803  
      3672       3673       3684       3683       3793       3794       3805       3804  
      3673       3674       3685       3684       3794       3795       3806       3805  
      3675       3676       3687       3686       3796       3797       3808       3807  
      3676       3677       3688       3687       3797       3798       3809       3808  
      3677       3678       3689       3688       3798       3799       3810       3809  
      3678       3679       3690       3689       3799       3800       3811       3810  
      3679       3680       3691       3690       3800       3801       3812       3811  
      3680       3681       3692       3691       3801       3802       3813       3812  
      3681       3682       3693       3692       3802       3803       3814       3813  
      3682       3683       3694       3693       3803       3804       3815       3814  
      3683       3684       3695       3694       3804       3805       3816       3815  
      3684       3685       3696       3695       3805       3806       3817       3816  
      3686       3687       3698       3697       3807       3808       3819       3818  
      3687       3688       3699       3698       3808       3809       3820       3819  
      3688       3689       3700       3699       3809       3810       3821       3820  
      3689       3690       3701       3700       3810       3811       3822       3821  
      3690       3691       3702       3701       3811       3812       3823       3822  
      3691       3692       3703       3702       3812       3813       3824       3823  
      3692       3693       3704       3703       3813       3814       3825       3824  
      3693       3694       3705       3704       3814       3815       3826       3825  
      3694       3695       3706       3705       3815       3816       3827       3826  
      3695       3696       3707       3706       3816       3817       3828       3827  
      3697       3698       3709       3708       3818       3819       3830       3829  
      3698       3699       3710       3709       3819       3820       3831       3830  
      3699       3700       3711       3710       3820       3821       3832       3831  
      3700       3701       3712       3711       3821       3822       3833       3832  
      3701       3702       3713       3712       3822       3823       3834       3833  
      3702       3703       3714       3713       3823       3824       3835       3834  
      3703       3704       3715       3714       3824       3825       3836       3835  
      3704       3705       3716       3715       3825       3826       3837       3836  
      3705       3706       3717       3716       3826       3827       3838       3837  
      3706       3707       3718       3717       3827       3828       3839       3838  
      3708       3709       3720       3719       3829       3830       3841       3840  
      3709       3710       3721       3720       3830       3831       3842       3841  
      3710       3711       3722       3721       3831       3832       3843       3842  
      3711       3712       3723       3722       3832       3833       3844       3843  
      3712       3713       3724       3723       3833       3834       3845       3844  
      3713       3714       3725       3724       3834       3835       3846       3845  
      3714       3715       3726       3725       3835       3836       3847       3846  
      3715       3716       3727       3726       3836       3837       3848       3847  
      3716       3717       3728       3727       3837       3838       3849       3848  
      3717       3718       3729       3728       3838       3839       3850       3849  
      3719       3720       3731       3730       3840       3841       3852       3851  
      3720       3721       3732       3731       3841       3842       3853       3852  
      3721       3722       3733       3732       3842       3843       3854       3853  
      3722       3723       3734       3733       3843       3844       3855       3854  
      3723       3724       3735       3734       3844       3845       3856       3855  
      3724       3725       3736       3735       3845       3846       3857       3856  
      3725       3726       3737       3736       3846       3847       3858       3857  
      3726       3727       3738       3737       3847       3848       3859       3858  
      3727       3728       3739       3738       3848       3849       3860       3859  
      3728       3729       3740       3739       3849       3850       3861       3860  
      3730       3731       3742       3741       3851       3852       3863       3862  
      3731       3732       3743       3742       3852       3853       3864       3863  
      3732       3733       3744       3743       3853       3854       3865       3864  
      3733       3734       3745       3744       3854       3855       3866       3865  
      3734       3735       3746       3745       3855       3856       3867       3866  
      3735       3736       3747       3746       3856       3857       3868       3867  
      3736       3737       3748       3747       3857       3858       3869       3868  
      3737       3738       3749       3748       3858       3859       3870       3869  
      3738       3739       3750       3749       3859       3860       3871       3870  
      3739       3740       3751       3750       3860       3861       3872       3871  
      3752       3753       3764       3763       3873       3874       3885       3884  
      3753       3754       3765       3764       3874       3875       3886       3885  
      3754       3755       3766       3765       3875       3876       3887       3886  
      3755       3756       3767       3766       3876       3877       3888       3887  
      3756       3757       3768       3767       3877       3878       3889       3888  
      3757       3758       3769       3768       3878       3879       3890       3889  
      3758       3759       3770       3769       3879       3880       3891       3890  
      3759       3760       3771       3770       3880       3881       3892       3891  
      3760       3761       3772       3771       3881       3882       3893       3892  
      3761       3762       3773       3772       3882       3883       3894       3893  
      3763       3764       3775       3774       3884       3885       3896       3895  
      3764       3765       3776       3775       3885       3886       3897       3896  
      3765       3766       3777       3776       3886       3887       3898       3897  
      3766       3767       3778       3777       3887       3888       3899       3898  
      3767       3768       3779       3778       3888       3889       3900       3899  
      3768       3769       3780       3779       3889       3890       3901       3900  
      3769       3770       3781       3780       3890       3891       3902       3901  
      3770       3771       3782       3781       3891       3892       3903       3902  
      3771       3772       3783       3782       3892       3893       3904       3903  
      3772       3773       3784       3783       3893       3894       3905       3904  
      3774       3775       3786       3785       3895       3896       3907       3906  
      3775       3776       3787       3786       3896       3897       3908       3907  
      3776       3777       3788       3787       3897       3898       3909       3908  
      3777       3778       3789       3788       3898       3899       3910       3909  
      3778       3779       3790       3789       3899       3900       3911       3910  
      3779       3780       3791       3790       3900       3901       3912       3911  
      3780       3781       3792       3791       3901       3902       3913       3912  
      3781       3782       3793       3792       3902       3903       3914       3913  
      3782       3783       3794       3793       3903       3904       3915       3914  
      3783       3784       3795       3794       3904       3905       3916       3915  
      3785       3786       3797       3796       3906       3907       3918       3917  
      3786       3787       3798       3797       3907       3908       3919       3918  
      3787       3788       3799       3798       3908       3909       3920       3919  
      3788       3789       3800       3799       3909       3910       3921       3920  
      3789       3790       3801       3800       3910       3911       3922       3921  
      3790       3791       3802       3801       3911       3912       3923       3922  
      3791       3792       3803       3802       3912       3913       3924       3923  
      3792       3793       3804       3803       3913       3914       3925       3924  
      3793       3794       3805       3804       3914       3915       3926       3925  
      3794       3795       3806       3805       3915       3916       3927       3926  
      3796       3797       3808       3807       3917       3918       3929       3928  
      3797       3798       3809       3808       3918       3919       3930       3929  
      3798       3799       3810       3809       3919       3920       3931       3930  
      3799       3800       3811       3810       3920       3921       3932       3931  
      3800       3801       3812       3811       3921       3922       3933       3932  
      3801       3802       3813       3812       3922       3923       3934       3933  
      3802       3803       3814       3813       3923       3924       3935       3934  
      3803       3804       3815       3814       3924       3925       3936       3935  
      3804       3805       3816       3815       3925       3926       3937       3936  
      3805       3806       3817       3816       3926       3927       3938       3937  
      3807       3808       3819       3818       3928       3929       3940       3939  
      3808       3809       3820       3819       3929       3930       3941       3940  
      3809       3810       3821       3820       3930       3931       3942       3941  
      3810       3811       3822       3821       3931       3932       3943       3942  
      3811       3812       3823       3822       3932       3933       3944       3943  
      3812       3813       3824       3823       3933       3934       3945       3944  
      3813       3814       3825       3824       3934       3935       3946       3945  
      3814       3815       3826       3825       3935       3936       3947       3946  
      3815       3816       3827       3826       3936       3937       3948       3947  
      3816       3817       3828       3827       3937       3938       3949       3948  
      3818       3819       3830       3829       3939       3940       3951       3950  
      3819       3820       3831       3830       3940       3941       3952       3951  
      3820       3821       3832       3831       3941       3942       3953       3952  
      3821       3822       3833       3832       3942       3943       3954       3953  
      3822       3823       3834       3833       3943       3944       3955       3954  
      3823       3824       3835       3834       3944       3945       3956       3955  
      3824       3825       3836       3835       3945       3946       3957       3956  
      3825       3826       3837       3836       3946       3947       3958       3957  
      3826       3827       3838       3837       3947       3948       3959       3958  
      3827       3828       3839       3838       3948       3949       3960       3959  
      3829       3830       3841       3840       3950       3951       3962       3961  
      3830       3831       3842       3841       3951       3952       3963       3962  
      3831       3832       3843       3842       3952       3953       3964       3963  
      3832       3833       3844       3843       3953       3954       3965       3964  
      3833       3834       3845       3844       3954       3955       3966       3965  
      3834       3835       3846       3845       3955       3956       3967       3966  
      3835       3836       3847       3846       3956       3957       3968       3967  
      3836       3837       3848       3847       3957       3958       3969       3968  
      3837       3838       3849       3848       3958       3959       3970       3969  
      3838       3839       3850       3849       3959       3960       3971       3970  
      3840       3841       3852       3851       3961       3962       3973       3972  
      3841       3842       3853       3852       3962       3963       3974       3973  
      3842       3843       3854       3853       3963       3964       3975       3974  
      3843       3844       3855       3854       3964       3965       3976       3975  
      3844       3845       3856       3855       3965       3966       3977       3976  
      3845       3846       3857       3856       3966       3967       3978       3977  
      3846       3847       3858       3857       3967       3968       3979       3978  
      3847       3848       3859       3858       3968       3969       3980       3979  
      3848       3849       3860       3859       3969       3970       3981       3980  
      3849       3850       3861       3860       3970       3971       3982       3981  
      3851       3852       3863       3862       3972       3973       3984       3983  
      3852       3853       3864       3863       3973       3974       3985       3984  
      3853       3854       3865       3864       3974       3975       3986       3985  
      3854       3855       3866       3865       3975       3976       3987       3986  
      3855       3856       3867       3866       3976       3977       3988       3987  
      3856       3857       3868       3867       3977       3978       3989       3988  
      3857       3858       3869       3868       3978       3979       3990       3989  
      3858       3859       3870       3869       3979       3980       3991       3990  
      3859       3860       3871       3870       3980       3981       3992       3991  
      3860       3861       3872       3871       3981       3982       3993       3992  
      3873       3874       3885       3884       3994       3995       4006       4005  
      3874       3875       3886       3885       3995       3996       4007       4006  
      3875       3876       3887       3886       3996       3997       4008       4007  
      3876       3877       3888       3887       3997       3998       4009       4008  
      3877       3878       3889       3888       3998       3999       4010       4009  
      3878       3879       3890       3889       3999       4000       4011       4010  
      3879       3880       3891       3890       4000       4001       4012       4011  
      3880       3881       3892       3891       4001       4002       4013       4012  
      3881       3882       3893       3892       4002       4003       4014       4013  
      3882       3883       3894       3893       4003       4004       4015       4014  
      3884       3885       3896       3895       4005       4006       4017       4016  
      3885       3886       3897       3896       4006       4007       4018       4017  
      3886       3887       3898       3897       4007       4008       4019       4018  
      3887       3888       3899       3898       4008       4009       4020       4019  
      3888       3889       3900       3899       4009       4010       4021       4020  
      3889       3890       3901       3900       4010       4011       4022       4021  
      3890       3891       3902       3901       4011       4012       4023       4022  
      3891       3892       3903       3902       4012       4013       4024       4023  
      3892       3893       3904       3903       4013       4014       4025       4024  
      3893       3894       3905       3904       4014       4015       4026       4025  
      3895       3896       3907       3906       4016       4017       4028       4027  
      3896       3897       3908       3907       4017       4018       4029       4028  
      3897       3898       3909       3908       4018       4019       4030       4029  
      3898       3899       3910       3909       4019       4020       4031       4030  
      3899       3900       3911       3910       4020       4021       4032       4031  
      3900       3901       3912       3911       4021       4022       4033       4032  
      3901       3902       3913       3912       4022       4023       4034       4033  
      3902       3903       3914       3913       4023       4024       4035       4034  
      3903       3904       3915       3914       4024       4025       4036       4035  
      3904       3905       3916       3915       4025       4026       4037       4036  
      3906       3907       3918       3917       4027       4028       4039       4038  
      3907       3908       3919       3918       4028       4029       4040       4039  
      3908       3909       3920       3919       4029       4030       4041       4040  
      3909       3910       3921       3920       4030       4031       4042       4041  
      3910       3911       3922       3921       4031       4032       4043       4042  
      3911       3912       3923       3922       4032       4033       4044       4043  
      3912       3913       3924       3923       4033       4034       4045       4044  
      3913       3914       3925       3924       4034       4035       4046       4045  
      3914       3915       3926       3925       4035       4036       4047       4046  
      3915       3916       3927       3926       4036       4037       4048       4047  
      3917       3918       3929       3928       4038       4039       4050       4049  
      3918       3919       3930       3929       4039       4040       4051       4050  
      3919       3920       3931       3930       4040       4041       4052       4051  
      3920       3921       3932       3931       4041       4042       4053       4052  
      3921       3922       3933       3932       4042       4043       4054       4053  
      3922       3923       3934       3933       4043       4044       4055       4054  
      3923       3924       3935       3934       4044       4045       4056       4055  
      3924       3925       3936       3935       4045       4046       4057       4056  
      3925       3926       3937       3936       4046       4047       4058       4057  
      3926       3927       3938       3937       4047       4048       4059       4058  
      3928       3929       3940       3939       4049       4050       4061       4060  
      3929       3930       3941       3940       4050       4051       4062       4061  
      3930       3931       3942       3941       4051       4052       4063       4062  
      3931       3932       3943       3942       4052       4053       4064       4063  
      3932       3933       3944       3943       4053       4054       4065       4064  
      3933       3934       3945       3944       4054       4055       4066       4065  
      3934       3935       3946       3945       4055       4056       4067       4066  
      3935       3936       3947       3946       4056       4057       4068       4067  
      3936       3937       3948       3947       4057       4058       4069       4068  
      3937       3938       3949       3948       4058       4059       4070       4069  
      3939       3940       3951       3950       4060       4061       4072       4071  
      3940       3941       3952       3951       4061       4062       4073       4072  
      3941       3942       3953       3952       4062       4063       4074       4073  
      3942       3943       3954       3953       4063       4064       4075       4074  
      3943       3944       3955       3954       4064       4065       4076       4075  
      3944       3945       3956       3955       4065       4066       4077       4076  
      3945       3946       3957       3956       4066       4067       4078       4077  
      3946       3947       3958       3957       4067       4068       4079       4078  
      3947       3948       3959       3958       4068       4069       4080       4079  
      3948       3949       3960       3959       4069       4070       4081       4080  
      3950       3951       3962       3961       4071       4072       4083       4082  
      3951       3952       3963       3962       4072       4073       4084       4083  
      3952       3953       3964       3963       4073       4074       4085       4084  
      3953       3954       3965       3964       4074       4075       4086       4085  
      3954       3955       3966       3965       4075       4076       4087       4086  
      3955       3956       3967       3966       4076       4077       4088       4087  
      3956       3957       3968       3967       4077       4078       4089       4088  
      3957       3958       3969       3968       4078       4079       4090       4089  
      3958       3959       3970       3969       4079       4080       4091       4090  
      3959       3960       3971       3970       4080       4081       4092       4091  
      3961       3962       3973       3972       4082       4083       4094       4093  
      3962       3963       3974       3973       4083       4084       4095       4094  
      3963       3964       3975       3974       4084       4085       4096       4095  
      3964       3965       3976       3975       4085       4086       4097       4096  
      3965       3966       3977       3976       4086       4087       4098       4097  
      3966       3967       3978       3977       4087       4088       4099       4098  
      3967       3968       3979       3978       4088       4089       4100       4099  
      3968       3969       3980       3979       4089       4090       4101       4100  
      3969       3970       3981       3980       4090       4091       4102       4101  
      3970       3971       3982       3981       4091       4092       4103       4102  
      3972       3973       3984       3983       4093       4094       4105       4104  
      3973       3974       3985       3984       4094       4095       4106       4105  
      3974       3975       3986       3985       4095       4096       4107       4106  
      3975       3976       3987       3986       4096       4097       4108       4107  
      3976       3977       3988       3987       4097       4098       4109       4108  
      3977       3978       3989       3988       4098       4099       4110       4109  
      3978       3979       3990       3989       4099       4100       4111       4110  
      3979       3980       3991       3990       4100       4101       4112       4111  
      3980       3981       3992       3991       4101       4102       4113       4112  
      3981       3982       3993       3992       4102       4103       4114       4113  
      3994       3995       4006       4005       4115       4116       4127       4126  
      3995       3996       4007       4006       4116       4117       4128       4127  
      3996       3997       4008       4007       4117       4118       4129       4128  
      3997       3998       4009       4008       4118       4119       4130       4129  
      3998       3999       4010       4009       4119       4120       4131       4130  
      3999       4000       4011       4010       4120       4121       4132       4131  
      4000       4001       4012       4011       4121       4122       4133       4132  
      4001       4002       4013       4012       4122       4123       4134       4133  
      4002       4003       4014       4013       4123       4124       4135       4134  
      4003       4004       4015       4014       4124       4125       4136       4135  
      4005       4006       4017       4016       4126       4127       4138       4137  
      4006       4007       4018       4017       4127       4128       4139       4138  
      4007       4008       4019       4018       4128       4129       4140       4139  
      4008       4009       4020       4019       4129       4130       4141       4140  
      4009       4010       4021       4020       4130       4131       4142       4141  
      4010       4011       4022       4021       4131       4132       4143       4142  
      4011       4012       4023       4022       4132       4133       4144       4143  
      4012       4013       4024       4023       4133       4134       4145       4144  
      4013       4014       4025       4024       4134       4135       4146       4145  
      4014       4015       4026       4025       4135       4136       4147       4146  
      4016       4017       4028       4027       4137       4138       4149       4148  
      4017       4018       4029       4028       4138       4139       4150       4149  
      4018       4019       4030       4029       4139       4140       4151       4150  
      4019       4020       4031       4030       4140       4141       4152       4151  
      4020       4021       4032       4031       4141       4142       4153       4152  
      4021       4022       4033       4032       4142       4143       4154       4153  
      4022       4023       4034       4033       4143       4144       4155       4154  
      4023       4024       4035       4034       4144       4145       4156       4155  
      4024       4025       4036       4035       4145       4146       4157       4156  
      4025       4026       4037       4036       4146       4147       4158       4157  
      4027       4028       4039       4038       4148       4149       4160       4159  
      4028       4029       4040       4039       4149       4150       4161       4160  
      4029       4030       4041       4040       4150       4151       4162       4161  
      4030       4031       4042       4041       4151       4152       4163       4162  
      4031       4032       4043       4042       4152       4153       4164       4163  
      4032       4033       4044       4043       4153       4154       4165       4164  
      4033       4034       4045       4044       4154       4155       4166       4165  
      4034       4035       4046       4045       4155       4156       4167       4166  
      4035       4036       4047       4046       4156       4157       4168       4167  
      4036       4037       4048       4047       4157       4158       4169       4168  
      4038       4039       4050       4049       4159       4160       4171       4170  
      4039       4040       4051       4050       4160       4161       4172       4171  
      4040       4041       4052       4051       4161       4162       4173       4172  
      4041       4042       4053       4052       4162       4163       4174       4173  
      4042       4043       4054       4053       4163       4164       4175       4174  
      4043       4044       4055       4054       4164       4165       4176       4175  
      4044       4045       4056       4055       4165       4166       4177       4176  
      4045       4046       4057       4056       4166       4167       4178       4177  
      4046       4047       4058       4057       4167       4168       4179       4178  
      4047       4048       4059       4058       4168       4169       4180       4179  
      4049       4050       4061       4060       4170       4171       4182       4181  
      4050       4051       4062       4061       4171       4172       4183       4182  
      4051       4052       4063       4062       4172       4173       4184       4183  
      4052       4053       4064       4063       4173       4174       4185       4184  
      4053       4054       4065       4064       4174       4175       4186       4185  
      4054       4055       4066       4065       4175       4176       4187       4186  
      4055       4056       4067       4066       4176       4177       4188       4187  
      4056       4057       4068       4067       4177       4178       4189       4188  
      4057       4058       4069       4068       4178       4179       4190       4189  
      4058       4059       4070       4069       4179       4180       4191       4190  
      4060       4061       4072       4071       4181       4182       4193       4192  
      4061       4062       4073       4072       4182       4183       4194       4193  
      4062       4063       4074       4073       4183       4184       4195       4194  
      4063       4064       4075       4074       4184       4185       4196       4195  
      4064       4065       4076       4075       4185       4186       4197       4196  
      4065       4066       4077       4076       4186       4187       4198       4197  
      4066       4067       4078       4077       4187       4188       4199       4198  
      4067       4068       4079       4078       4188       4189       4200       4199  
      4068       4069       4080       4079       4189       4190       4201       4200  
      4069       4070       4081       4080       4190       4191       4202       4201  
      4071       4072       4083       4082       4192       4193       4204       4203  
      4072       4073       4084       4083       4193       4194       4205       4204  
      4073       4074       4085       4084       4194       4195       4206       4205  
      4074       4075       4086       4085       4195       4196       4207       4206  
      4075       4076       4087       4086       4196       4197       4208       4207  
      4076       4077       4088       4087       4197       4198       4209       4208  
      4077       4078       4089       4088       4198       4199       4210       4209  
      4078       4079       4090       4089       4199       4200       4211       4210  
      4079       4080       4091       4090       4200       4201       4212       4211  
      4080       4081       4092       4091       4201       4202       4213       4212  
      4082       4083       4094       4093       4203       4204       4215       4214  
      4083       4084       4095       4094       4204       4205       4216       4215  
      4084       4085       4096       4095       4205       4206       4217       4216  
      4085       4086       4097       4096       4206       4207       4218       4217  
      4086       4087       4098       4097       4207       4208       4219       4218  
      4087       4088       4099       4098       4208       4209       4220       4219  
      4088       4089       4100       4099       4209       4210       4221       4220  
      4089       4090       4101       4100       4210       4211       4222       4221  
      4090       4091       4102       4101       4211       4212       4223       4222  
      4091       4092       4103       4102       4212       4213       4224       4223  
      4093       4094       4105       4104       4214       4215       4226       4225  
      4094       4095       4106       4105       4215       4216       4227       4226  
      4095       4096       4107       4106       4216       4217       4228       4227  
      4096       4097       4108       4107       4217       4218       4229       4228  
      4097       4098       4109       4108       4218       4219       4230       4229  
      4098       4099       4110       4109       4219       4220       4231       4230  
      4099       4100       4111       4110       4220       4221       4232       4231  
      4100       4101       4112       4111       4221       4222       4233       4232  
      4101       4102       4113       4112       4222       4223       4234       4233  
      4102       4103       4114       4113       4223       4224       4235       4234  
      4115       4116       4127       4126       4236       4237       4248       4247  
      4116       4117       4128       4127       4237       4238       4249       4248  
      4117       4118       4129       4128       4238       4239       4250       4249  
      4118       4119       4130       4129       4239       4240       4251       4250  
      4119       4120       4131       4130       4240       4241       4252       4251  
      4120       4121       4132       4131       4241       4242       4253       4252  
      4121       4122       4133       4132       4242       4243       4254       4253  
      4122       4123       4134       4133       4243       4244       4255       4254  
      4123       4124       4135       4134       4244       4245       4256       4255  
      4124       4125       4136       4135       4245       4246       4257       4256  
      4126       4127       4138       4137       4247       4248       4259       4258  
      4127       4128       4139       4138       4248       4249       4260       4259  
      4128       4129       4140       4139       4249       4250       4261       4260  
      4129       4130       4141       4140       4250       4251       4262       4261  
      4130       4131       4142       4141       4251       4252       4263       4262  
      4131       4132       4143       4142       4252       4253       4264       4263  
      4132       4133       4144       4143       4253       4254       4265       4264  
      4133       4134       4145       4144       4254       4255       4266       4265  
      4134       4135       4146       4145       4255       4256       4267       4266  
      4135       4136       4147       4146       4256       4257       4268       4267  
      4137       4138       4149       4148       4258       4259       4270       4269  
      4138       4139       4150       4149       4259       4260       4271       4270  
      4139       4140       4151       4150       4260       4261       4272       4271  
      4140       4141       4152       4151       4261       4262       4273       4272  
      4141       4142       4153       4152       4262       4263       4274       4273  
      4142       4143       4154       4153       4263       4264       4275       4274  
      4143       4144       4155       4154       4264       4265       4276       4275  
      4144       4145       4156       4155       4265       4266       4277       4276  
      4145       4146       4157       4156       4266       4267       4278       4277  
      4146       4147       4158       4157       4267       4268       4279       4278  
      4148       4149       4160       4159       4269       4270       4281       4280  
      4149       4150       4161       4160       4270       4271       4282       4281  
      4150       4151       4162       4161       4271       4272       4283       4282  
      4151       4152       4163       4162       4272       4273       4284       4283  
      4152       4153       4164       4163       4273       4274       4285       4284  
      4153       4154       4165       4164       4274       4275       4286       4285  
      4154       4155       4166       4165       4275       4276       4287       4286  
      4155       4156       4167       4166       4276       4277       4288       4287  
      4156       4157       4168       4167       4277       4278       4289       4288  
      4157       4158       4169       4168       4278       4279       4290       4289  
      4159       4160       4171       4170       4280       4281       4292       4291  
      4160       4161       4172       4171       4281       4282       4293       4292  
      4161       4162       4173       4172       4282       4283       4294       4293  
      4162       4163       4174       4173       4283       4284       4295       4294  
      4163       4164       4175       4174       4284       4285       4296       4295  
      4164       4165       4176       4175       4285       4286       4297       4296  
      4165       4166       4177       4176       4286       4287       4298       4297  
      4166       4167       4178       4177       4287       4288       4299       4298  
      4167       4168       4179       4178       4288       4289       4300       4299  
      4168       4169       4180       4179       4289       4290       4301       4300  
      4170       4171       4182       4181       4291       4292       4303       4302  
      4171       4172       4183       4182       4292       4293       4304       4303  
      4172       4173       4184       4183       4293       4294       4305       4304  
      4173       4174       4185       4184       4294       4295       4306       4305  
      4174       4175       4186       4185       4295       4296       4307       4306  
      4175       4176       4187       4186       4296       4297       4308       4307  
      4176       4177       4188       4187       4297       4298       4309       4308  
      4177       4178       4189       4188       4298       4299       4310       4309  
      4178       4179       4190       4189       4299       4300       4311       4310  
      4179       4180       4191       4190       4300       4301       4312       4311  
      4181       4182       4193       4192       4302       4303       4314       4313  
      4182       4183       4194       4193       4303       4304       4315       4314  
      4183       4184       4195       4194       4304       4305       4316       4315  
      4184       4185       4196       4195       4305       4306       4317       4316  
      4185       4186       4197       4196       4306       4307       4318       4317  
      4186       4187       4198       4197       4307       4308       4319       4318  
      4187       4188       4199       4198       4308       4309       4320       4319  
      4188       4189       4200       4199       4309       4310       4321       4320  
      4189       4190       4201       4200       4310       4311       4322       4321  
      4190       4191       4202       4201       4311       4312       4323       4322  
      4192       4193       4204       4203       4313       4314       4325       4324  
      4193       4194       4205       4204       4314       4315       4326       4325  
      4194       4195       4206       4205       4315       4316       4327       4326  
      4195       4196       4207       4206       4316       4317       4328       4327  
      4196       4197       4208       4207       4317       4318       4329       4328  
      4197       4198       4209       4208       4318       4319       4330       4329  
      4198       4199       4210       4209       4319       4320       4331       4330  
      4199       4200       4211       4210       4320       4321       4332       4331  
      4200       4201       4212       4211       4321       4322       4333       4332  
      4201       4202       4213       4212       4322       4323       4334       4333  
      4203       4204       4215       4214       4324       4325       4336       4335  
      4204       4205       4216       4215       4325       4326       4337       4336  
      4205       4206       4217       4216       4326       4327       4338       4337  
      4206       4207       4218       4217       4327       4328       4339       4338  
      4207       4208       4219       4218       4328       4329       4340       4339  
      4208       4209       4220       4219       4329       4330       4341       4340  
      4209       4210       4221       4220       4330       4331       4342       4341  
      4210       4211       4222       4221       4331       4332       4343       4342  
      4211       4212       4223       4222       4332       4333       4344       4343  
      4212       4213       4224       4223       4333       4334       4345       4344  
      4214       4215       4226       4225       4335       4336       4347       4346  
      4215       4216       4227       4226       4336       4337       4348       4347  
      4216       4217       4228       4227       4337       4338       4349       4348  
      4217       4218       4229       4228       4338       4339       4350       4349  
      4218       4219       4230       4229       4339       4340       4351       4350  
      4219       4220       4231       4230       4340       4341       4352       4351  
      4220       4221       4232       4231       4341       4342       4353       4352  
      4221       4222       4233       4232       4342       4343       4354       4353  
      4222       4223       4234       4233       4343       4344       4355       4354  
      4223       4224       4235       4234       4344       4345       4356       4355  
      4236       4237       4248       4247       4357       4358       4369       4368  
      4237       4238       4249       4248       4358       4359       4370       4369  
      4238       4239       4250       4249       4359       4360       4371       4370  
      4239       4240       4251       4250       4360       4361       4372       4371  
      4240       4241       4252       4251       4361       4362       4373       4372  
      4241       4242       4253       4252       4362       4363       4374       4373  
      4242       4243       4254       4253       4363       4364       4375       4374  
      4243       4244       4255       4254       4364       4365       4376       4375  
      4244       4245       4256       4255       4365       4366       4377       4376  
      4245       4246       4257       4256       4366       4367       4378       4377  
      4247       4248       4259       4258       4368       4369       4380       4379  
      4248       4249       4260       4259       4369       4370       4381       4380  
      4249       4250       4261       4260       4370       4371       4382       4381  
      4250       4251       4262       4261       4371       4372       4383       4382  
      4251       4252       4263       4262       4372       4373       4384       4383  
      4252       4253       4264       4263       4373       4374       4385       4384  
      4253       4254       4265       4264       4374       4375       4386       4385  
      4254       4255       4266       4265       4375       4376       4387       4386  
      4255       4256       4267       4266       4376       4377       4388       4387  
      4256       4257       4268       4267       4377       4378       4389       4388  
      4258       4259       4270       4269       4379       4380       4391       4390  
      4259       4260       4271       4270       4380       4381       4392       4391  
      4260       4261       4272       4271       4381       4382       4393       4392  
      4261       4262       4273       4272       4382       4383       4394       4393  
      4262       4263       4274       4273       4383       4384       4395       4394  
      4263       4264       4275       4274       4384       4385       4396       4395  
      4264       4265       4276       4275       4385       4386       4397       4396  
      4265       4266       4277       4276       4386       4387       4398       4397  
      4266       4267       4278       4277       4387       4388       4399       4398  
      4267       4268       4279       4278       4388       4389       4400       4399  
      4269       4270       4281       4280       4390       4391       4402       4401  
      4270       4271       4282       4281       4391       4392       4403       4402  
      4271       4272       4283       4282       4392       4393       4404       4403  
      4272       4273       4284       4283       4393       4394       4405       4404  
      4273       4274       4285       4284       4394       4395       4406       4405  
      4274       4275       4286       4285       4395       4396       4407       4406  
      4275       4276       4287       4286       4396       4397       4408       4407  
      4276       4277       4288       4287       4397       4398       4409       4408  
      4277       4278       4289       4288       4398       4399       4410       4409  
      4278       4279       4290       4289       4399       4400       4411       4410  
      4280       4281       4292       4291       4401       4402       4413       4412  
      4281       4282       4293       4292       4402       4403       4414       4413  
      4282       4283       4294       4293       4403       4404       4415       4414  
      4283       4284       4295       4294       4404       4405       4416       4415  
      4284       4285       4296       4295       4405       4406       4417       4416  
      4285       4286       4297       4296       4406       4407       4418       4417  
      4286       4287       4298       4297       4407       4408       4419       4418  
      4287       4288       4299       4298       4408       4409       4420       4419  
      4288       4289       4300       4299       4409       4410       4421       4420  
      4289       4290       4301       4300       4410       4411       4422       4421  
      4291       4292       4303       4302       4412       4413       4424       4423  
      4292       4293       4304       4303       4413       4414       4425       4424  
      4293       4294       4305       4304       4414       4415       4426       4425  
      4294       4295       4306       4305       4415       4416       4427       4426  
      4295       4296       4307       4306       4416       4417       4428       4427  
      4296       4297       4308       4307       4417       4418       4429       4428  
      4297       4298       4309       4308       4418       4419       4430       4429  
      4298       4299       4310       4309       4419       4420       4431       4430  
      4299       4300       4311       4310       4420       4421       4432       4431  
      4300       4301       4312       4311       4421       4422       4433       4432  
      4302       4303       4314       4313       4423       4424       4435       4434  
      4303       4304       4315       4314       4424       4425       4436       4435  
      4304       4305       4316       4315       4425       4426       4437       4436  
      4305       4306       4317       4316       4426       4427       4438       4437  
      4306       4307       4318       4317       4427       4428       4439       4438  
      4307       4308       4319       4318       4428       4429       4440       4439  
      4308       4309       4320       4319       4429       4430       4441       4440  
      4309       4310       4321       4320       4430       4431       4442       4441  
      4310       4311       4322       4321       4431       4432       4443       4442  
      4311       4312       4323       4322       4432       4433       4444       4443  
      4313       4314       4325       4324       4434       4435       4446       4445  
      4314       4315       4326       4325       4435       4436       4447       4446  
      4315       4316       4327       4326       4436       4437       4448       4447  
      4316       4317       4328       4327       4437       4438       4449       4448  
      4317       4318       4329       4328       4438       4439       4450       4449  
      4318       4319       4330       4329       4439       4440       4451       4450  
      4319       4320       4331       4330       4440       4441       4452       4451  
      4320       4321       4332       4331       4441       4442       4453       4452  
      4321       4322       4333       4332       4442       4443       4454       4453  
      4322       4323       4334       4333       4443       4444       4455       4454  
      4324       4325       4336       4335       4445       4446       4457       4456  
      4325       4326       4337       4336       4446       4447       4458       4457  
      4326       4327       4338       4337       4447       4448       4459       4458  
      4327       4328       4339       4338       4448       4449       4460       4459  
      4328       4329       4340       4339       4449       4450       4461       4460  
      4329       4330       4341       4340       4450       4451       4462       4461  
      4330       4331       4342       4341       4451       4452       4463       4462  
      4331       4332       4343       4342       4452       4453       4464       4463  
      4332       4333       4344       4343       4453       4454       4465       4464  
      4333       4334       4345       4344       4454       4455       4466       4465  
      4335       4336       4347       4346       4456       4457       4468       4467  
      4336       4337       4348       4347       4457       4458       4469       4468  
      4337       4338       4349       4348       4458       4459       4470       4469  
      4338       4339       4350       4349       4459       4460       4471       4470  
      4339       4340       4351       4350       4460       4461       4472       4471  
      4340       4341       4352       4351       4461       4462       4473       4472  
      4341       4342       4353       4352       4462       4463       4474       4473  
      4342       4343       4354       4353       4463       4464       4475       4474  
      4343       4344       4355       4354       4464       4465       4476       4475  
      4344       4345       4356       4355       4465       4466       4477       4476  
      4357       4358       4369       4368       4478       4479       4490       4489  
      4358       4359       4370       4369       4479       4480       4491       4490  
      4359       4360       4371       4370       4480       4481       4492       4491  
      4360       4361       4372       4371       4481       4482       4493       4492  
      4361       4362       4373       4372       4482       4483       4494       4493  
      4362       4363       4374       4373       4483       4484       4495       4494  
      4363       4364       4375       4374       4484       4485       4496       4495  
      4364       4365       4376       4375       4485       4486       4497       4496  
      4365       4366       4377       4376       4486       4487       4498       4497  
      4366       4367       4378       4377       4487       4488       4499       4498  
      4368       4369       4380       4379       4489       4490       4501       4500  
      4369       4370       4381       4380       4490       4491       4502       4501  
      4370       4371       4382       4381       4491       4492       4503       4502  
      4371       4372       4383       4382       4492       4493       4504       4503  
      4372       4373       4384       4383       4493       4494       4505       4504  
      4373       4374       4385       4384       4494       4495       4506       4505  
      4374       4375       4386       4385       4495       4496       4507       4506  
      4375       4376       4387       4386       4496       4497       4508       4507  
      4376       4377       4388       4387       4497       4498       4509       4508  
      4377       4378       4389       4388       4498       4499       4510       4509  
      4379       4380       4391       4390       4500       4501       4512       4511  
      4380       4381       4392       4391       4501       4502       4513       4512  
      4381       4382       4393       4392       4502       4503       4514       4513  
      4382       4383       4394       4393       4503       4504       4515       4514  
      4383       4384       4395       4394       4504       4505       4516       4515  
      4384       4385       4396       4395       4505       4506       4517       4516  
      4385       4386       4397       4396       4506       4507       4518       4517  
      4386       4387       4398       4397       4507       4508       4519       4518  
      4387       4388       4399       4398       4508       4509       4520       4519  
      4388       4389       4400       4399       4509       4510       4521       4520  
      4390       4391       4402       4401       4511       4512       4523       4522  
      4391       4392       4403       4402       4512       4513       4524       4523  
      4392       4393       4404       4403       4513       4514       4525       4524  
      4393       4394       4405       4404       4514       4515       4526       4525  
      4394       4395       4406       4405       4515       4516       4527       4526  
      4395       4396       4407       4406       4516       4517       4528       4527  
      4396       4397       4408       4407       4517       4518       4529       4528  
      4397       4398       4409       4408       4518       4519       4530       4529  
      4398       4399       4410       4409       4519       4520       4531       4530  
      4399       4400       4411       4410       4520       4521       4532       4531  
      4401       4402       4413       4412       4522       4523       4534       4533  
      4402       4403       4414       4413       4523       4524       4535       4534  
      4403       4404       4415       4414       4524       4525       4536       4535  
      4404       4405       4416       4415       4525       4526       4537       4536  
      4405       4406       4417       4416       4526       4527       4538       4537  
      4406       4407       4418       4417       4527       4528       4539       4538  
      4407       4408       4419       4418       4528       4529       4540       4539  
      4408       4409       4420       4419       4529       4530       4541       4540  
      4409       4410       4421       4420       4530       4531       4542       4541  
      4410       4411       4422       4421       4531       4532       4543       4542  
      4412       4413       4424       4423       4533       4534       4545       4544  
      4413       4414       4425       4424       4534       4535       4546       4545  
      4414       4415       4426       4425       4535       4536       4547       4546  
      4415       4416       4427       4426       4536       4537       4548       4547  
      4416       4417       4428       4427       4537       4538       4549       4548  
      4417       4418       4429       4428       4538       4539       4550       4549  
      4418       4419       4430       4429       4539       4540       4551       4550  
      4419       4420       4431       4430       4540       4541       4552       4551  
      4420       4421       4432       4431       4541       4542       4553       4552  
      4421       4422       4433       4432       4542       4543       4554       4553  
      4423       4424       4435       4434       4544       4545       4556       4555  
      4424       4425       4436       4435       4545       4546       4557       4556  
      4425       4426       4437       4436       4546       4547       4558       4557  
      4426       4427       4438       4437       4547       4548       4559       4558  
      4427       4428       4439       4438       4548       4549       4560       4559  
      4428       4429       4440       4439       4549       4550       4561       4560  
      4429       4430       4441       4440       4550       4551       4562       4561  
      4430       4431       4442       4441       4551       4552       4563       4562  
      4431       4432       4443       4442       4552       4553       4564       4563  
      4432       4433       4444       4443       4553       4554       4565       4564  
      4434       4435       4446       4445       4555       4556       4567       4566  
      4435       4436       4447       4446       4556       4557       4568       4567  
      4436       4437       4448       4447       4557       4558       4569       4568  
      4437       4438       4449       4448       4558       4559       4570       4569  
      4438       4439       4450       4449       4559       4560       4571       4570  
      4439       4440       4451       4450       4560       4561       4572       4571  
      4440       4441       4452       4451       4561       4562       4573       4572  
      4441       4442       4453       4452       4562       4563       4574       4573  
      4442       4443       4454       4453       4563       4564       4575       4574  
      4443       4444       4455       4454       4564       4565       4576       4575  
      4445       4446       4457       4456       4566       4567       4578       4577  
      4446       4447       4458       4457       4567       4568       4579       4578  
      4447       4448       4459       4458       4568       4569       4580       4579  
      4448       4449       4460       4459       4569       4570       4581       4580  
      4449       4450       4461       4460       4570       4571       4582       4581  
      4450       4451       4462       4461       4571       4572       4583       4582  
      4451       4452       4463       4462       4572       4573       4584       4583  
      4452       4453       4464       4463       4573       4574       4585       4584  
      4453       4454       4465       4464       4574       4575       4586       4585  
      4454       4455       4466       4465       4575       4576       4587       4586  
      4456       4457       4468       4467       4577       4578       4589       4588  
      4457       4458       4469       4468       4578       4579       4590       4589  
      4458       4459       4470       4469       4579       4580       4591       4590  
      4459       4460       4471       4470       4580       4581       4592       4591  
      4460       4461       4472       4471       4581       4582       4593       4592  
      4461       4462       4473       4472       4582       4583       4594       4593  
      4462       4463       4474       4473       4583       4584       4595       4594  
      4463       4464       4475       4474       4584       4585       4596       4595  
      4464       4465       4476       4475       4585       4586       4597       4596  
      4465       4466       4477       4476       4586       4587       4598       4597  
      4478       4479       4490       4489       4599       4600       4611       4610  
      4479       4480       4491       4490       4600       4601       4612       4611  
      4480       4481       4492       4491       4601       4602       4613       4612  
      4481       4482       4493       4492       4602       4603       4614       4613  
      4482       4483       4494       4493       4603       4604       4615       4614  
      4483       4484       4495       4494       4604       4605       4616       4615  
      4484       4485       4496       4495       4605       4606       4617       4616  
      4485       4486       4497       4496       4606       4607       4618       4617  
      4486       4487       4498       4497       4607       4608       4619       4618  
      4487       4488       4499       4498       4608       4609       4620       4619  
      4489       4490       4501       4500       4610       4611       4622       4621  
      4490       4491       4502       4501       4611       4612       4623       4622  
      4491       4492       4503       4502       4612       4613       4624       4623  
      4492       4493       4504       4503       4613       4614       4625       4624  
      4493       4494       4505       4504       4614       4615       4626       4625  
      4494       4495       4506       4505       4615       4616       4627       4626  
      4495       4496       4507       4506       4616       4617       4628       4627  
      4496       4497       4508       4507       4617       4618       4629       4628  
      4497       4498       4509       4508       4618       4619       4630       4629  
      4498       4499       4510       4509       4619       4620       4631       4630  
      4500       4501       4512       4511       4621       4622       4633       4632  
      4501       4502       4513       4512       4622       4623       4634       4633  
      4502       4503       4514       4513       4623       4624       4635       4634  
      4503       4504       4515       4514       4624       4625       4636       4635  
      4504       4505       4516       4515       4625       4626       4637       4636  
      4505       4506       4517       4516       4626       4627       4638       4637  
      4506       4507       4518       4517       4627       4628       4639       4638  
      4507       4508       4519       4518       4628       4629       4640       4639  
      4508       4509       4520       4519       4629       4630       4641       4640  
      4509       4510       4521       4520       4630       4631       4642       4641  
      4511       4512       4523       4522       4632       4633       4644       4643  
      4512       4513       4524       4523       4633       4634       4645       4644  
      4513       4514       4525       4524       4634       4635       4646       4645  
      4514       4515       4526       4525       4635       4636       4647       4646  
      4515       4516       4527       4526       4636       4637       4648       4647  
      4516       4517       4528       4527       4637       4638       4649       4648  
      4517       4518       4529       4528       4638       4639       4650       4649  
      4518       4519       4530       4529       4639       4640       4651       4650  
      4519       4520       4531       4530       4640       4641       4652       4651  
      4520       4521       4532       4531       4641       4642       4653       4652  
      4522       4523       4534       4533       4643       4644       4655       4654  
      4523       4524       4535       4534       4644       4645       4656       4655  
      4524       4525       4536       4535       4645       4646       4657       4656  
      4525       4526       4537       4536       4646       4647       4658       4657  
      4526       4527       4538       4537       4647       4648       4659       4658  
      4527       4528       4539       4538       4648       4649       4660       4659  
      4528       4529       4540       4539       4649       4650       4661       4660  
      4529       4530       4541       4540       4650       4651       4662       4661  
      4530       4531       4542       4541       4651       4652       4663       4662  
      4531       4532       4543       4542       4652       4653       4664       4663  
      4533       4534       4545       4544       4654       4655       4666       4665  
      4534       4535       4546       4545       4655       4656       4667       4666  
      4535       4536       4547       4546       4656       4657       4668       4667  
      4536       4537       4548       4547       4657       4658       4669       4668  
      4537       4538       4549       4548       4658       4659       4670       4669  
      4538       4539       4550       4549       4659       4660       4671       4670  
      4539       4540       4551       4550       4660       4661       4672       4671  
      4540       4541       4552       4551       4661       4662       4673       4672  
      4541       4542       4553       4552       4662       4663       4674       4673  
      4542       4543       4554       4553       4663       4664       4675       4674  
      4544       4545       4556       4555       4665       4666       4677       4676  
      4545       4546       4557       4556       4666       4667       4678       4677  
      4546       4547       4558       4557       4667       4668       4679       4678  
      4547       4548       4559       4558       4668       4669       4680       4679  
      4548       4549       4560       4559       4669       4670       4681       4680  
      4549       4550       4561       4560       4670       4671       4682       4681  
      4550       4551       4562       4561       4671       4672       4683       4682  
      4551       4552       4563       4562       4672       4673       4684       4683  
      4552       4553       4564       4563       4673       4674       4685       4684  
      4553       4554       4565       4564       4674       4675       4686       4685  
      4555       4556       4567       4566       4676       4677       4688       4687  
      4556       4557       4568       4567       4677       4678       4689       4688  
      4557       4558       4569       4568       4678       4679       4690       4689  
      4558       4559       4570       4569       4679       4680       4691       4690  
      4559       4560       4571       4570       4680       4681       4692       4691  
      4560       4561       4572       4571       4681       4682       4693       4692  
      4561       4562       4573       4572       4682       4683       4694       4693  
      4562       4563       4574       4573       4683       4684       4695       4694  
      4563       4564       4575       4574       4684       4685       4696       4695  
      4564       4565       4576       4575       4685       4686       4697       4696  
      4566       4567       4578       4577       4687       4688       4699       4698  
      4567       4568       4579       4578       4688       4689       4700       4699  
      4568       4569       4580       4579       4689       4690       4701       4700  
      4569       4570       4581       4580       4690       4691       4702       4701  
      4570       4571       4582       4581       4691       4692       4703       4702  
      4571       4572       4583       4582       4692       4693       4704       4703  
      4572       4573       4584       4583       4693       4694       4705       4704  
      4573       4574       4585       4584       4694       4695       4706       4705  
      4574       4575       4586       4585       4695       4696       4707       4706  
      4575       4576       4587       4586       4696       4697       4708       4707  
      4577       4578       4589       4588       4698       4699       4710       4709  
      4578       4579       4590       4589       4699       4700       4711       4710  
      4579       4580       4591       4590       4700       4701       4712       4711  
      4580       4581       4592       4591       4701       4702       4713       4712  
      4581       4582       4593       4592       4702       4703       4714       4713  
      4582       4583       4594       4593       4703       4704       4715       4714  
      4583       4584       4595       4594       4704       4705       4716       4715  
      4584       4585       4596       4595       4705       4706       4717       4716  
      4585       4586       4597       4596       4706       4707       4718       4717  
      4586       4587       4598       4597       4707       4708       4719       4718  
      4599       4600       4611       4610       4720       4721       4732       4731  
      4600       4601       4612       4611       4721       4722       4733       4732  
      4601       4602       4613       4612       4722       4723       4734       4733  
      4602       4603       4614       4613       4723       4724       4735       4734  
      4603       4604       4615       4614       4724       4725       4736       4735  
      4604       4605       4616       4615       4725       4726       4737       4736  
      4605       4606       4617       4616       4726       4727       4738       4737  
      4606       4607       4618       4617       4727       4728       4739       4738  
      4607       4608       4619       4618       4728       4729       4740       4739  
      4608       4609       4620       4619       4729       4730       4741       4740  
      4610       4611       4622       4621       4731       4732       4743       4742  
      4611       4612       4623       4622       4732       4733       4744       4743  
      4612       4613       4624       4623       4733       4734       4745       4744  
      4613       4614       4625       4624       4734       4735       4746       4745  
      4614       4615       4626       4625       4735       4736       4747       4746  
      4615       4616       4627       4626       4736       4737       4748       4747  
      4616       4617       4628       4627       4737       4738       4749       4748  
      4617       4618       4629       4628       4738       4739       4750       4749  
      4618       4619       4630       4629       4739       4740       4751       4750  
      4619       4620       4631       4630       4740       4741       4752       4751  
      4621       4622       4633       4632       4742       4743       4754       4753  
      4622       4623       4634       4633       4743       4744       4755       4754  
      4623       4624       4635       4634       4744       4745       4756       4755  
      4624       4625       4636       4635       4745       4746       4757       4756  
      4625       4626       4637       4636       4746       4747       4758       4757  
      4626       4627       4638       4637       4747       4748       4759       4758  
      4627       4628       4639       4638       4748       4749       4760       4759  
      4628       4629       4640       4639       4749       4750       4761       4760  
      4629       4630       4641       4640       4750       4751       4762       4761  
      4630       4631       4642       4641       4751       4752       4763       4762  
      4632       4633       4644       4643       4753       4754       4765       4764  
      4633       4634       4645       4644       4754       4755       4766       4765  
      4634       4635       4646       4645       4755       4756       4767       4766  
      4635       4636       4647       4646       4756       4757       4768       4767  
      4636       4637       4648       4647       4757       4758       4769       4768  
      4637       4638       4649       4648       4758       4759       4770       4769  
      4638       4639       4650       4649       4759       4760       4771       4770  
      4639       4640       4651       4650       4760       4761       4772       4771  
      4640       4641       4652       4651       4761       4762       4773       4772  
      4641       4642       4653       4652       4762       4763       4774       4773  
      4643       4644       4655       4654       4764       4765       4776       4775  
      4644       4645       4656       4655       4765       4766       4777       4776  
      4645       4646       4657       4656       4766       4767       4778       4777  
      4646       4647       4658       4657       4767       4768       4779       4778  
      4647       4648       4659       4658       4768       4769       4780       4779  
      4648       4649       4660       4659       4769       4770       4781       4780  
      4649       4650       4661       4660       4770       4771       4782       4781  
      4650       4651       4662       4661       4771       4772       4783       4782  
      4651       4652       4663       4662       4772       4773       4784       4783  
      4652       4653       4664       4663       4773       4774       4785       4784  
      4654       4655       4666       4665       4775       4776       4787       4786  
      4655       4656       4667       4666       4776       4777       4788       4787  
      4656       4657       4668       4667       4777       4778       4789       4788  
      4657       4658       4669       4668       4778       4779       4790       4789  
      4658       4659       4670       4669       4779       4780       4791       4790  
      4659       4660       4671       4670       4780       4781       4792       4791  
      4660       4661       4672       4671       4781       4782       4793       4792  
      4661       4662       4673       4672       4782       4783       4794       4793  
      4662       4663       4674       4673       4783       4784       4795       4794  
      4663       4664       4675       4674       4784       4785       4796       4795  
      4665       4666       4677       4676       4786       4787       4798       4797  
      4666       4667       4678       4677       4787       4788       4799       4798  
      4667       4668       4679       4678       4788       4789       4800       4799  
      4668       4669       4680       4679       4789       4790       4801       4800  
      4669       4670       4681       4680       4790       4791       4802       4801  
      4670       4671       4682       4681       4791       4792       4803       4802  
      4671       4672       4683       4682       4792       4793       4804       4803  
      4672       4673       4684       4683       4793       4794       4805       4804  
      4673       4674       4685       4684       4794       4795       4806       4805  
      4674       4675       4686       4685       4795       4796       4807       4806  
      4676       4677       4688       4687       4797       4798       4809       4808  
      4677       4678       4689       4688       4798       4799       4810       4809  
      4678       4679       4690       4689       4799       4800       4811       4810  
      4679       4680       4691       4690       4800       4801       4812       4811  
      4680       4681       4692       4691       4801       4802       4813       4812  
      4681       4682       4693       4692       4802       4803       4814       4813  
      4682       4683       4694       4693       4803       4804       4815       4814  
      4683       4684       4695       4694       4804       4805       4816       4815  
      4684       4685       4696       4695       4805       4806       4817       4816  
      4685       4686       4697       4696       4806       4807       4818       4817  
      4687       4688       4699       4698       4808       4809       4820       4819  
      4688       4689       4700       4699       4809       4810       4821       4820  
      4689       4690       4701       4700       4810       4811       4822       4821  
      4690       4691       4702       4701       4811       4812       4823       4822  
      4691       4692       4703       4702       4812       4813       4824       4823  
      4692       4693       4704       4703       4813       4814       4825       4824  
      4693       4694       4705       4704       4814       4815       4826       4825  
      4694       4695       4706       4705       4815       4816       4827       4826  
      4695       4696       4707       4706       4816       4817       4828       4827  
      4696       4697       4708       4707       4817       4818       4829       4828  
      4698       4699       4710       4709       4819       4820       4831       4830  
      4699       4700       4711       4710       4820       4821       4832       4831  
      4700       4701       4712       4711       4821       4822       4833       4832  
      4701       4702       4713       4712       4822       4823       4834       4833  
      4702       4703       4714       4713       4823       4824       4835       4834  
      4703       4704       4715       4714       4824       4825       4836       4835  
      4704       4705       4716       4715       4825       4826       4837       4836  
      4705       4706       4717       4716       4826       4827       4838       4837  
      4706       4707       4718       4717       4827       4828       4839       4838  
      4707       4708       4719       4718       4828       4829       4840       4839  
      4720       4721       4732       4731       4841       4842       4853       4852  
      4721       4722       4733       4732       4842       4843       4854       4853  
      4722       4723       4734       4733       4843       4844       4855       4854  
      4723       4724       4735       4734       4844       4845       4856       4855  
      4724       4725       4736       4735       4845       4846       4857       4856  
      4725       4726       4737       4736       4846       4847       4858       4857  
      4726       4727       4738       4737       4847       4848       4859       4858  
      4727       4728       4739       4738       4848       4849       4860       4859  
      4728       4729       4740       4739       4849       4850       4861       4860  
      4729       4730       4741       4740       4850       4851       4862       4861  
      4731       4732       4743       4742       4852       4853       4864       4863  
      4732       4733       4744       4743       4853       4854       4865       4864  
      4733       4734       4745       4744       4854       4855       4866       4865  
      4734       4735       4746       4745       4855       4856       4867       4866  
      4735       4736       4747       4746       4856       4857       4868       4867  
      4736       4737       4748       4747       4857       4858       4869       4868  
      4737       4738       4749       4748       4858       4859       4870       4869  
      4738       4739       4750       4749       4859       4860       4871       4870  
      4739       4740       4751       4750       4860       4861       4872       4871  
      4740       4741       4752       4751       4861       4862       4873       4872  
      4742       4743       4754       4753       4863       4864       4875       4874  
      4743       4744       4755       4754       4864       4865       4876       4875  
      4744       4745       4756       4755       4865       4866       4877       4876  
      4745       4746       4757       4756       4866       4867       4878       4877  
      4746       4747       4758       4757       4867       4868       4879       4878  
      4747       4748       4759       4758       4868       4869       4880       4879  
      4748       4749       4760       4759       4869       4870       4881       4880  
      4749       4750       4761       4760       4870       4871       4882       4881  
      4750       4751       4762       4761       4871       4872       4883       4882  
      4751       4752       4763       4762       4872       4873       4884       4883  
      4753       4754       4765       4764       4874       4875       4886       4885  
      4754       4755       4766       4765       4875       4876       4887       4886  
      4755       4756       4767       4766       4876       4877       4888       4887  
      4756       4757       4768       4767       4877       4878       4889       4888  
      4757       4758       4769       4768       4878       4879       4890       4889  
      4758       4759       4770       4769       4879       4880       4891       4890  
      4759       4760       4771       4770       4880       4881       4892       4891  
      4760       4761       4772       4771       4881       4882       4893       4892  
      4761       4762       4773       4772       4882       4883       4894       4893  
      4762       4763       4774       4773       4883       4884       4895       4894  
      4764       4765       4776       4775       4885       4886       4897       4896  
      4765       4766       4777       4776       4886       4887       4898       4897  
      4766       4767       4778       4777       4887       4888       4899       4898  
      4767       4768       4779       4778       4888       4889       4900       4899  
      4768       4769       4780       4779       4889       4890       4901       4900  
      4769       4770       4781       4780       4890       4891       4902       4901  
      4770       4771       4782       4781       4891       4892       4903       4902  
      4771       4772       4783       4782       4892       4893       4904       4903  
      4772       4773       4784       4783       4893       4894       4905       4904  
      4773       4774       4785       4784       4894       4895       4906       4905  
      4775       4776       4787       4786       4896       4897       4908       4907  
      4776       4777       4788       4787       4897       4898       4909       4908  
      4777       4778       4789       4788       4898       4899       4910       4909  
      4778       4779       4790       4789       4899       4900       4911       4910  
      4779       4780       4791       4790       4900       4901       4912       4911  
      4780       4781       4792       4791       4901       4902       4913       4912  
      4781       4782       4793       4792       4902       4903       4914       4913  
      4782       4783       4794       4793       4903       4904       4915       4914  
      4783       4784       4795       4794       4904       4905       4916       4915  
      4784       4785       4796       4795       4905       4906       4917       4916  
      4786       4787       4798       4797       4907       4908       4919       4918  
      4787       4788       4799       4798       4908       4909       4920       4919  
      4788       4789       4800       4799       4909       4910       4921       4920  
      4789       4790       4801       4800       4910       4911       4922       4921  
      4790       4791       4802       4801       4911       4912       4923       4922  
      4791       4792       4803       4802       4912       4913       4924       4923  
      4792       4793       4804       4803       4913       4914       4925       4924  
      4793       4794       4805       4804       4914       4915       4926       4925  
      4794       4795       4806       4805       4915       4916       4927       4926  
      4795       4796       4807       4806       4916       4917       4928       4927  
      4797       4798       4809       4808       4918       4919       4930       4929  
      4798       4799       4810       4809       4919       4920       4931       4930  
      4799       4800       4811       4810       4920       4921       4932       4931  
      4800       4801       4812       4811       4921       4922       4933       4932  
      4801       4802       4813       4812       4922       4923       4934       4933  
      4802       4803       4814       4813       4923       4924       4935       4934  
      4803       4804       4815       4814       4924       4925       4936       4935  
      4804       4805       4816       4815       4925       4926       4937       4936  
      4805       4806       4817       4816       4926       4927       4938       4937  
      4806       4807       4818       4817       4927       4928       4939       4938  
      4808       4809       4820       4819       4929       4930       4941       4940  
      4809       4810       4821       4820       4930       4931       4942       4941  
      4810       4811       4822       4821       4931       4932       4943       4942  
      4811       4812       4823       4822       4932       4933       4944       4943  
      4812       4813       4824       4823       4933       4934       4945       4944  
      4813       4814       4825       4824       4934       4935       4946       4945  
      4814       4815       4826       4825       4935       4936       4947       4946  
      4815       4816       4827       4826       4936       4937       4948       4947  
      4816       4817       4828       4827       4937       4938       4949       4948  
      4817       4818       4829       4828       4938       4939       4950       4949  
      4819       4820       4831       4830       4940       4941       4952       4951  
      4820       4821       4832       4831       4941       4942       4953       4952  
      4821       4822       4833       4832       4942       4943       4954       4953  
      4822       4823       4834       4833       4943       4944       4955       4954  
      4823       4824       4835       4834       4944       4945       4956       4955  
      4824       4825       4836       4835       4945       4946       4957       4956  
      4825       4826       4837       4836       4946       4947       4958       4957  
      4826       4827       4838       4837       4947       4948       4959       4958  
      4827       4828       4839       4838       4948       4949       4960       4959  
      4828       4829       4840       4839       4949       4950       4961       4960  
      4841       4842       4853       4852       4962       4963       4974       4973  
      4842       4843       4854       4853       4963       4964       4975       4974  
      4843       4844       4855       4854       4964       4965       4976       4975  
      4844       4845       4856       4855       4965       4966       4977       4976  
      4845       4846       4857       4856       4966       4967       4978       4977  
      4846       4847       4858       4857       4967       4968       4979       4978  
      4847       4848       4859       4858       4968       4969       4980       4979  
      4848       4849       4860       4859       4969       4970       4981       4980  
      4849       4850       4861       4860       4970       4971       4982       4981  
      4850       4851       4862       4861       4971       4972       4983       4982  
      4852       4853       4864       4863       4973       4974       4985       4984  
      4853       4854       4865       4864       4974       4975       4986       4985  
      4854       4855       4866       4865       4975       4976       4987       4986  
      4855       4856       4867       4866       4976       4977       4988       4987  
      4856       4857       4868       4867       4977       4978       4989       4988  
      4857       4858       4869       4868       4978       4979       4990       4989  
      4858       4859       4870       4869       4979       4980       4991       4990  
      4859       4860       4871       4870       4980       4981       4992       4991  
      4860       4861       4872       4871       4981       4982       4993       4992  
      4861       4862       4873       4872       4982       4983       4994       4993  
      4863       4864       4875       4874       4984       4985       4996       4995  
      4864       4865       4876       4875       4985       4986       4997       4996  
      4865       4866       4877       4876       4986       4987       4998       4997  
      4866       4867       4878       4877       4987       4988       4999       4998  
      4867       4868       4879       4878       4988       4989       5000       4999  
      4868       4869       4880       4879       4989       4990       5001       5000  
      4869       4870       4881       4880       4990       4991       5002       5001  
      4870       4871       4882       4881       4991       4992       5003       5002  
      4871       4872       4883       4882       4992       4993       5004       5003  
      4872       4873       4884       4883       4993       4994       5005       5004  
      4874       4875       4886       4885       4995       4996       5007       5006  
      4875       4876       4887       4886       4996       4997       5008       5007  
      4876       4877       4888       4887       4997       4998       5009       5008  
      4877       4878       4889       4888       4998       4999       5010       5009  
      4878       4879       4890       4889       4999       5000       5011       5010  
      4879       4880       4891       4890       5000       5001       5012       5011  
      4880       4881       4892       4891       5001       5002       5013       5012  
      4881       4882       4893       4892       5002       5003       5014       5013  
      4882       4883       4894       4893       5003       5004       5015       5014  
      4883       4884       4895       4894       5004       5005       5016       5015  
      4885       4886       4897       4896       5006       5007       5018       5017  
      4886       4887       4898       4897       5007       5008       5019       5018  
      4887       4888       4899       4898       5008       5009       5020       5019  
      4888       4889       4900       4899       5009       5010       5021       5020  
      4889       4890       4901       4900       5010       5011       5022       5021  
      4890       4891       4902       4901       5011       5012       5023       5022  
      4891       4892       4903       4902       5012       5013       5024       5023  
      4892       4893       4904       4903       5013       5014       5025       5024  
      4893       4894       4905       4904       5014       5015       5026       5025  
      4894       4895       4906       4905       5015       5016       5027       5026  
      4896       4897       4908       4907       5017       5018       5029       5028  
      4897       4898       4909       4908       5018       5019       5030       5029  
      4898       4899       4910       4909       5019       5020       5031       5030  
      4899       4900       4911       4910       5020       5021       5032       5031  
      4900       4901       4912       4911       5021       5022       5033       5032  
      4901       4902       4913       4912       5022       5023       5034       5033  
      4902       4903       4914       4913       5023       5024       5035       5034  
      4903       4904       4915       4914       5024       5025       5036       5035  
      4904       4905       4916       4915       5025       5026       5037       5036  
      4905       4906       4917       4916       5026       5027       5038       5037  
      4907       4908       4919       4918       5028       5029       5040       5039  
      4908       4909       4920       4919       5029       5030       5041       5040  
      4909       4910       4921       4920       5030       5031       5042       5041  
      4910       4911       4922       4921       5031       5032       5043       5042  
      4911       4912       4923       4922       5032       5033       5044       5043  
      4912       4913       4924       4923       5033       5034       5045       5044  
      4913       4914       4925       4924       5034       5035       5046       5045  
      4914       4915       4926       4925       5035       5036       5047       5046  
      4915       4916       4927       4926       5036       5037       5048       5047  
      4916       4917       4928       4927       5037       5038       5049       5048  
      4918       4919       4930       4929       5039       5040       5051       5050  
      4919       4920       4931       4930       5040       5041       5052       5051  
      4920       4921       4932       4931       5041       5042       5053       5052  
      4921       4922       4933       4932       5042       5043       5054       5053  
      4922       4923       4934       4933       5043       5044       5055       5054  
      4923       4924       4935       4934       5044       5045       5056       5055  
      4924       4925       4936       4935       5045       5046       5057       5056  
      4925       4926       4937       4936       5046       5047       5058       5057  
      4926       4927       4938       4937       5047       5048       5059       5058  
      4927       4928       4939       4938       5048       5049       5060       5059  
      4929       4930       4941       4940       5050       5051       5062       5061  
      4930       4931       4942       4941       5051       5052       5063       5062  
      4931       4932       4943       4942       5052       5053       5064       5063  
      4932       4933       4944       4943       5053       5054       5065       5064  
      4933       4934       4945       4944       5054       5055       5066       5065  
      4934       4935       4946       4945       5055       5056       5067       5066  
      4935       4936       4947       4946       5056       5057       5068       5067  
      4936       4937       4948       4947       5057       5058       5069       5068  
      4937       4938       4949       4948       5058       5059       5070       5069  
      4938       4939       4950       4949       5059       5060       5071       5070  
      4940       4941       4952       4951       5061       5062       5073       5072  
      4941       4942       4953       4952       5062       5063       5074       5073  
      4942       4943       4954       4953       5063       5064       5075       5074  
      4943       4944       4955       4954       5064       5065       5076       5075  
      4944       4945       4956       4955       5065       5066       5077       5076  
      4945       4946       4957       4956       5066       5067       5078       5077  
      4946       4947       4958       4957       5067       5068       5079       5078  
      4947       4948       4959       4958       5068       5069       5080       5079  
      4948       4949       4960       4959       5069       5070       5081       5080  
      4949       4950       4961       4960       5070       5071       5082       5081  
      4962       4963       4974       4973       5083       5084       5095       5094  
      4963       4964       4975       4974       5084       5085       5096       5095  
      4964       4965       4976       4975       5085       5086       5097       5096  
      4965       4966       4977       4976       5086       5087       5098       5097  
      4966       4967       4978       4977       5087       5088       5099       5098  
      4967       4968       4979       4978       5088       5089       5100       5099  
      4968       4969       4980       4979       5089       5090       5101       5100  
      4969       4970       4981       4980       5090       5091       5102       5101  
      4970       4971       4982       4981       5091       5092       5103       5102  
      4971       4972       4983       4982       5092       5093       5104       5103  
      4973       4974       4985       4984       5094       5095       5106       5105  
      4974       4975       4986       4985       5095       5096       5107       5106  
      4975       4976       4987       4986       5096       5097       5108       5107  
      4976       4977       4988       4987       5097       5098       5109       5108  
      4977       4978       4989       4988       5098       5099       5110       5109  
      4978       4979       4990       4989       5099       5100       5111       5110  
      4979       4980       4991       4990       5100       5101       5112       5111  
      4980       4981       4992       4991       5101       5102       5113       5112  
      4981       4982       4993       4992       5102       5103       5114       5113  
      4982       4983       4994       4993       5103       5104       5115       5114  
      4984       4985       4996       4995       5105       5106       5117       5116  
      4985       4986       4997       4996       5106       5107       5118       5117  
      4986       4987       4998       4997       5107       5108       5119       5118  
      4987       4988       4999       4998       5108       5109       5120       5119  
      4988       4989       5000       4999       5109       5110       5121       5120  
      4989       4990       5001       5000       5110       5111       5122       5121  
      4990       4991       5002       5001       5111       5112       5123       5122  
      4991       4992       5003       5002       5112       5113       5124       5123  
      4992       4993       5004       5003       5113       5114       5125       5124  
      4993       4994       5005       5004       5114       5115       5126       5125  
      4995       4996       5007       5006       5116       5117       5128       5127  
      4996       4997       5008       5007       5117       5118       5129       5128  
      4997       4998       5009       5008       5118       5119       5130       5129  
      4998       4999       5010       5009       5119       5120       5131       5130  
      4999       5000       5011       5010       5120       5121       5132       5131  
      5000       5001       5012       5011       5121       5122       5133       5132  
      5001       5002       5013       5012       5122       5123       5134       5133  
      5002       5003       5014       5013       5123       5124       5135       5134  
      5003       5004       5015       5014       5124       5125       5136       5135  
      5004       5005       5016       5015       5125       5126       5137       5136  
      5006       5007       5018       5017       5127       5128       5139       5138  
      5007       5008       5019       5018       5128       5129       5140       5139  
      5008       5009       5020       5019       5129       5130       5141       5140  
      5009       5010       5021       5020       5130       5131       5142       5141  
      5010       5011       5022       5021       5131       5132       5143       5142  
      5011       5012       5023       5022       5132       5133       5144       5143  
      5012       5013       5024       5023       5133       5134       5145       5144  
      5013       5014       5025       5024       5134       5135       5146       5145  
      5014       5015       5026       5025       5135       5136       5147       5146  
      5015       5016       5027       5026       5136       5137       5148       5147  
      5017       5018       5029       5028       5138       5139       5150       5149  
      5018       5019       5030       5029       5139       5140       5151       5150  
      5019       5020       5031       5030       5140       5141       5152       5151  
      5020       5021       5032       5031       5141       5142       5153       5152  
      5021       5022       5033       5032       5142       5143       5154       5153  
      5022       5023       5034       5033       5143       5144       5155       5154  
      5023       5024       5035       5034       5144       5145       5156       5155  
      5024       5025       5036       5035       5145       5146       5157       5156  
      5025       5026       5037       5036       5146       5147       5158       5157  
      5026       5027       5038       5037       5147       5148       5159       5158  
      5028       5029       5040       5039       5149       5150       5161       5160  
      5029       5030       5041       5040       5150       5151       5162       5161  
      5030       5031       5042       5041       5151       5152       5163       5162  
      5031       5032       5043       5042       5152       5153       5164       5163  
      5032       5033       5044       5043       5153       5154       5165       5164  
      5033       5034       5045       5044       5154       5155       5166       5165  
      5034       5035       5046       5045       5155       5156       5167       5166  
      5035       5036       5047       5046       5156       5157       5168       5167  
      5036       5037       5048       5047       5157       5158       5169       5168  
      5037       5038       5049       5048       5158       5159       5170       5169  
      5039       5040       5051       5050       5160       5161       5172       5171  
      5040       5041       5052       5051       5161       5162       5173       5172  
      5041       5042       5053       5052       5162       5163       5174       5173  
      5042       5043       5054       5053       5163       5164       5175       5174  
      5043       5044       5055       5054       5164       5165       5176       5175  
      5044       5045       5056       5055       5165       5166       5177       5176  
      5045       5046       5057       5056       5166       5167       5178       5177  
      5046       5047       5058       5057       5167       5168       5179       5178  
      5047       5048       5059       5058       5168       5169       5180       5179  
      5048       5049       5060       5059       5169       5170       5181       5180  
      5050       5051       5062       5061       5171       5172       5183       5182  
      5051       5052       5063       5062       5172       5173       5184       5183  
      5052       5053       5064       5063       5173       5174       5185       5184  
      5053       5054       5065       5064       5174       5175       5186       5185  
      5054       5055       5066       5065       5175       5176       5187       5186  
      5055       5056       5067       5066       5176       5177       5188       5187  
      5056       5057       5068       5067       5177       5178       5189       5188  
      5057       5058       5069       5068       5178       5179       5190       5189  
      5058       5059       5070       5069       5179       5180       5191       5190  
      5059       5060       5071       5070       5180       5181       5192       5191  
      5061       5062       5073       5072       5182       5183       5194       5193  
      5062       5063       5074       5073       5183       5184       5195       5194  
      5063       5064       5075       5074       5184       5185       5196       5195  
      5064       5065       5076       5075       5185       5186       5197       5196  
      5065       5066       5077       5076       5186       5187       5198       5197  
      5066       5067       5078       5077       5187       5188       5199       5198  
      5067       5068       5079       5078       5188       5189       5200       5199  
      5068       5069       5080       5079       5189       5190       5201       5200  
      5069       5070       5081       5080       5190       5191       5202       5201  
      5070       5071       5082       5081       5191       5192       5203       5202  
      5083       5084       5095       5094       5204       5205       5216       5215  
      5084       5085       5096       5095       5205       5206       5217       5216  
      5085       5086       5097       5096       5206       5207       5218       5217  
      5086       5087       5098       5097       5207       5208       5219       5218  
      5087       5088       5099       5098       5208       5209       5220       5219  
      5088       5089       5100       5099       5209       5210       5221       5220  
      5089       5090       5101       5100       5210       5211       5222       5221  
      5090       5091       5102       5101       5211       5212       5223       5222  
      5091       5092       5103       5102       5212       5213       5224       5223  
      5092       5093       5104       5103       5213       5214       5225       5224  
      5094       5095       5106       5105       5215       5216       5227       5226  
      5095       5096       5107       5106       5216       5217       5228       5227  
      5096       5097       5108       5107       5217       5218       5229       5228  
      5097       5098       5109       5108       5218       5219       5230       5229  
      5098       5099       5110       5109       5219       5220       5231       5230  
      5099       5100       5111       5110       5220       5221       5232       5231  
      5100       5101       5112       5111       5221       5222       5233       5232  
      5101       5102       5113       5112       5222       5223       5234       5233  
      5102       5103       5114       5113       5223       5224       5235       5234  
      5103       5104       5115       5114       5224       5225       5236       5235  
      5105       5106       5117       5116       5226       5227       5238       5237  
      5106       5107       5118       5117       5227       5228       5239       5238  
      5107       5108       5119       5118       5228       5229       5240       5239  
      5108       5109       5120       5119       5229       5230       5241       5240  
      5109       5110       5121       5120       5230       5231       5242       5241  
      5110       5111       5122       5121       5231       5232       5243       5242  
      5111       5112       5123       5122       5232       5233       5244       5243  
      5112       5113       5124       5123       5233       5234       5245       5244  
      5113       5114       5125       5124       5234       5235       5246       5245  
      5114       5115       5126       5125       5235       5236       5247       5246  
      5116       5117       5128       5127       5237       5238       5249       5248  
      5117       5118       5129       5128       5238       5239       5250       5249  
      5118       5119       5130       5129       5239       5240       5251       5250  
      5119       5120       5131       5130       5240       5241       5252       5251  
      5120       5121       5132       5131       5241       5242       5253       5252  
      5121       5122       5133       5132       5242       5243       5254       5253  
      5122       5123       5134       5133       5243       5244       5255       5254  
      5123       5124       5135       5134       5244       5245       5256       5255  
      5124       5125       5136       5135       5245       5246       5257       5256  
      5125       5126       5137       5136       5246       5247       5258       5257  
      5127       5128       5139       5138       5248       5249       5260       5259  
      5128       5129       5140       5139       5249       5250       5261       5260  
      5129       5130       5141       5140       5250       5251       5262       5261  
      5130       5131       5142       5141       5251       5252       5263       5262  
      5131       5132       5143       5142       5252       5253       5264       5263  
      5132       5133       5144       5143       5253       5254       5265       5264  
      5133       5134       5145       5144       5254       5255       5266       5265  
      5134       5135       5146       5145       5255       5256       5267       5266  
      5135       5136       5147       5146       5256       5257       5268       5267  
      5136       5137       5148       5147       5257       5258       5269       5268  
      5138       5139       5150       5149       5259       5260       5271       5270  
      5139       5140       5151       5150       5260       5261       5272       5271  
      5140       5141       5152       5151       5261       5262       5273       5272  
      5141       5142       5153       5152       5262       5263       5274       5273  
      5142       5143       5154       5153       5263       5264       5275       5274  
      5143       5144       5155       5154       5264       5265       5276       5275  
      5144       5145       5156       5155       5265       5266       5277       5276  
      5145       5146       5157       5156       5266       5267       5278       5277  
      5146       5147       5158       5157       5267       5268       5279       5278  
      5147       5148       5159       5158       5268       5269       5280       5279  
      5149       5150       5161       5160       5270       5271       5282       5281  
      5150       5151       5162       5161       5271       5272       5283       5282  
      5151       5152       5163       5162       5272       5273       5284       5283  
      5152       5153       5164       5163       5273       5274       5285       5284  
      5153       5154       5165       5164       5274       5275       5286       5285  
      5154       5155       5166       5165       5275       5276       5287       5286  
      5155       5156       5167       5166       5276       5277       5288       5287  
      5156       5157       5168       5167       5277       5278       5289       5288  
      5157       5158       5169       5168       5278       5279       5290       5289  
      5158       5159       5170       5169       5279       5280       5291       5290  
      5160       5161       5172       5171       5281       5282       5293       5292  
      5161       5162       5173       5172       5282       5283       5294       5293  
      5162       5163       5174       5173       5283       5284       5295       5294  
      5163       5164       5175       5174       5284       5285       5296       5295  
      5164       5165       5176       5175       5285       5286       5297       5296  
      5165       5166       5177       5176       5286       5287       5298       5297  
      5166       5167       5178       5177       5287       5288       5299       5298  
      5167       5168       5179       5178       5288       5289       5300       5299  
      5168       5169       5180       5179       5289       5290       5301       5300  
      5169       5170       5181       5180       5290       5291       5302       5301  
      5171       5172       5183       5182       5292       5293       5304       5303  
      5172       5173       5184       5183       5293       5294       5305       5304  
      5173       5174       5185       5184       5294       5295       5306       5305  
      5174       5175       5186       5185       5295       5296       5307       5306  
      5175       5176       5187       5186       5296       5297       5308       5307  
      5176       5177       5188       5187       5297       5298       5309       5308  
      5177       5178       5189       5188       5298       5299       5310       5309  
      5178       5179       5190       5189       5299       5300       5311       5310  
      5179       5180       5191       5190       5300       5301       5312       5311  
      5180       5181       5192       5191       5301       5302       5313       5312  
      5182       5183       5194       5193       5303       5304       5315       5314  
      5183       5184       5195       5194       5304       5305       5316       5315  
      5184       5185       5196       5195       5305       5306       5317       5316  
      5185       5186       5197       5196       5306       5307       5318       5317  
      5186       5187       5198       5197       5307       5308       5319       5318  
      5187       5188       5199       5198       5308       5309       5320       5319  
      5188       5189       5200       5199       5309       5310       5321       5320  
      5189       5190       5201       5200       5310       5311       5322       5321  
      5190       5191       5202       5201       5311       5312       5323       5322  
      5191       5192       5203       5202       5312       5313       5324       5323  
      5204       5205       5216       5215       5325       5326       5337       5336  
      5205       5206       5217       5216       5326       5327       5338       5337  
      5206       5207       5218       5217       5327       5328       5339       5338  
      5207       5208       5219       5218       5328       5329       5340       5339  
      5208       5209       5220       5219       5329       5330       5341       5340  
      5209       5210       5221       5220       5330       5331       5342       5341  
      5210       5211       5222       5221       5331       5332       5343       5342  
      5211       5212       5223       5222       5332       5333       5344       5343  
      5212       5213       5224       5223       5333       5334       5345       5344  
      5213       5214       5225       5224       5334       5335       5346       5345  
      5215       5216       5227       5226       5336       5337       5348       5347  
      5216       5217       5228       5227       5337       5338       5349       5348  
      5217       5218       5229       5228       5338       5339       5350       5349  
      5218       5219       5230       5229       5339       5340       5351       5350  
      5219       5220       5231       5230       5340       5341       5352       5351  
      5220       5221       5232       5231       5341       5342       5353       5352  
      5221       5222       5233       5232       5342       5343       5354       5353  
      5222       5223       5234       5233       5343       5344       5355       5354  
      5223       5224       5235       5234       5344       5345       5356       5355  
      5224       5225       5236       5235       5345       5346       5357       5356  
      5226       5227       5238       5237       5347       5348       5359       5358  
      5227       5228       5239       5238       5348       5349       5360       5359  
      5228       5229       5240       5239       5349       5350       5361       5360  
      5229       5230       5241       5240       5350       5351       5362       5361  
      5230       5231       5242       5241       5351       5352       5363       5362  
      5231       5232       5243       5242       5352       5353       5364       5363  
      5232       5233       5244       5243       5353       5354       5365       5364  
      5233       5234       5245       5244       5354       5355       5366       5365  
      5234       5235       5246       5245       5355       5356       5367       5366  
      5235       5236       5247       5246       5356       5357       5368       5367  
      5237       5238       5249       5248       5358       5359       5370       5369  
      5238       5239       5250       5249       5359       5360       5371       5370  
      5239       5240       5251       5250       5360       5361       5372       5371  
      5240       5241       5252       5251       5361       5362       5373       5372  
      5241       5242       5253       5252       5362       5363       5374       5373  
      5242       5243       5254       5253       5363       5364       5375       5374  
      5243       5244       5255       5254       5364       5365       5376       5375  
      5244       5245       5256       5255       5365       5366       5377       5376  
      5245       5246       5257       5256       5366       5367       5378       5377  
      5246       5247       5258       5257       5367       5368       5379       5378  
      5248       5249       5260       5259       5369       5370       5381       5380  
      5249       5250       5261       5260       5370       5371       5382       5381  
      5250       5251       5262       5261       5371       5372       5383       5382  
      5251       5252       5263       5262       5372       5373       5384       5383  
      5252       5253       5264       5263       5373       5374       5385       5384  
      5253       5254       5265       5264       5374       5375       5386       5385  
      5254       5255       5266       5265       5375       5376       5387       5386  
      5255       5256       5267       5266       5376       5377       5388       5387  
      5256       5257       5268       5267       5377       5378       5389       5388  
      5257       5258       5269       5268       5378       5379       5390       5389  
      5259       5260       5271       5270       5380       5381       5392       5391  
      5260       5261       5272       5271       5381       5382       5393       5392  
      5261       5262       5273       5272       5382       5383       5394       5393  
      5262       5263       5274       5273       5383       5384       5395       5394  
      5263       5264       5275       5274       5384       5385       5396       5395  
      5264       5265       5276       5275       5385       5386       5397       5396  
      5265       5266       5277       5276       5386       5387       5398       5397  
      5266       5267       5278       5277       5387       5388       5399       5398  
      5267       5268       5279       5278       5388       5389       5400       5399  
      5268       5269       5280       5279       5389       5390       5401       5400  
      5270       5271       5282       5281       5391       5392       5403       5402  
      5271       5272       5283       5282       5392       5393       5404       5403  
      5272       5273       5284       5283       5393       5394       5405       5404  
      5273       5274       5285       5284       5394       5395       5406       5405  
      5274       5275       5286       5285       5395       5396       5407       5406  
      5275       5276       5287       5286       5396       5397       5408       5407  
      5276       5277       5288       5287       5397       5398       5409       5408  
      5277       5278       5289       5288       5398       5399       5410       5409  
      5278       5279       5290       5289       5399       5400       5411       5410  
      5279       5280       5291       5290       5400       5401       5412       5411  
      5281       5282       5293       5292       5402       5403       5414       5413  
      5282       5283       5294       5293       5403       5404       5415       5414  
      5283       5284       5295       5294       5404       5405       5416       5415  
      5284       5285       5296       5295       5405       5406       5417       5416  
      5285       5286       5297       5296       5406       5407       5418       5417  
      5286       5287       5298       5297       5407       5408       5419       5418  
      5287       5288       5299       5298       5408       5409       5420       5419  
      5288       5289       5300       5299       5409       5410       5421       5420  
      5289       5290       5301       5300       5410       5411       5422       5421  
      5290       5291       5302       5301       5411       5412       5423       5422  
      5292       5293       5304       5303       5413       5414       5425       5424  
      5293       5294       5305       5304       5414       5415       5426       5425  
      5294       5295       5306       5305       5415       5416       5427       5426  
      5295       5296       5307       5306       5416       5417       5428       5427  
      5296       5297       5308       5307       5417       5418       5429       5428  
      5297       5298       5309       5308       5418       5419       5430       5429  
      5298       5299       5310       5309       5419       5420       5431       5430  
      5299       5300       5311       5310       5420       5421       5432       5431  
      5300       5301       5312       5311       5421       5422       5433       5432  
      5301       5302       5313       5312       5422       5423       5434       5433  
      5303       5304       5315       5314       5424       5425       5436       5435  
      5304       5305       5316       5315       5425       5426       5437       5436  
      5305       5306       5317       5316       5426       5427       5438       5437  
      5306       5307       5318       5317       5427       5428       5439       5438  
      5307       5308       5319       5318       5428       5429       5440       5439  
      5308       5309       5320       5319       5429       5430       5441       5440  
      5309       5310       5321       5320       5430       5431       5442       5441  
      5310       5311       5322       5321       5431       5432       5443       5442  
      5311       5312       5323       5322       5432       5433       5444       5443  
      5312       5313       5324       5323       5433       5434       5445       5444  
      5325       5326       5337       5336       5446       5447       5458       5457  
      5326       5327       5338       5337       5447       5448       5459       5458  
      5327       5328       5339       5338       5448       5449       5460       5459  
      5328       5329       5340       5339       5449       5450       5461       5460  
      5329       5330       5341       5340       5450       5451       5462       5461  
      5330       5331       5342       5341       5451       5452       5463       5462  
      5331       5332       5343       5342       5452       5453       5464       5463  
      5332       5333       5344       5343       5453       5454       5465       5464  
      5333       5334       5345       5344       5454       5455       5466       5465  
      5334       5335       5346       5345       5455       5456       5467       5466  
      5336       5337       5348       5347       5457       5458       5469       5468  
      5337       5338       5349       5348       5458       5459       5470       5469  
      5338       5339       5350       5349       5459       5460       5471       5470  
      5339       5340       5351       5350       5460       5461       5472       5471  
      5340       5341       5352       5351       5461       5462       5473       5472  
      5341       5342       5353       5352       5462       5463       5474       5473  
      5342       5343       5354       5353       5463       5464       5475       5474  
      5343       5344       5355       5354       5464       5465       5476       5475  
      5344       5345       5356       5355       5465       5466       5477       5476  
      5345       5346       5357       5356       5466       5467       5478       5477  
      5347       5348       5359       5358       5468       5469       5480       5479  
      5348       5349       5360       5359       5469       5470       5481       5480  
      5349       5350       5361       5360       5470       5471       5482       5481  
      5350       5351       5362       5361       5471       5472       5483       5482  
      5351       5352       5363       5362       5472       5473       5484       5483  
      5352       5353       5364       5363       5473       5474       5485       5484  
      5353       5354       5365       5364       5474       5475       5486       5485  
      5354       5355       5366       5365       5475       5476       5487       5486  
      5355       5356       5367       5366       5476       5477       5488       5487  
      5356       5357       5368       5367       5477       5478       5489       5488  
      5358       5359       5370       5369       5479       5480       5491       5490  
      5359       5360       5371       5370       5480       5481       5492       5491  
      5360       5361       5372       5371       5481       5482       5493       5492  
      5361       5362       5373       5372       5482       5483       5494       5493  
      5362       5363       5374       5373       5483       5484       5495       5494  
      5363       5364       5375       5374       5484       5485       5496       5495  
      5364       5365       5376       5375       5485       5486       5497       5496  
      5365       5366       5377       5376       5486       5487       5498       5497  
      5366       5367       5378       5377       5487       5488       5499       5498  
      5367       5368       5379       5378       5488       5489       5500       5499  
      5369       5370       5381       5380       5490       5491       5502       5501  
      5370       5371       5382       5381       5491       5492       5503       5502  
      5371       5372       5383       5382       5492       5493       5504       5503  
      5372       5373       5384       5383       5493       5494       5505       5504  
      5373       5374       5385       5384       5494       5495       5506       5505  
      5374       5375       5386       5385       5495       5496       5507       5506  
      5375       5376       5387       5386       5496       5497       5508       5507  
      5376       5377       5388       5387       5497       5498       5509       5508  
      5377       5378       5389       5388       5498       5499       5510       5509  
      5378       5379       5390       5389       5499       5500       5511       5510  
      5380       5381       5392       5391       5501       5502       5513       5512  
      5381       5382       5393       5392       5502       5503       5514       5513  
      5382       5383       5394       5393       5503       5504       5515       5514  
      5383       5384       5395       5394       5504       5505       5516       5515  
      5384       5385       5396       5395       5505       5506       5517       5516  
      5385       5386       5397       5396       5506       5507       5518       5517  
      5386       5387       5398       5397       5507       5508       5519       5518  
      5387       5388       5399       5398       5508       5509       5520       5519  
      5388       5389       5400       5399       5509       5510       5521       5520  
      5389       5390       5401       5400       5510       5511       5522       5521  
      5391       5392       5403       5402       5512       5513       5524       5523  
      5392       5393       5404       5403       5513       5514       5525       5524  
      5393       5394       5405       5404       5514       5515       5526       5525  
      5394       5395       5406       5405       5515       5516       5527       5526  
      5395       5396       5407       5406       5516       5517       5528       5527  
      5396       5397       5408       5407       5517       5518       5529       5528  
      5397       5398       5409       5408       5518       5519       5530       5529  
      5398       5399       5410       5409       5519       5520       5531       5530  
      5399       5400       5411       5410       5520       5521       5532       5531  
      5400       5401       5412       5411       5521       5522       5533       5532  
      5402       5403       5414       5413       5523       5524       5535       5534  
      5403       5404       5415       5414       5524       5525       5536       5535  
      5404       5405       5416       5415       5525       5526       5537       5536  
      5405       5406       5417       5416       5526       5527       5538       5537  
      5406       5407       5418       5417       5527       5528       5539       5538  
      5407       5408       5419       5418       5528       5529       5540       5539  
      5408       5409       5420       5419       5529       5530       5541       5540  
      5409       5410       5421       5420       5530       5531       5542       5541  
      5410       5411       5422       5421       5531       5532       5543       5542  
      5411       5412       5423       5422       5532       5533       5544       5543  
      5413       5414       5425       5424       5534       5535       5546       5545  
      5414       5415       5426       5425       5535       5536       5547       5546  
      5415       5416       5427       5426       5536       5537       5548       5547  
      5416       5417       5428       5427       5537       5538       5549       5548  
      5417       5418       5429       5428       5538       5539       5550       5549  
      5418       5419       5430       5429       5539       5540       5551       5550  
      5419       5420       5431       5430       5540       5541       5552       5551  
      5420       5421       5432       5431       5541       5542       5553       5552  
      5421       5422       5433       5432       5542       5543       5554       5553  
      5422       5423       5434       5433       5543       5544       5555       5554  
      5424       5425       5436       5435       5545       5546       5557       5556  
      5425       5426       5437       5436       5546       5547       5558       5557  
      5426       5427       5438       5437       5547       5548       5559       5558  
      5427       5428       5439       5438       5548       5549       5560       5559  
      5428       5429       5440       5439       5549       5550       5561       5560  
      5429       5430       5441       5440       5550       5551       5562       5561  
      5430       5431       5442       5441       5551       5552       5563       5562  
      5431       5432       5443       5442       5552       5553       5564       5563  
      5432       5433       5444       5443       5553       5554       5565       5564  
      5433       5434       5445       5444       5554       5555       5566       5565  
      5446       5447       5458       5457       5567       5568       5579       5578  
      5447       5448       5459       5458       5568       5569       5580       5579  
      5448       5449       5460       5459       5569       5570       5581       5580  
      5449       5450       5461       5460       5570       5571       5582       5581  
      5450       5451       5462       5461       5571       5572       5583       5582  
      5451       5452       5463       5462       5572       5573       5584       5583  
      5452       5453       5464       5463       5573       5574       5585       5584  
      5453       5454       5465       5464       5574       5575       5586       5585  
      5454       5455       5466       5465       5575       5576       5587       5586  
      5455       5456       5467       5466       5576       5577       5588       5587  
      5457       5458       5469       5468       5578       5579       5590       5589  
      5458       5459       5470       5469       5579       5580       5591       5590  
      5459       5460       5471       5470       5580       5581       5592       5591  
      5460       5461       5472       5471       5581       5582       5593       5592  
      5461       5462       5473       5472       5582       5583       5594       5593  
      5462       5463       5474       5473       5583       5584       5595       5594  
      5463       5464       5475       5474       5584       5585       5596       5595  
      5464       5465       5476       5475       5585       5586       5597       5596  
      5465       5466       5477       5476       5586       5587       5598       5597  
      5466       5467       5478       5477       5587       5588       5599       5598  
      5468       5469       5480       5479       5589       5590       5601       5600  
      5469       5470       5481       5480       5590       5591       5602       5601  
      5470       5471       5482       5481       5591       5592       5603       5602  
      5471       5472       5483       5482       5592       5593       5604       5603  
      5472       5473       5484       5483       5593       5594       5605       5604  
      5473       5474       5485       5484       5594       5595       5606       5605  
      5474       5475       5486       5485       5595       5596       5607       5606  
      5475       5476       5487       5486       5596       5597       5608       5607  
      5476       5477       5488       5487       5597       5598       5609       5608  
      5477       5478       5489       5488       5598       5599       5610       5609  
      5479       5480       5491       5490       5600       5601       5612       5611  
      5480       5481       5492       5491       5601       5602       5613       5612  
      5481       5482       5493       5492       5602       5603       5614       5613  
      5482       5483       5494       5493       5603       5604       5615       5614  
      5483       5484       5495       5494       5604       5605       5616       5615  
      5484       5485       5496       5495       5605       5606       5617       5616  
      5485       5486       5497       5496       5606       5607       5618       5617  
      5486       5487       5498       5497       5607       5608       5619       5618  
      5487       5488       5499       5498       5608       5609       5620       5619  
      5488       5489       5500       5499       5609       5610       5621       5620  
      5490       5491       5502       5501       5611       5612       5623       5622  
      5491       5492       5503       5502       5612       5613       5624       5623  
      5492       5493       5504       5503       5613       5614       5625       5624  
      5493       5494       5505       5504       5614       5615       5626       5625  
      5494       5495       5506       5505       5615       5616       5627       5626  
      5495       5496       5507       5506       5616       5617       5628       5627  
      5496       5497       5508       5507       5617       5618       5629       5628  
      5497       5498       5509       5508       5618       5619       5630       5629  
      5498       5499       5510       5509       5619       5620       5631       5630  
      5499       5500       5511       5510       5620       5621       5632       5631  
      5501       5502       5513       5512       5622       5623       5634       5633  
      5502       5503       5514       5513       5623       5624       5635       5634  
      5503       5504       5515       5514       5624       5625       5636       5635  
      5504       5505       5516       5515       5625       5626       5637       5636  
      5505       5506       5517       5516       5626       5627       5638       5637  
      5506       5507       5518       5517       5627       5628       5639       5638  
      5507       5508       5519       5518       5628       5629       5640       5639  
      5508       5509       5520       5519       5629       5630       5641       5640  
      5509       5510       5521       5520       5630       5631       5642       5641  
      5510       5511       5522       5521       5631       5632       5643       5642  
      5512       5513       5524       5523       5633       5634       5645       5644  
      5513       5514       5525       5524       5634       5635       5646       5645  
      5514       5515       5526       5525       5635       5636       5647       5646  
      5515       5516       5527       5526       5636       5637       5648       5647  
      5516       5517       5528       5527       5637       5638       5649       5648  
      5517       5518       5529       5528       5638       5639       5650       5649  
      5518       5519       5530       5529       5639       5640       5651       5650  
      5519       5520       5531       5530       5640       5641       5652       5651  
      5520       5521       5532       5531       5641       5642       5653       5652  
      5521       5522       5533       5532       5642       5643       5654       5653  
      5523       5524       5535       5534       5644       5645       5656       5655  
      5524       5525       5536       5535       5645       5646       5657       5656  
      5525       5526       5537       5536       5646       5647       5658       5657  
      5526       5527       5538       5537       5647       5648       5659       5658  
      5527       5528       5539       5538       5648       5649       5660       5659  
      5528       5529       5540       5539       5649       5650       5661       5660  
      5529       5530       5541       5540       5650       5651       5662       5661  
      5530       5531       5542       5541       5651       5652       5663       5662  
      5531       5532       5543       5542       5652       5653       5664       5663  
      5532       5533       5544       5543       5653       5654       5665       5664  
      5534       5535       5546       5545       5655       5656       5667       5666  
      5535       5536       5547       5546       5656       5657       5668       5667  
      5536       5537       5548       5547       5657       5658       5669       5668  
      5537       5538       5549       5548       5658       5659       5670       5669  
      5538       5539       5550       5549       5659       5660       5671       5670  
      5539       5540       5551       5550       5660       5661       5672       5671  
      5540       5541       5552       5551       5661       5662       5673       5672  
      5541       5542       5553       5552       5662       5663       5674       5673  
      5542       5543       5554       5553       5663       5664       5675       5674  
      5543       5544       5555       5554       5664       5665       5676       5675  
      5545       5546       5557       5556       5666       5667       5678       5677  
      5546       5547       5558       5557       5667       5668       5679       5678  
      5547       5548       5559       5558       5668       5669       5680       5679  
      5548       5549       5560       5559       5669       5670       5681       5680  
      5549       5550       5561       5560       5670       5671       5682       5681  
      5550       5551       5562       5561       5671       5672       5683       5682  
      5551       5552       5563       5562       5672       5673       5684       5683  
      5552       5553       5564       5563       5673       5674       5685       5684  
      5553       5554       5565       5564       5674       5675       5686       5685  
      5554       5555       5566       5565       5675       5676       5687       5686  
      5567       5568       5579       5578       5688       5689       5700       5699  
      5568       5569       5580       5579       5689       5690       5701       5700  
      5569       5570       5581       5580       5690       5691       5702       5701  
      5570       5571       5582       5581       5691       5692       5703       5702  
      5571       5572       5583       5582       5692       5693       5704       5703  
      5572       5573       5584       5583       5693       5694       5705       5704  
      5573       5574       5585       5584       5694       5695       5706       5705  
      5574       5575       5586       5585       5695       5696       5707       5706  
      5575       5576       5587       5586       5696       5697       5708       5707  
      5576       5577       5588       5587       5697       5698       5709       5708  
      5578       5579       5590       5589       5699       5700       5711       5710  
      5579       5580       5591       5590       5700       5701       5712       5711  
      5580       5581       5592       5591       5701       5702       5713       5712  
      5581       5582       5593       5592       5702       5703       5714       5713  
      5582       5583       5594       5593       5703       5704       5715       5714  
      5583       5584       5595       5594       5704       5705       5716       5715  
      5584       5585       5596       5595       5705       5706       5717       5716  
      5585       5586       5597       5596       5706       5707       5718       5717  
      5586       5587       5598       5597       5707       5708       5719       5718  
      5587       5588       5599       5598       5708       5709       5720       5719  
      5589       5590       5601       5600       5710       5711       5722       5721  
      5590       5591       5602       5601       5711       5712       5723       5722  
      5591       5592       5603       5602       5712       5713       5724       5723  
      5592       5593       5604       5603       5713       5714       5725       5724  
      5593       5594       5605       5604       5714       5715       5726       5725  
      5594       5595       5606       5605       5715       5716       5727       5726  
      5595       5596       5607       5606       5716       5717       5728       5727  
      5596       5597       5608       5607       5717       5718       5729       5728  
      5597       5598       5609       5608       5718       5719       5730       5729  
      5598       5599       5610       5609       5719       5720       5731       5730  
      5600       5601       5612       5611       5721       5722       5733       5732  
      5601       5602       5613       5612       5722       5723       5734       5733  
      5602       5603       5614       5613       5723       5724       5735       5734  
      5603       5604       5615       5614       5724       5725       5736       5735  
      5604       5605       5616       5615       5725       5726       5737       5736  
      5605       5606       5617       5616       5726       5727       5738       5737  
      5606       5607       5618       5617       5727       5728       5739       5738  
      5607       5608       5619       5618       5728       5729       5740       5739  
      5608       5609       5620       5619       5729       5730       5741       5740  
      5609       5610       5621       5620       5730       5731       5742       5741  
      5611       5612       5623       5622       5732       5733       5744       5743  
      5612       5613       5624       5623       5733       5734       5745       5744  
      5613       5614       5625       5624       5734       5735       5746       5745  
      5614       5615       5626       5625       5735       5736       5747       5746  
      5615       5616       5627       5626       5736       5737       5748       5747  
      5616       5617       5628       5627       5737       5738       5749       5748  
      5617       5618       5629       5628       5738       5739       5750       5749  
      5618       5619       5630       5629       5739       5740       5751       5750  
      5619       5620       5631       5630       5740       5741       5752       5751  
      5620       5621       5632       5631       5741       5742       5753       5752  
      5622       5623       5634       5633       5743       5744       5755       5754  
      5623       5624       5635       5634       5744       5745       5756       5755  
      5624       5625       5636       5635       5745       5746       5757       5756  
      5625       5626       5637       5636       5746       5747       5758       5757  
      5626       5627       5638       5637       5747       5748       5759       5758  
      5627       5628       5639       5638       5748       5749       5760       5759  
      5628       5629       5640       5639       5749       5750       5761       5760  
      5629       5630       5641       5640       5750       5751       5762       5761  
      5630       5631       5642       5641       5751       5752       5763       5762  
      5631       5632       5643       5642       5752       5753       5764       5763  
      5633       5634       5645       5644       5754       5755       5766       5765  
      5634       5635       5646       5645       5755       5756       5767       5766  
      5635       5636       5647       5646       5756       5757       5768       5767  
      5636       5637       5648       5647       5757       5758       5769       5768  
      5637       5638       5649       5648       5758       5759       5770       5769  
      5638       5639       5650       5649       5759       5760       5771       5770  
      5639       5640       5651       5650       5760       5761       5772       5771  
      5640       5641       5652       5651       5761       5762       5773       5772  
      5641       5642       5653       5652       5762       5763       5774       5773  
      5642       5643       5654       5653       5763       5764       5775       5774  
      5644       5645       5656       5655       5765       5766       5777       5776  
      5645       5646       5657       5656       5766       5767       5778       5777  
      5646       5647       5658       5657       5767       5768       5779       5778  
      5647       5648       5659       5658       5768       5769       5780       5779  
      5648       5649       5660       5659       5769       5770       5781       5780  
      5649       5650       5661       5660       5770       5771       5782       5781  
      5650       5651       5662       5661       5771       5772       5783       5782  
      5651       5652       5663       5662       5772       5773       5784       5783  
      5652       5653       5664       5663       5773       5774       5785       5784  
      5653       5654       5665       5664       5774       5775       5786       5785  
      5655       5656       5667       5666       5776       5777       5788       5787  
      5656       5657       5668       5667       5777       5778       5789       5788  
      5657       5658       5669       5668       5778       5779       5790       5789  
      5658       5659       5670       5669       5779       5780       5791       5790  
      5659       5660       5671       5670       5780       5781       5792       5791  
      5660       5661       5672       5671       5781       5782       5793       5792  
      5661       5662       5673       5672       5782       5783       5794       5793  
      5662       5663       5674       5673       5783       5784       5795       5794  
      5663       5664       5675       5674       5784       5785       5796       5795  
      5664       5665       5676       5675       5785       5786       5797       5796  
      5666       5667       5678       5677       5787       5788       5799       5798  
      5667       5668       5679       5678       5788       5789       5800       5799  
      5668       5669       5680       5679       5789       5790       5801       5800  
      5669       5670       5681       5680       5790       5791       5802       5801  
      5670       5671       5682       5681       5791       5792       5803       5802  
      5671       5672       5683       5682       5792       5793       5804       5803  
      5672       5673       5684       5683       5793       5794       5805       5804  
      5673       5674       5685       5684       5794       5795       5806       5805  
      5674       5675       5686       5685       5795       5796       5807       5806  
      5675       5676       5687       5686       5796       5797       5808       5807  
      5688       5689       5700       5699       5809       5810       5821       5820  
      5689       5690       5701       5700       5810       5811       5822       5821  
      5690       5691       5702       5701       5811       5812       5823       5822  
      5691       5692       5703       5702       5812       5813       5824       5823  
      5692       5693       5704       5703       5813       5814       5825       5824  
      5693       5694       5705       5704       5814       5815       5826       5825  
      5694       5695       5706       5705       5815       5816       5827       5826  
      5695       5696       5707       5706       5816       5817       5828       5827  
      5696       5697       5708       5707       5817       5818       5829       5828  
      5697       5698       5709       5708       5818       5819       5830       5829  
      5699       5700       5711       5710       5820       5821       5832       5831  
      5700       5701       5712       5711       5821       5822       5833       5832  
      5701       5702       5713       5712       5822       5823       5834       5833  
      5702       5703       5714       5713       5823       5824       5835       5834  
      5703       5704       5715       5714       5824       5825       5836       5835  
      5704       5705       5716       5715       5825       5826       5837       5836  
      5705       5706       5717       5716       5826       5827       5838       5837  
      5706       5707       5718       5717       5827       5828       5839       5838  
      5707       5708       5719       5718       5828       5829       5840       5839  
      5708       5709       5720       5719       5829       5830       5841       5840  
      5710       5711       5722       5721       5831       5832       5843       5842  
      5711       5712       5723       5722       5832       5833       5844       5843  
      5712       5713       5724       5723       5833       5834       5845       5844  
      5713       5714       5725       5724       5834       5835       5846       5845  
      5714       5715       5726       5725       5835       5836       5847       5846  
      5715       5716       5727       5726       5836       5837       5848       5847  
      5716       5717       5728       5727       5837       5838       5849       5848  
      5717       5718       5729       5728       5838       5839       5850       5849  
      5718       5719       5730       5729       5839       5840       5851       5850  
      5719       5720       5731       5730       5840       5841       5852       5851  
      5721       5722       5733       5732       5842       5843       5854       5853  
      5722       5723       5734       5733       5843       5844       5855       5854  
      5723       5724       5735       5734       5844       5845       5856       5855  
      5724       5725       5736       5735       5845       5846       5857       5856  
      5725       5726       5737       5736       5846       5847       5858       5857  
      5726       5727       5738       5737       5847       5848       5859       5858  
      5727       5728       5739       5738       5848       5849       5860       5859  
      5728       5729       5740       5739       5849       5850       5861       5860  
      5729       5730       5741       5740       5850       5851       5862       5861  
      5730       5731       5742       5741       5851       5852       5863       5862  
      5732       5733       5744       5743       5853       5854       5865       5864  
      5733       5734       5745       5744       5854       5855       5866       5865  
      5734       5735       5746       5745       5855       5856       5867       5866  
      5735       5736       5747       5746       5856       5857       5868       5867  
      5736       5737       5748       5747       5857       5858       5869       5868  
      5737       5738       5749       5748       5858       5859       5870       5869  
      5738       5739       5750       5749       5859       5860       5871       5870  
      5739       5740       5751       5750       5860       5861       5872       5871  
      5740       5741       5752       5751       5861       5862       5873       5872  
      5741       5742       5753       5752       5862       5863       5874       5873  
      5743       5744       5755       5754       5864       5865       5876       5875  
      5744       5745       5756       5755       5865       5866       5877       5876  
      5745       5746       5757       5756       5866       5867       5878       5877  
      5746       5747       5758       5757       5867       5868       5879       5878  
      5747       5748       5759       5758       5868       5869       5880       5879  
      5748       5749       5760       5759       5869       5870       5881       5880  
      5749       5750       5761       5760       5870       5871       5882       5881  
      5750       5751       5762       5761       5871       5872       5883       5882  
      5751       5752       5763       5762       5872       5873       5884       5883  
      5752       5753       5764       5763       5873       5874       5885       5884  
      5754       5755       5766       5765       5875       5876       5887       5886  
      5755       5756       5767       5766       5876       5877       5888       5887  
      5756       5757       5768       5767       5877       5878       5889       5888  
      5757       5758       5769       5768       5878       5879       5890       5889  
      5758       5759       5770       5769       5879       5880       5891       5890  
      5759       5760       5771       5770       5880       5881       5892       5891  
      5760       5761       5772       5771       5881       5882       5893       5892  
      5761       5762       5773       5772       5882       5883       5894       5893  
      5762       5763       5774       5773       5883       5884       5895       5894  
      5763       5764       5775       5774       5884       5885       5896       5895  
      5765       5766       5777       5776       5886       5887       5898       5897  
      5766       5767       5778       5777       5887       5888       5899       5898  
      5767       5768       5779       5778       5888       5889       5900       5899  
      5768       5769       5780       5779       5889       5890       5901       5900  
      5769       5770       5781       5780       5890       5891       5902       5901  
      5770       5771       5782       5781       5891       5892       5903       5902  
      5771       5772       5783       5782       5892       5893       5904       5903  
      5772       5773       5784       5783       5893       5894       5905       5904  
      5773       5774       5785       5784       5894       5895       5906       5905  
      5774       5775       5786       5785       5895       5896       5907       5906  
      5776       5777       5788       5787       5897       5898       5909       5908  
      5777       5778       5789       5788       5898       5899       5910       5909  
      5778       5779       5790       5789       5899       5900       5911       5910  
      5779       5780       5791       5790       5900       5901       5912       5911  
      5780       5781       5792       5791       5901       5902       5913       5912  
      5781       5782       5793       5792       5902       5903       5914       5913  
      5782       5783       5794       5793       5903       5904       5915       5914  
      5783       5784       5795       5794       5904       5905       5916       5915  
      5784       5785       5796       5795       5905       5906       5917       5916  
      5785       5786       5797       5796       5906       5907       5918       5917  
      5787       5788       5799       5798       5908       5909       5920       5919  
      5788       5789       5800       5799       5909       5910       5921       5920  
      5789       5790       5801       5800       5910       5911       5922       5921  
      5790       5791       5802       5801       5911       5912       5923       5922  
      5791       5792       5803       5802       5912       5913       5924       5923  
      5792       5793       5804       5803       5913       5914       5925       5924  
      5793       5794       5805       5804       5914       5915       5926       5925  
      5794       5795       5806       5805       5915       5916       5927       5926  
      5795       5796       5807       5806       5916       5917       5928       5927  
      5796       5797       5808       5807       5917       5918       5929       5928  
      5809       5810       5821       5820       5930       5931       5942       5941  
      5810       5811       5822       5821       5931       5932       5943       5942  
      5811       5812       5823       5822       5932       5933       5944       5943  
      5812       5813       5824       5823       5933       5934       5945       5944  
      5813       5814       5825       5824       5934       5935       5946       5945  
      5814       5815       5826       5825       5935       5936       5947       5946  
      5815       5816       5827       5826       5936       5937       5948       5947  
      5816       5817       5828       5827       5937       5938       5949       5948  
      5817       5818       5829       5828       5938       5939       5950       5949  
      5818       5819       5830       5829       5939       5940       5951       5950  
      5820       5821       5832       5831       5941       5942       5953       5952  
      5821       5822       5833       5832       5942       5943       5954       5953  
      5822       5823       5834       5833       5943       5944       5955       5954  
      5823       5824       5835       5834       5944       5945       5956       5955  
      5824       5825       5836       5835       5945       5946       5957       5956  
      5825       5826       5837       5836       5946       5947       5958       5957  
      5826       5827       5838       5837       5947       5948       5959       5958  
      5827       5828       5839       5838       5948       5949       5960       5959  
      5828       5829       5840       5839       5949       5950       5961       5960  
      5829       5830       5841       5840       5950       5951       5962       5961  
      5831       5832       5843       5842       5952       5953       5964       5963  
      5832       5833       5844       5843       5953       5954       5965       5964  
      5833       5834       5845       5844       5954       5955       5966       5965  
      5834       5835       5846       5845       5955       5956       5967       5966  
      5835       5836       5847       5846       5956       5957       5968       5967  
      5836       5837       5848       5847       5957       5958       5969       5968  
      5837       5838       5849       5848       5958       5959       5970       5969  
      5838       5839       5850       5849       5959       5960       5971       5970  
      5839       5840       5851       5850       5960       5961       5972       5971  
      5840       5841       5852       5851       5961       5962       5973       5972  
      5842       5843       5854       5853       5963       5964       5975       5974  
      5843       5844       5855       5854       5964       5965       5976       5975  
      5844       5845       5856       5855       5965       5966       5977       5976  
      5845       5846       5857       5856       5966       5967       5978       5977  
      5846       5847       5858       5857       5967       5968       5979       5978  
      5847       5848       5859       5858       5968       5969       5980       5979  
      5848       5849       5860       5859       5969       5970       5981       5980  
      5849       5850       5861       5860       5970       5971       5982       5981  
      5850       5851       5862       5861       5971       5972       5983       5982  
      5851       5852       5863       5862       5972       5973       5984       5983  
      5853       5854       5865       5864       5974       5975       5986       5985  
      5854       5855       5866       5865       5975       5976       5987       5986  
      5855       5856       5867       5866       5976       5977       5988       5987  
      5856       5857       5868       5867       5977       5978       5989       5988  
      5857       5858       5869       5868       5978       5979       5990       5989  
      5858       5859       5870       5869       5979       5980       5991       5990  
      5859       5860       5871       5870       5980       5981       5992       5991  
      5860       5861       5872       5871       5981       5982       5993       5992  
      5861       5862       5873       5872       5982       5983       5994       5993  
      5862       5863       5874       5873       5983       5984       5995       5994  
      5864       5865       5876       5875       5985       5986       5997       5996  
      5865       5866       5877       5876       5986       5987       5998       5997  
      5866       5867       5878       5877       5987       5988       5999       5998  
      5867       5868       5879       5878       5988       5989       6000       5999  
      5868       5869       5880       5879       5989       5990       6001       6000  
      5869       5870       5881       5880       5990       5991       6002       6001  
      5870       5871       5882       5881       5991       5992       6003       6002  
      5871       5872       5883       5882       5992       5993       6004       6003  
      5872       5873       5884       5883       5993       5994       6005       6004  
      5873       5874       5885       5884       5994       5995       6006       6005  
      5875       5876       5887       5886       5996       5997       6008       6007  
      5876       5877       5888       5887       5997       5998       6009       6008  
      5877       5878       5889       5888       5998       5999       6010       6009  
      5878       5879       5890       5889       5999       6000       6011       6010  
      5879       5880       5891       5890       6000       6001       6012       6011  
      5880       5881       5892       5891       6001       6002       6013       6012  
      5881       5882       5893       5892       6002       6003       6014       6013  
      5882       5883       5894       5893       6003       6004       6015       6014  
      5883       5884       5895       5894       6004       6005       6016       6015  
      5884       5885       5896       5895       6005       6006       6017       6016  
      5886       5887       5898       5897       6007       6008       6019       6018  
      5887       5888       5899       5898       6008       6009       6020       6019  
      5888       5889       5900       5899       6009       6010       6021       6020  
      5889       5890       5901       5900       6010       6011       6022       6021  
      5890       5891       5902       5901       6011       6012       6023       6022  
      5891       5892       5903       5902       6012       6013       6024       6023  
      5892       5893       5904       5903       6013       6014       6025       6024  
      5893       5894       5905       5904       6014       6015       6026       6025  
      5894       5895       5906       5905       6015       6016       6027       6026  
      5895       5896       5907       5906       6016       6017       6028       6027  
      5897       5898       5909       5908       6018       6019       6030       6029  
      5898       5899       5910       5909       6019       6020       6031       6030  
      5899       5900       5911       5910       6020       6021       6032       6031  
      5900       5901       5912       5911       6021       6022       6033       6032  
      5901       5902       5913       5912       6022       6023       6034       6033  
      5902       5903       5914       5913       6023       6024       6035       6034  
      5903       5904       5915       5914       6024       6025       6036       6035  
      5904       5905       5916       5915       6025       6026       6037       6036  
      5905       5906       5917       5916       6026       6027       6038       6037  
      5906       5907       5918       5917       6027       6028       6039       6038  
      5908       5909       5920       5919       6029       6030       6041       6040  
      5909       5910       5921       5920       6030       6031       6042       6041  
      5910       5911       5922       5921       6031       6032       6043       6042  
      5911       5912       5923       5922       6032       6033       6044       6043  
      5912       5913       5924       5923       6033       6034       6045       6044  
      5913       5914       5925       5924       6034       6035       6046       6045  
      5914       5915       5926       5925       6035       6036       6047       6046  
      5915       5916       5927       5926       6036       6037       6048       6047  
      5916       5917       5928       5927       6037       6038       6049       6048  
      5917       5918       5929       5928       6038       6039       6050       6049  
      5930       5931       5942       5941       6051       6052       6063       6062  
      5931       5932       5943       5942       6052       6053       6064       6063  
      5932       5933       5944       5943       6053       6054       6065       6064  
      5933       5934       5945       5944       6054       6055       6066       6065  
      5934       5935       5946       5945       6055       6056       6067       6066  
      5935       5936       5947       5946       6056       6057       6068       6067  
      5936       5937       5948       5947       6057       6058       6069       6068  
      5937       5938       5949       5948       6058       6059       6070       6069  
      5938       5939       5950       5949       6059       6060       6071       6070  
      5939       5940       5951       5950       6060       6061       6072       6071  
      5941       5942       5953       5952       6062       6063       6074       6073  
      5942       5943       5954       5953       6063       6064       6075       6074  
      5943       5944       5955       5954       6064       6065       6076       6075  
      5944       5945       5956       5955       6065       6066       6077       6076  
      5945       5946       5957       5956       6066       6067       6078       6077  
      5946       5947       5958       5957       6067       6068       6079       6078  
      5947       5948       5959       5958       6068       6069       6080       6079  
      5948       5949       5960       5959       6069       6070       6081       6080  
      5949       5950       5961       5960       6070       6071       6082       6081  
      5950       5951       5962       5961       6071       6072       6083       6082  
      5952       5953       5964       5963       6073       6074       6085       6084  
      5953       5954       5965       5964       6074       6075       6086       6085  
      5954       5955       5966       5965       6075       6076       6087       6086  
      5955       5956       5967       5966       6076       6077       6088       6087  
      5956       5957       5968       5967       6077       6078       6089       6088  
      5957       5958       5969       5968       6078       6079       6090       6089  
      5958       5959       5970       5969       6079       6080       6091       6090  
      5959       5960       5971       5970       6080       6081       6092       6091  
      5960       5961       5972       5971       6081       6082       6093       6092  
      5961       5962       5973       5972       6082       6083       6094       6093  
      5963       5964       5975       5974       6084       6085       6096       6095  
      5964       5965       5976       5975       6085       6086       6097       6096  
      5965       5966       5977       5976       6086       6087       6098       6097  
      5966       5967       5978       5977       6087       6088       6099       6098  
      5967       5968       5979       5978       6088       6089       6100       6099  
      5968       5969       5980       5979       6089       6090       6101       6100  
      5969       5970       5981       5980       6090       6091       6102       6101  
      5970       5971       5982       5981       6091       6092       6103       6102  
      5971       5972       5983       5982       6092       6093       6104       6103  
      5972       5973       5984       5983       6093       6094       6105       6104  
      5974       5975       5986       5985       6095       6096       6107       6106  
      5975       5976       5987       5986       6096       6097       6108       6107  
      5976       5977       5988       5987       6097       6098       6109       6108  
      5977       5978       5989       5988       6098       6099       6110       6109  
      5978       5979       5990       5989       6099       6100       6111       6110  
      5979       5980       5991       5990       6100       6101       6112       6111  
      5980       5981       5992       5991       6101       6102       6113       6112  
      5981       5982       5993       5992       6102       6103       6114       6113  
      5982       5983       5994       5993       6103       6104       6115       6114  
      5983       5984       5995       5994       6104       6105       6116       6115  
      5985       5986       5997       5996       6106       6107       6118       6117  
      5986       5987       5998       5997       6107       6108       6119       6118  
      5987       5988       5999       5998       6108       6109       6120       6119  
      5988       5989       6000       5999       6109       6110       6121       6120  
      5989       5990       6001       6000       6110       6111       6122       6121  
      5990       5991       6002       6001       6111       6112       6123       6122  
      5991       5992       6003       6002       6112       6113       6124       6123  
      5992       5993       6004       6003       6113       6114       6125       6124  
      5993       5994       6005       6004       6114       6115       6126       6125  
      5994       5995       6006       6005       6115       6116       6127       6126  
      5996       5997       6008       6007       6117       6118       6129       6128  
      5997       5998       6009       6008       6118       6119       6130       6129  
      5998       5999       6010       6009       6119       6120       6131       6130  
      5999       6000       6011       6010       6120       6121       6132       6131  
      6000       6001       6012       6011       6121       6122       6133       6132  
      6001       6002       6013       6012       6122       6123       6134       6133  
      6002       6003       6014       6013       6123       6124       6135       6134  
      6003       6004       6015       6014       6124       6125       6136       6135  
      6004       6005       6016       6015       6125       6126       6137       6136  
      6005       6006       6017       6016       6126       6127       6138       6137  
      6007       6008       6019       6018       6128       6129       6140       6139  
      6008       6009       6020       6019       6129       6130       6141       6140  
      6009       6010       6021       6020       6130       6131       6142       6141  
      6010       6011       6022       6021       6131       6132       6143       6142  
      6011       6012       6023       6022       6132       6133       6144       6143  
      6012       6013       6024       6023       6133       6134       6145       6144  
      6013       6014       6025       6024       6134       6135       6146       6145  
      6014       6015       6026       6025       6135       6136       6147       6146  
      6015       6016       6027       6026       6136       6137       6148       6147  
      6016       6017       6028       6027       6137       6138       6149       6148  
      6018       6019       6030       6029       6139       6140       6151       6150  
      6019       6020       6031       6030       6140       6141       6152       6151  
      6020       6021       6032       6031       6141       6142       6153       6152  
      6021       6022       6033       6032       6142       6143       6154       6153  
      6022       6023       6034       6033       6143       6144       6155       6154  
      6023       6024       6035       6034       6144       6145       6156       6155  
      6024       6025       6036       6035       6145       6146       6157       6156  
      6025       6026       6037       6036       6146       6147       6158       6157  
      6026       6027       6038       6037       6147       6148       6159       6158  
      6027       6028       6039       6038       6148       6149       6160       6159  
      6029       6030       6041       6040       6150       6151       6162       6161  
      6030       6031       6042       6041       6151       6152       6163       6162  
      6031       6032       6043       6042       6152       6153       6164       6163  
      6032       6033       6044       6043       6153       6154       6165       6164  
      6033       6034       6045       6044       6154       6155       6166       6165  
      6034       6035       6046       6045       6155       6156       6167       6166  
      6035       6036       6047       6046       6156       6157       6168       6167  
      6036       6037       6048       6047       6157       6158       6169       6168  
      6037       6038       6049       6048       6158       6159       6170       6169  
      6038       6039       6050       6049       6159       6160       6171       6170  
      6051       6052       6063       6062       6172       6173       6184       6183  
      6052       6053       6064       6063       6173       6174       6185       6184  
      6053       6054       6065       6064       6174       6175       6186       6185  
      6054       6055       6066       6065       6175       6176       6187       6186  
      6055       6056       6067       6066       6176       6177       6188       6187  
      6056       6057       6068       6067       6177       6178       6189       6188  
      6057       6058       6069       6068       6178       6179       6190       6189  
      6058       6059       6070       6069       6179       6180       6191       6190  
      6059       6060       6071       6070       6180       6181       6192       6191  
      6060       6061       6072       6071       6181       6182       6193       6192  
      6062       6063       6074       6073       6183       6184       6195       6194  
      6063       6064       6075       6074       6184       6185       6196       6195  
      6064       6065       6076       6075       6185       6186       6197       6196  
      6065       6066       6077       6076       6186       6187       6198       6197  
      6066       6067       6078       6077       6187       6188       6199       6198  
      6067       6068       6079       6078       6188       6189       6200       6199  
      6068       6069       6080       6079       6189       6190       6201       6200  
      6069       6070       6081       6080       6190       6191       6202       6201  
      6070       6071       6082       6081       6191       6192       6203       6202  
      6071       6072       6083       6082       6192       6193       6204       6203  
      6073       6074       6085       6084       6194       6195       6206       6205  
      6074       6075       6086       6085       6195       6196       6207       6206  
      6075       6076       6087       6086       6196       6197       6208       6207  
      6076       6077       6088       6087       6197       6198       6209       6208  
      6077       6078       6089       6088       6198       6199       6210       6209  
      6078       6079       6090       6089       6199       6200       6211       6210  
      6079       6080       6091       6090       6200       6201       6212       6211  
      6080       6081       6092       6091       6201       6202       6213       6212  
      6081       6082       6093       6092       6202       6203       6214       6213  
      6082       6083       6094       6093       6203       6204       6215       6214  
      6084       6085       6096       6095       6205       6206       6217       6216  
      6085       6086       6097       6096       6206       6207       6218       6217  
      6086       6087       6098       6097       6207       6208       6219       6218  
      6087       6088       6099       6098       6208       6209       6220       6219  
      6088       6089       6100       6099       6209       6210       6221       6220  
      6089       6090       6101       6100       6210       6211       6222       6221  
      6090       6091       6102       6101       6211       6212       6223       6222  
      6091       6092       6103       6102       6212       6213       6224       6223  
      6092       6093       6104       6103       6213       6214       6225       6224  
      6093       6094       6105       6104       6214       6215       6226       6225  
      6095       6096       6107       6106       6216       6217       6228       6227  
      6096       6097       6108       6107       6217       6218       6229       6228  
      6097       6098       6109       6108       6218       6219       6230       6229  
      6098       6099       6110       6109       6219       6220       6231       6230  
      6099       6100       6111       6110       6220       6221       6232       6231  
      6100       6101       6112       6111       6221       6222       6233       6232  
      6101       6102       6113       6112       6222       6223       6234       6233  
      6102       6103       6114       6113       6223       6224       6235       6234  
      6103       6104       6115       6114       6224       6225       6236       6235  
      6104       6105       6116       6115       6225       6226       6237       6236  
      6106       6107       6118       6117       6227       6228       6239       6238  
      6107       6108       6119       6118       6228       6229       6240       6239  
      6108       6109       6120       6119       6229       6230       6241       6240  
      6109       6110       6121       6120       6230       6231       6242       6241  
      6110       6111       6122       6121       6231       6232       6243       6242  
      6111       6112       6123       6122       6232       6233       6244       6243  
      6112       6113       6124       6123       6233       6234       6245       6244  
      6113       6114       6125       6124       6234       6235       6246       6245  
      6114       6115       6126       6125       6235       6236       6247       6246  
      6115       6116       6127       6126       6236       6237       6248       6247  
      6117       6118       6129       6128       6238       6239       6250       6249  
      6118       6119       6130       6129       6239       6240       6251       6250  
      6119       6120       6131       6130       6240       6241       6252       6251  
      6120       6121       6132       6131       6241       6242       6253       6252  
      6121       6122       6133       6132       6242       6243       6254       6253  
      6122       6123       6134       6133       6243       6244       6255       6254  
      6123       6124       6135       6134       6244       6245       6256       6255  
      6124       6125       6136       6135       6245       6246       6257       6256  
      6125       6126       6137       6136       6246       6247       6258       6257  
      6126       6127       6138       6137       6247       6248       6259       6258  
      6128       6129       6140       6139       6249       6250       6261       6260  
      6129       6130       6141       6140       6250       6251       6262       6261  
      6130       6131       6142       6141       6251       6252       6263       6262  
      6131       6132       6143       6142       6252       6253       6264       6263  
      6132       6133       6144       6143       6253       6254       6265       6264  
      6133       6134       6145       6144       6254       6255       6266       6265  
      6134       6135       6146       6145       6255       6256       6267       6266  
      6135       6136       6147       6146       6256       6257       6268       6267  
      6136       6137       6148       6147       6257       6258       6269       6268  
      6137       6138       6149       6148       6258       6259       6270       6269  
      6139       6140       6151       6150       6260       6261       6272       6271  
      6140       6141       6152       6151       6261       6262       6273       6272  
      6141       6142       6153       6152       6262       6263       6274       6273  
      6142       6143       6154       6153       6263       6264       6275       6274  
      6143       6144       6155       6154       6264       6265       6276       6275  
      6144       6145       6156       6155       6265       6266       6277       6276  
      6145       6146       6157       6156       6266       6267       6278       6277  
      6146       6147       6158       6157       6267       6268       6279       6278  
      6147       6148       6159       6158       6268       6269       6280       6279  
      6148       6149       6160       6159       6269       6270       6281       6280  
      6150       6151       6162       6161       6271       6272       6283       6282  
      6151       6152       6163       6162       6272       6273       6284       6283  
      6152       6153       6164       6163       6273       6274       6285       6284  
      6153       6154       6165       6164       6274       6275       6286       6285  
      6154       6155       6166       6165       6275       6276       6287       6286  
      6155       6156       6167       6166       6276       6277       6288       6287  
      6156       6157       6168       6167       6277       6278       6289       6288  
      6157       6158       6169       6168       6278       6279       6290       6289  
      6158       6159       6170       6169       6279       6280       6291       6290  
      6159       6160       6171       6170       6280       6281       6292       6291  
      6172       6173       6184       6183       6293       6294       6305       6304  
      6173       6174       6185       6184       6294       6295       6306       6305  
      6174       6175       6186       6185       6295       6296       6307       6306  
      6175       6176       6187       6186       6296       6297       6308       6307  
      6176       6177       6188       6187       6297       6298       6309       6308  
      6177       6178       6189       6188       6298       6299       6310       6309  
      6178       6179       6190       6189       6299       6300       6311       6310  
      6179       6180       6191       6190       6300       6301       6312       6311  
      6180       6181       6192       6191       6301       6302       6313       6312  
      6181       6182       6193       6192       6302       6303       6314       6313  
      6183       6184       6195       6194       6304       6305       6316       6315  
      6184       6185       6196       6195       6305       6306       6317       6316  
      6185       6186       6197       6196       6306       6307       6318       6317  
      6186       6187       6198       6197       6307       6308       6319       6318  
      6187       6188       6199       6198       6308       6309       6320       6319  
      6188       6189       6200       6199       6309       6310       6321       6320  
      6189       6190       6201       6200       6310       6311       6322       6321  
      6190       6191       6202       6201       6311       6312       6323       6322  
      6191       6192       6203       6202       6312       6313       6324       6323  
      6192       6193       6204       6203       6313       6314       6325       6324  
      6194       6195       6206       6205       6315       6316       6327       6326  
      6195       6196       6207       6206       6316       6317       6328       6327  
      6196       6197       6208       6207       6317       6318       6329       6328  
      6197       6198       6209       6208       6318       6319       6330       6329  
      6198       6199       6210       6209       6319       6320       6331       6330  
      6199       6200       6211       6210       6320       6321       6332       6331  
      6200       6201       6212       6211       6321       6322       6333       6332  
      6201       6202       6213       6212       6322       6323       6334       6333  
      6202       6203       6214       6213       6323       6324       6335       6334  
      6203       6204       6215       6214       6324       6325       6336       6335  
      6205       6206       6217       6216       6326       6327       6338       6337  
      6206       6207       6218       6217       6327       6328       6339       6338  
      6207       6208       6219       6218       6328       6329       6340       6339  
      6208       6209       6220       6219       6329       6330       6341       6340  
      6209       6210       6221       6220       6330       6331       6342       6341  
      6210       6211       6222       6221       6331       6332       6343       6342  
      6211       6212       6223       6222       6332       6333       6344       6343  
      6212       6213       6224       6223       6333       6334       6345       6344  
      6213       6214       6225       6224       6334       6335       6346       6345  
      6214       6215       6226       6225       6335       6336       6347       6346  
      6216       6217       6228       6227       6337       6338       6349       6348  
      6217       6218       6229       6228       6338       6339       6350       6349  
      6218       6219       6230       6229       6339       6340       6351       6350  
      6219       6220       6231       6230       6340       6341       6352       6351  
      6220       6221       6232       6231       6341       6342       6353       6352  
      6221       6222       6233       6232       6342       6343       6354       6353  
      6222       6223       6234       6233       6343       6344       6355       6354  
      6223       6224       6235       6234       6344       6345       6356       6355  
      6224       6225       6236       6235       6345       6346       6357       6356  
      6225       6226       6237       6236       6346       6347       6358       6357  
      6227       6228       6239       6238       6348       6349       6360       6359  
      6228       6229       6240       6239       6349       6350       6361       6360  
      6229       6230       6241       6240       6350       6351       6362       6361  
      6230       6231       6242       6241       6351       6352       6363       6362  
      6231       6232       6243       6242       6352       6353       6364       6363  
      6232       6233       6244       6243       6353       6354       6365       6364  
      6233       6234       6245       6244       6354       6355       6366       6365  
      6234       6235       6246       6245       6355       6356       6367       6366  
      6235       6236       6247       6246       6356       6357       6368       6367  
      6236       6237       6248       6247       6357       6358       6369       6368  
      6238       6239       6250       6249       6359       6360       6371       6370  
      6239       6240       6251       6250       6360       6361       6372       6371  
      6240       6241       6252       6251       6361       6362       6373       6372  
      6241       6242       6253       6252       6362       6363       6374       6373  
      6242       6243       6254       6253       6363       6364       6375       6374  
      6243       6244       6255       6254       6364       6365       6376       6375  
      6244       6245       6256       6255       6365       6366       6377       6376  
      6245       6246       6257       6256       6366       6367       6378       6377  
      6246       6247       6258       6257       6367       6368       6379       6378  
      6247       6248       6259       6258       6368       6369       6380       6379  
      6249       6250       6261       6260       6370       6371       6382       6381  
      6250       6251       6262       6261       6371       6372       6383       6382  
      6251       6252       6263       6262       6372       6373       6384       6383  
      6252       6253       6264       6263       6373       6374       6385       6384  
      6253       6254       6265       6264       6374       6375       6386       6385  
      6254       6255       6266       6265       6375       6376       6387       6386  
      6255       6256       6267       6266       6376       6377       6388       6387  
      6256       6257       6268       6267       6377       6378       6389       6388  
      6257       6258       6269       6268       6378       6379       6390       6389  
      6258       6259       6270       6269       6379       6380       6391       6390  
      6260       6261       6272       6271       6381       6382       6393       6392  
      6261       6262       6273       6272       6382       6383       6394       6393  
      6262       6263       6274       6273       6383       6384       6395       6394  
      6263       6264       6275       6274       6384       6385       6396       6395  
      6264       6265       6276       6275       6385       6386       6397       6396  
      6265       6266       6277       6276       6386       6387       6398       6397  
      6266       6267       6278       6277       6387       6388       6399       6398  
      6267       6268       6279       6278       6388       6389       6400       6399  
      6268       6269       6280       6279       6389       6390       6401       6400  
      6269       6270       6281       6280       6390       6391       6402       6401  
      6271       6272       6283       6282       6392       6393       6404       6403  
      6272       6273       6284       6283       6393       6394       6405       6404  
      6273       6274       6285       6284       6394       6395       6406       6405  
      6274       6275       6286       6285       6395       6396       6407       6406  
      6275       6276       6287       6286       6396       6397       6408       6407  
      6276       6277       6288       6287       6397       6398       6409       6408  
      6277       6278       6289       6288       6398       6399       6410       6409  
      6278       6279       6290       6289       6399       6400       6411       6410  
      6279       6280       6291       6290       6400       6401       6412       6411  
      6280       6281       6292       6291       6401       6402       6413       6412  
      6293       6294       6305       6304       6414       6415       6426       6425  
      6294       6295       6306       6305       6415       6416       6427       6426  
      6295       6296       6307       6306       6416       6417       6428       6427  
      6296       6297       6308       6307       6417       6418       6429       6428  
      6297       6298       6309       6308       6418       6419       6430       6429  
      6298       6299       6310       6309       6419       6420       6431       6430  
      6299       6300       6311       6310       6420       6421       6432       6431  
      6300       6301       6312       6311       6421       6422       6433       6432  
      6301       6302       6313       6312       6422       6423       6434       6433  
      6302       6303       6314       6313       6423       6424       6435       6434  
      6304       6305       6316       6315       6425       6426       6437       6436  
      6305       6306       6317       6316       6426       6427       6438       6437  
      6306       6307       6318       6317       6427       6428       6439       6438  
      6307       6308       6319       6318       6428       6429       6440       6439  
      6308       6309       6320       6319       6429       6430       6441       6440  
      6309       6310       6321       6320       6430       6431       6442       6441  
      6310       6311       6322       6321       6431       6432       6443       6442  
      6311       6312       6323       6322       6432       6433       6444       6443  
      6312       6313       6324       6323       6433       6434       6445       6444  
      6313       6314       6325       6324       6434       6435       6446       6445  
      6315       6316       6327       6326       6436       6437       6448       6447  
      6316       6317       6328       6327       6437       6438       6449       6448  
      6317       6318       6329       6328       6438       6439       6450       6449  
      6318       6319       6330       6329       6439       6440       6451       6450  
      6319       6320       6331       6330       6440       6441       6452       6451  
      6320       6321       6332       6331       6441       6442       6453       6452  
      6321       6322       6333       6332       6442       6443       6454       6453  
      6322       6323       6334       6333       6443       6444       6455       6454  
      6323       6324       6335       6334       6444       6445       6456       6455  
      6324       6325       6336       6335       6445       6446       6457       6456  
      6326       6327       6338       6337       6447       6448       6459       6458  
      6327       6328       6339       6338       6448       6449       6460       6459  
      6328       6329       6340       6339       6449       6450       6461       6460  
      6329       6330       6341       6340       6450       6451       6462       6461  
      6330       6331       6342       6341       6451       6452       6463       6462  
      6331       6332       6343       6342       6452       6453       6464       6463  
      6332       6333       6344       6343       6453       6454       6465       6464  
      6333       6334       6345       6344       6454       6455       6466       6465  
      6334       6335       6346       6345       6455       6456       6467       6466  
      6335       6336       6347       6346       6456       6457       6468       6467  
      6337       6338       6349       6348       6458       6459       6470       6469  
      6338       6339       6350       6349       6459       6460       6471       6470  
      6339       6340       6351       6350       6460       6461       6472       6471  
      6340       6341       6352       6351       6461       6462       6473       6472  
      6341       6342       6353       6352       6462       6463       6474       6473  
      6342       6343       6354       6353       6463       6464       6475       6474  
      6343       6344       6355       6354       6464       6465       6476       6475  
      6344       6345       6356       6355       6465       6466       6477       6476  
      6345       6346       6357       6356       6466       6467       6478       6477  
      6346       6347       6358       6357       6467       6468       6479       6478  
      6348       6349       6360       6359       6469       6470       6481       6480  
      6349       6350       6361       6360       6470       6471       6482       6481  
      6350       6351       6362       6361       6471       6472       6483       6482  
      6351       6352       6363       6362       6472       6473       6484       6483  
      6352       6353       6364       6363       6473       6474       6485       6484  
      6353       6354       6365       6364       6474       6475       6486       6485  
      6354       6355       6366       6365       6475       6476       6487       6486  
      6355       6356       6367       6366       6476       6477       6488       6487  
      6356       6357       6368       6367       6477       6478       6489       6488  
      6357       6358       6369       6368       6478       6479       6490       6489  
      6359       6360       6371       6370       6480       6481       6492       6491  
      6360       6361       6372       6371       6481       6482       6493       6492  
      6361       6362       6373       6372       6482       6483       6494       6493  
      6362       6363       6374       6373       6483       6484       6495       6494  
      6363       6364       6375       6374       6484       6485       6496       6495  
      6364       6365       6376       6375       6485       6486       6497       6496  
      6365       6366       6377       6376       6486       6487       6498       6497  
      6366       6367       6378       6377       6487       6488       6499       6498  
      6367       6368       6379       6378       6488       6489       6500       6499  
      6368       6369       6380       6379       6489       6490       6501       6500  
      6370       6371       6382       6381       6491       6492       6503       6502  
      6371       6372       6383       6382       6492       6493       6504       6503  
      6372       6373       6384       6383       6493       6494       6505       6504  
      6373       6374       6385       6384       6494       6495       6506       6505  
      6374       6375       6386       6385       6495       6496       6507       6506  
      6375       6376       6387       6386       6496       6497       6508       6507  
      6376       6377       6388       6387       6497       6498       6509       6508  
      6377       6378       6389       6388       6498       6499       6510       6509  
      6378       6379       6390       6389       6499       6500       6511       6510  
      6379       6380       6391       6390       6500       6501       6512       6511  
      6381       6382       6393       6392       6502       6503       6514       6513  
      6382       6383       6394       6393       6503       6504       6515       6514  
      6383       6384       6395       6394       6504       6505       6516       6515  
      6384       6385       6396       6395       6505       6506       6517       6516  
      6385       6386       6397       6396       6506       6507       6518       6517  
      6386       6387       6398       6397       6507       6508       6519       6518  
      6387       6388       6399       6398       6508       6509       6520       6519  
      6388       6389       6400       6399       6509       6510       6521       6520  
      6389       6390       6401       6400       6510       6511       6522       6521  
      6390       6391       6402       6401       6511       6512       6523       6522  
      6392       6393       6404       6403       6513       6514       6525       6524  
      6393       6394       6405       6404       6514       6515       6526       6525  
      6394       6395       6406       6405       6515       6516       6527       6526  
      6395       6396       6407       6406       6516       6517       6528       6527  
      6396       6397       6408       6407       6517       6518       6529       6528  
      6397       6398       6409       6408       6518       6519       6530       6529  
      6398       6399       6410       6409       6519       6520       6531       6530  
      6399       6400       6411       6410       6520       6521       6532       6531  
      6400       6401       6412       6411       6521       6522       6533       6532  
      6401       6402       6413       6412       6522       6523       6534       6533  
      6414       6415       6426       6425       6535       6536       6547       6546  
      6415       6416       6427       6426       6536       6537       6548       6547  
      6416       6417       6428       6427       6537       6538       6549       6548  
      6417       6418       6429       6428       6538       6539       6550       6549  
      6418       6419       6430       6429       6539       6540       6551       6550  
      6419       6420       6431       6430       6540       6541       6552       6551  
      6420       6421       6432       6431       6541       6542       6553       6552  
      6421       6422       6433       6432       6542       6543       6554       6553  
      6422       6423       6434       6433       6543       6544       6555       6554  
      6423       6424       6435       6434       6544       6545       6556       6555  
      6425       6426       6437       6436       6546       6547       6558       6557  
      6426       6427       6438       6437       6547       6548       6559       6558  
      6427       6428       6439       6438       6548       6549       6560       6559  
      6428       6429       6440       6439       6549       6550       6561       6560  
      6429       6430       6441       6440       6550       6551       6562       6561  
      6430       6431       6442       6441       6551       6552       6563       6562  
      6431       6432       6443       6442       6552       6553       6564       6563  
      6432       6433       6444       6443       6553       6554       6565       6564  
      6433       6434       6445       6444       6554       6555       6566       6565  
      6434       6435       6446       6445       6555       6556       6567       6566  
      6436       6437       6448       6447       6557       6558       6569       6568  
      6437       6438       6449       6448       6558       6559       6570       6569  
      6438       6439       6450       6449       6559       6560       6571       6570  
      6439       6440       6451       6450       6560       6561       6572       6571  
      6440       6441       6452       6451       6561       6562       6573       6572  
      6441       6442       6453       6452       6562       6563       6574       6573  
      6442       6443       6454       6453       6563       6564       6575       6574  
      6443       6444       6455       6454       6564       6565       6576       6575  
      6444       6445       6456       6455       6565       6566       6577       6576  
      6445       6446       6457       6456       6566       6567       6578       6577  
      6447       6448       6459       6458       6568       6569       6580       6579  
      6448       6449       6460       6459       6569       6570       6581       6580  
      6449       6450       6461       6460       6570       6571       6582       6581  
      6450       6451       6462       6461       6571       6572       6583       6582  
      6451       6452       6463       6462       6572       6573       6584       6583  
      6452       6453       6464       6463       6573       6574       6585       6584  
      6453       6454       6465       6464       6574       6575       6586       6585  
      6454       6455       6466       6465       6575       6576       6587       6586  
      6455       6456       6467       6466       6576       6577       6588       6587  
      6456       6457       6468       6467       6577       6578       6589       6588  
      6458       6459       6470       6469       6579       6580       6591       6590  
      6459       6460       6471       6470       6580       6581       6592       6591  
      6460       6461       6472       6471       6581       6582       6593       6592  
      6461       6462       6473       6472       6582       6583       6594       6593  
      6462       6463       6474       6473       6583       6584       6595       6594  
      6463       6464       6475       6474       6584       6585       6596       6595  
      6464       6465       6476       6475       6585       6586       6597       6596  
      6465       6466       6477       6476       6586       6587       6598       6597  
      6466       6467       6478       6477       6587       6588       6599       6598  
      6467       6468       6479       6478       6588       6589       6600       6599  
      6469       6470       6481       6480       6590       6591       6602       6601  
      6470       6471       6482       6481       6591       6592       6603       6602  
      6471       6472       6483       6482       6592       6593       6604       6603  
      6472       6473       6484       6483       6593       6594       6605       6604  
      6473       6474       6485       6484       6594       6595       6606       6605  
      6474       6475       6486       6485       6595       6596       6607       6606  
      6475       6476       6487       6486       6596       6597       6608       6607  
      6476       6477       6488       6487       6597       6598       6609       6608  
      6477       6478       6489       6488       6598       6599       6610       6609  
      6478       6479       6490       6489       6599       6600       6611       6610  
      6480       6481       6492       6491       6601       6602       6613       6612  
      6481       6482       6493       6492       6602       6603       6614       6613  
      6482       6483       6494       6493       6603       6604       6615       6614  
      6483       6484       6495       6494       6604       6605       6616       6615  
      6484       6485       6496       6495       6605       6606       6617       6616  
      6485       6486       6497       6496       6606       6607       6618       6617  
      6486       6487       6498       6497       6607       6608       6619       6618  
      6487       6488       6499       6498       6608       6609       6620       6619  
      6488       6489       6500       6499       6609       6610       6621       6620  
      6489       6490       6501       6500       6610       6611       6622       6621  
      6491       6492       6503       6502       6612       6613       6624       6623  
      6492       6493       6504       6503       6613       6614       6625       6624  
      6493       6494       6505       6504       6614       6615       6626       6625  
      6494       6495       6506       6505       6615       6616       6627       6626  
      6495       6496       6507       6506       6616       6617       6628       6627  
      6496       6497       6508       6507       6617       6618       6629       6628  
      6497       6498       6509       6508       6618       6619       6630       6629  
      6498       6499       6510       6509       6619       6620       6631       6630  
      6499       6500       6511       6510       6620       6621       6632       6631  
      6500       6501       6512       6511       6621       6622       6633       6632  
      6502       6503       6514       6513       6623       6624       6635       6634  
      6503       6504       6515       6514       6624       6625       6636       6635  
      6504       6505       6516       6515       6625       6626       6637       6636  
      6505       6506       6517       6516       6626       6627       6638       6637  
      6506       6507       6518       6517       6627       6628       6639       6638  
      6507       6508       6519       6518       6628       6629       6640       6639  
      6508       6509       6520       6519       6629       6630       6641       6640  
      6509       6510       6521       6520       6630       6631       6642       6641  
      6510       6511       6522       6521       6631       6632       6643       6642  
      6511       6512       6523       6522       6632       6633       6644       6643  
      6513       6514       6525       6524       6634       6635       6646       6645  
      6514       6515       6526       6525       6635       6636       6647       6646  
      6515       6516       6527       6526       6636       6637       6648       6647  
      6516       6517       6528       6527       6637       6638       6649       6648  
      6517       6518       6529       6528       6638       6639       6650       6649  
      6518       6519       6530       6529       6639       6640       6651       6650  
      6519       6520       6531       6530       6640       6641       6652       6651  
      6520       6521       6532       6531       6641       6642       6653       6652  
      6521       6522       6533       6532       6642       6643       6654       6653  
      6522       6523       6534       6533       6643       6644       6655       6654  
      6535       6536       6547       6546       6656       6657       6668       6667  
      6536       6537       6548       6547       6657       6658       6669       6668  
      6537       6538       6549       6548       6658       6659       6670       6669  
      6538       6539       6550       6549       6659       6660       6671       6670  
      6539       6540       6551       6550       6660       6661       6672       6671  
      6540       6541       6552       6551       6661       6662       6673       6672  
      6541       6542       6553       6552       6662       6663       6674       6673  
      6542       6543       6554       6553       6663       6664       6675       6674  
      6543       6544       6555       6554       6664       6665       6676       6675  
      6544       6545       6556       6555       6665       6666       6677       6676  
      6546       6547       6558       6557       6667       6668       6679       6678  
      6547       6548       6559       6558       6668       6669       6680       6679  
      6548       6549       6560       6559       6669       6670       6681       6680  
      6549       6550       6561       6560       6670       6671       6682       6681  
      6550       6551       6562       6561       6671       6672       6683       6682  
      6551       6552       6563       6562       6672       6673       6684       6683  
      6552       6553       6564       6563       6673       6674       6685       6684  
      6553       6554       6565       6564       6674       6675       6686       6685  
      6554       6555       6566       6565       6675       6676       6687       6686  
      6555       6556       6567       6566       6676       6677       6688       6687  
      6557       6558       6569       6568       6678       6679       6690       6689  
      6558       6559       6570       6569       6679       6680       6691       6690  
      6559       6560       6571       6570       6680       6681       6692       6691  
      6560       6561       6572       6571       6681       6682       6693       6692  
      6561       6562       6573       6572       6682       6683       6694       6693  
      6562       6563       6574       6573       6683       6684       6695       6694  
      6563       6564       6575       6574       6684       6685       6696       6695  
      6564       6565       6576       6575       6685       6686       6697       6696  
      6565       6566       6577       6576       6686       6687       6698       6697  
      6566       6567       6578       6577       6687       6688       6699       6698  
      6568       6569       6580       6579       6689       6690       6701       6700  
      6569       6570       6581       6580       6690       6691       6702       6701  
      6570       6571       6582       6581       6691       6692       6703       6702  
      6571       6572       6583       6582       6692       6693       6704       6703  
      6572       6573       6584       6583       6693       6694       6705       6704  
      6573       6574       6585       6584       6694       6695       6706       6705  
      6574       6575       6586       6585       6695       6696       6707       6706  
      6575       6576       6587       6586       6696       6697       6708       6707  
      6576       6577       6588       6587       6697       6698       6709       6708  
      6577       6578       6589       6588       6698       6699       6710       6709  
      6579       6580       6591       6590       6700       6701       6712       6711  
      6580       6581       6592       6591       6701       6702       6713       6712  
      6581       6582       6593       6592       6702       6703       6714       6713  
      6582       6583       6594       6593       6703       6704       6715       6714  
      6583       6584       6595       6594       6704       6705       6716       6715  
      6584       6585       6596       6595       6705       6706       6717       6716  
      6585       6586       6597       6596       6706       6707       6718       6717  
      6586       6587       6598       6597       6707       6708       6719       6718  
      6587       6588       6599       6598       6708       6709       6720       6719  
      6588       6589       6600       6599       6709       6710       6721       6720  
      6590       6591       6602       6601       6711       6712       6723       6722  
      6591       6592       6603       6602       6712       6713       6724       6723  
      6592       6593       6604       6603       6713       6714       6725       6724  
      6593       6594       6605       6604       6714       6715       6726       6725  
      6594       6595       6606       6605       6715       6716       6727       6726  
      6595       6596       6607       6606       6716       6717       6728       6727  
      6596       6597       6608       6607       6717       6718       6729       6728  
      6597       6598       6609       6608       6718       6719       6730       6729  
      6598       6599       6610       6609       6719       6720       6731       6730  
      6599       6600       6611       6610       6720       6721       6732       6731  
      6601       6602       6613       6612       6722       6723       6734       6733  
      6602       6603       6614       6613       6723       6724       6735       6734  
      6603       6604       6615       6614       6724       6725       6736       6735  
      6604       6605       6616       6615       6725       6726       6737       6736  
      6605       6606       6617       6616       6726       6727       6738       6737  
      6606       6607       6618       6617       6727       6728       6739       6738  
      6607       6608       6619       6618       6728       6729       6740       6739  
      6608       6609       6620       6619       6729       6730       6741       6740  
      6609       6610       6621       6620       6730       6731       6742       6741  
      6610       6611       6622       6621       6731       6732       6743       6742  
      6612       6613       6624       6623       6733       6734       6745       6744  
      6613       6614       6625       6624       6734       6735       6746       6745  
      6614       6615       6626       6625       6735       6736       6747       6746  
      6615       6616       6627       6626       6736       6737       6748       6747  
      6616       6617       6628       6627       6737       6738       6749       6748  
      6617       6618       6629       6628       6738       6739       6750       6749  
      6618       6619       6630       6629       6739       6740       6751       6750  
      6619       6620       6631       6630       6740       6741       6752       6751  
      6620       6621       6632       6631       6741       6742       6753       6752  
      6621       6622       6633       6632       6742       6743       6754       6753  
      6623       6624       6635       6634       6744       6745       6756       6755  
      6624       6625       6636       6635       6745       6746       6757       6756  
      6625       6626       6637       6636       6746       6747       6758       6757  
      6626       6627       6638       6637       6747       6748       6759       6758  
      6627       6628       6639       6638       6748       6749       6760       6759  
      6628       6629       6640       6639       6749       6750       6761       6760  
      6629       6630       6641       6640       6750       6751       6762       6761  
      6630       6631       6642       6641       6751       6752       6763       6762  
      6631       6632       6643       6642       6752       6753       6764       6763  
      6632       6633       6644       6643       6753       6754       6765       6764  
      6634       6635       6646       6645       6755       6756       6767       6766  
      6635       6636       6647       6646       6756       6757       6768       6767  
      6636       6637       6648       6647       6757       6758       6769       6768  
      6637       6638       6649       6648       6758       6759       6770       6769  
      6638       6639       6650       6649       6759       6760       6771       6770  
      6639       6640       6651       6650       6760       6761       6772       6771  
      6640       6641       6652       6651       6761       6762       6773       6772  
      6641       6642       6653       6652       6762       6763       6774       6773  
      6642       6643       6654       6653       6763       6764       6775       6774  
      6643       6644       6655       6654       6764       6765       6776       6775  
      6656       6657       6668       6667       6777       6778       6789       6788  
      6657       6658       6669       6668       6778       6779       6790       6789  
      6658       6659       6670       6669       6779       6780       6791       6790  
      6659       6660       6671       6670       6780       6781       6792       6791  
      6660       6661       6672       6671       6781       6782       6793       6792  
      6661       6662       6673       6672       6782       6783       6794       6793  
      6662       6663       6674       6673       6783       6784       6795       6794  
      6663       6664       6675       6674       6784       6785       6796       6795  
      6664       6665       6676       6675       6785       6786       6797       6796  
      6665       6666       6677       6676       6786       6787       6798       6797  
      6667       6668       6679       6678       6788       6789       6800       6799  
      6668       6669       6680       6679       6789       6790       6801       6800  
      6669       6670       6681       6680       6790       6791       6802       6801  
      6670       6671       6682       6681       6791       6792       6803       6802  
      6671       6672       6683       6682       6792       6793       6804       6803  
      6672       6673       6684       6683       6793       6794       6805       6804  
      6673       6674       6685       6684       6794       6795       6806       6805  
      6674       6675       6686       6685       6795       6796       6807       6806  
      6675       6676       6687       6686       6796       6797       6808       6807  
      6676       6677       6688       6687       6797       6798       6809       6808  
      6678       6679       6690       6689       6799       6800       6811       6810  
      6679       6680       6691       6690       6800       6801       6812       6811  
      6680       6681       6692       6691       6801       6802       6813       6812  
      6681       6682       6693       6692       6802       6803       6814       6813  
      6682       6683       6694       6693       6803       6804       6815       6814  
      6683       6684       6695       6694       6804       6805       6816       6815  
      6684       6685       6696       6695       6805       6806       6817       6816  
      6685       6686       6697       6696       6806       6807       6818       6817  
      6686       6687       6698       6697       6807       6808       6819       6818  
      6687       6688       6699       6698       6808       6809       6820       6819  
      6689       6690       6701       6700       6810       6811       6822       6821  
      6690       6691       6702       6701       6811       6812       6823       6822  
      6691       6692       6703       6702       6812       6813       6824       6823  
      6692       6693       6704       6703       6813       6814       6825       6824  
      6693       6694       6705       6704       6814       6815       6826       6825  
      6694       6695       6706       6705       6815       6816       6827       6826  
      6695       6696       6707       6706       6816       6817       6828       6827  
      6696       6697       6708       6707       6817       6818       6829       6828  
      6697       6698       6709       6708       6818       6819       6830       6829  
      6698       6699       6710       6709       6819       6820       6831       6830  
      6700       6701       6712       6711       6821       6822       6833       6832  
      6701       6702       6713       6712       6822       6823       6834       6833  
      6702       6703       6714       6713       6823       6824       6835       6834  
      6703       6704       6715       6714       6824       6825       6836       6835  
      6704       6705       6716       6715       6825       6826       6837       6836  
      6705       6706       6717       6716       6826       6827       6838       6837  
      6706       6707       6718       6717       6827       6828       6839       6838  
      6707       6708       6719       6718       6828       6829       6840       6839  
      6708       6709       6720       6719       6829       6830       6841       6840  
      6709       6710       6721       6720       6830       6831       6842       6841  
      6711       6712       6723       6722       6832       6833       6844       6843  
      6712       6713       6724       6723       6833       6834       6845       6844  
      6713       6714       6725       6724       6834       6835       6846       6845  
      6714       6715       6726       6725       6835       6836       6847       6846  
      6715       6716       6727       6726       6836       6837       6848       6847  
      6716       6717       6728       6727       6837       6838       6849       6848  
      6717       6718       6729       6728       6838       6839       6850       6849  
      6718       6719       6730       6729       6839       6840       6851       6850  
      6719       6720       6731       6730       6840       6841       6852       6851  
      6720       6721       6732       6731       6841       6842       6853       6852  
      6722       6723       6734       6733       6843       6844       6855       6854  
      6723       6724       6735       6734       6844       6845       6856       6855  
      6724       6725       6736       6735       6845       6846       6857       6856  
      6725       6726       6737       6736       6846       6847       6858       6857  
      6726       6727       6738       6737       6847       6848       6859       6858  
      6727       6728       6739       6738       6848       6849       6860       6859  
      6728       6729       6740       6739       6849       6850       6861       6860  
      6729       6730       6741       6740       6850       6851       6862       6861  
      6730       6731       6742       6741       6851       6852       6863       6862  
      6731       6732       6743       6742       6852       6853       6864       6863  
      6733       6734       6745       6744       6854       6855       6866       6865  
      6734       6735       6746       6745       6855       6856       6867       6866  
      6735       6736       6747       6746       6856       6857       6868       6867  
      6736       6737       6748       6747       6857       6858       6869       6868  
      6737       6738       6749       6748       6858       6859       6870       6869  
      6738       6739       6750       6749       6859       6860       6871       6870  
      6739       6740       6751       6750       6860       6861       6872       6871  
      6740       6741       6752       6751       6861       6862       6873       6872  
      6741       6742       6753       6752       6862       6863       6874       6873  
      6742       6743       6754       6753       6863       6864       6875       6874  
      6744       6745       6756       6755       6865       6866       6877       6876  
      6745       6746       6757       6756       6866       6867       6878       6877  
      6746       6747       6758       6757       6867       6868       6879       6878  
      6747       6748       6759       6758       6868       6869       6880       6879  
      6748       6749       6760       6759       6869       6870       6881       6880  
      6749       6750       6761       6760       6870       6871       6882       6881  
      6750       6751       6762       6761       6871       6872       6883       6882  
      6751       6752       6763       6762       6872       6873       6884       6883  
      6752       6753       6764       6763       6873       6874       6885       6884  
      6753       6754       6765       6764       6874       6875       6886       6885  
      6755       6756       6767       6766       6876       6877       6888       6887  
      6756       6757       6768       6767       6877       6878       6889       6888  
      6757       6758       6769       6768       6878       6879       6890       6889  
      6758       6759       6770       6769       6879       6880       6891       6890  
      6759       6760       6771       6770       6880       6881       6892       6891  
      6760       6761       6772       6771       6881       6882       6893       6892  
      6761       6762       6773       6772       6882       6883       6894       6893  
      6762       6763       6774       6773       6883       6884       6895       6894  
      6763       6764       6775       6774       6884       6885       6896       6895  
      6764       6765       6776       6775       6885       6886       6897       6896  
      6777       6778       6789       6788       6898       6899       6910       6909  
      6778       6779       6790       6789       6899       6900       6911       6910  
      6779       6780       6791       6790       6900       6901       6912       6911  
      6780       6781       6792       6791       6901       6902       6913       6912  
      6781       6782       6793       6792       6902       6903       6914       6913  
      6782       6783       6794       6793       6903       6904       6915       6914  
      6783       6784       6795       6794       6904       6905       6916       6915  
      6784       6785       6796       6795       6905       6906       6917       6916  
      6785       6786       6797       6796       6906       6907       6918       6917  
      6786       6787       6798       6797       6907       6908       6919       6918  
      6788       6789       6800       6799       6909       6910       6921       6920  
      6789       6790       6801       6800       6910       6911       6922       6921  
      6790       6791       6802       6801       6911       6912       6923       6922  
      6791       6792       6803       6802       6912       6913       6924       6923  
      6792       6793       6804       6803       6913       6914       6925       6924  
      6793       6794       6805       6804       6914       6915       6926       6925  
      6794       6795       6806       6805       6915       6916       6927       6926  
      6795       6796       6807       6806       6916       6917       6928       6927  
      6796       6797       6808       6807       6917       6918       6929       6928  
      6797       6798       6809       6808       6918       6919       6930       6929  
      6799       6800       6811       6810       6920       6921       6932       6931  
      6800       6801       6812       6811       6921       6922       6933       6932  
      6801       6802       6813       6812       6922       6923       6934       6933  
      6802       6803       6814       6813       6923       6924       6935       6934  
      6803       6804       6815       6814       6924       6925       6936       6935  
      6804       6805       6816       6815       6925       6926       6937       6936  
      6805       6806       6817       6816       6926       6927       6938       6937  
      6806       6807       6818       6817       6927       6928       6939       6938  
      6807       6808       6819       6818       6928       6929       6940       6939  
      6808       6809       6820       6819       6929       6930       6941       6940  
      6810       6811       6822       6821       6931       6932       6943       6942  
      6811       6812       6823       6822       6932       6933       6944       6943  
      6812       6813       6824       6823       6933       6934       6945       6944  
      6813       6814       6825       6824       6934       6935       6946       6945  
      6814       6815       6826       6825       6935       6936       6947       6946  
      6815       6816       6827       6826       6936       6937       6948       6947  
      6816       6817       6828       6827       6937       6938       6949       6948  
      6817       6818       6829       6828       6938       6939       6950       6949  
      6818       6819       6830       6829       6939       6940       6951       6950  
      6819       6820       6831       6830       6940       6941       6952       6951  
      6821       6822       6833       6832       6942       6943       6954       6953  
      6822       6823       6834       6833       6943       6944       6955       6954  
      6823       6824       6835       6834       6944       6945       6956       6955  
      6824       6825       6836       6835       6945       6946       6957       6956  
      6825       6826       6837       6836       6946       6947       6958       6957  
      6826       6827       6838       6837       6947       6948       6959       6958  
      6827       6828       6839       6838       6948       6949       6960       6959  
      6828       6829       6840       6839       6949       6950       6961       6960  
      6829       6830       6841       6840       6950       6951       6962       6961  
      6830       6831       6842       6841       6951       6952       6963       6962  
      6832       6833       6844       6843       6953       6954       6965       6964  
      6833       6834       6845       6844       6954       6955       6966       6965  
      6834       6835       6846       6845       6955       6956       6967       6966  
      6835       6836       6847       6846       6956       6957       6968       6967  
      6836       6837       6848       6847       6957       6958       6969       6968  
      6837       6838       6849       6848       6958       6959       6970       6969  
      6838       6839       6850       6849       6959       6960       6971       6970  
      6839       6840       6851       6850       6960       6961       6972       6971  
      6840       6841       6852       6851       6961       6962       6973       6972  
      6841       6842       6853       6852       6962       6963       6974       6973  
      6843       6844       6855       6854       6964       6965       6976       6975  
      6844       6845       6856       6855       6965       6966       6977       6976  
      6845       6846       6857       6856       6966       6967       6978       6977  
      6846       6847       6858       6857       6967       6968       6979       6978  
      6847       6848       6859       6858       6968       6969       6980       6979  
      6848       6849       6860       6859       6969       6970       6981       6980  
      6849       6850       6861       6860       6970       6971       6982       6981  
      6850       6851       6862       6861       6971       6972       6983       6982  
      6851       6852       6863       6862       6972       6973       6984       6983  
      6852       6853       6864       6863       6973       6974       6985       6984  
      6854       6855       6866       6865       6975       6976       6987       6986  
      6855       6856       6867       6866       6976       6977       6988       6987  
      6856       6857       6868       6867       6977       6978       6989       6988  
      6857       6858       6869       6868       6978       6979       6990       6989  
      6858       6859       6870       6869       6979       6980       6991       6990  
      6859       6860       6871       6870       6980       6981       6992       6991  
      6860       6861       6872       6871       6981       6982       6993       6992  
      6861       6862       6873       6872       6982       6983       6994       6993  
      6862       6863       6874       6873       6983       6984       6995       6994  
      6863       6864       6875       6874       6984       6985       6996       6995  
      6865       6866       6877       6876       6986       6987       6998       6997  
      6866       6867       6878       6877       6987       6988       6999       6998  
      6867       6868       6879       6878       6988       6989       7000       6999  
      6868       6869       6880       6879       6989       6990       7001       7000  
      6869       6870       6881       6880       6990       6991       7002       7001  
      6870       6871       6882       6881       6991       6992       7003       7002  
      6871       6872       6883       6882       6992       6993       7004       7003  
      6872       6873       6884       6883       6993       6994       7005       7004  
      6873       6874       6885       6884       6994       6995       7006       7005  
      6874       6875       6886       6885       6995       6996       7007       7006  
      6876       6877       6888       6887       6997       6998       7009       7008  
      6877       6878       6889       6888       6998       6999       7010       7009  
      6878       6879       6890       6889       6999       7000       7011       7010  
      6879       6880       6891       6890       7000       7001       7012       7011  
      6880       6881       6892       6891       7001       7002       7013       7012  
      6881       6882       6893       6892       7002       7003       7014       7013  
      6882       6883       6894       6893       7003       7004       7015       7014  
      6883       6884       6895       6894       7004       7005       7016       7015  
      6884       6885       6896       6895       7005       7006       7017       7016  
      6885       6886       6897       6896       7006       7007       7018       7017  
      6898       6899       6910       6909       7019       7020       7031       7030  
      6899       6900       6911       6910       7020       7021       7032       7031  
      6900       6901       6912       6911       7021       7022       7033       7032  
      6901       6902       6913       6912       7022       7023       7034       7033  
      6902       6903       6914       6913       7023       7024       7035       7034  
      6903       6904       6915       6914       7024       7025       7036       7035  
      6904       6905       6916       6915       7025       7026       7037       7036  
      6905       6906       6917       6916       7026       7027       7038       7037  
      6906       6907       6918       6917       7027       7028       7039       7038  
      6907       6908       6919       6918       7028       7029       7040       7039  
      6909       6910       6921       6920       7030       7031       7042       7041  
      6910       6911       6922       6921       7031       7032       7043       7042  
      6911       6912       6923       6922       7032       7033       7044       7043  
      6912       6913       6924       6923       7033       7034       7045       7044  
      6913       6914       6925       6924       7034       7035       7046       7045  
      6914       6915       6926       6925       7035       7036       7047       7046  
      6915       6916       6927       6926       7036       7037       7048       7047  
      6916       6917       6928       6927       7037       7038       7049       7048  
      6917       6918       6929       6928       7038       7039       7050       7049  
      6918       6919       6930       6929       7039       7040       7051       7050  
      6920       6921       6932       6931       7041       7042       7053       7052  
      6921       6922       6933       6932       7042       7043       7054       7053  
      6922       6923       6934       6933       7043       7044       7055       7054  
      6923       6924       6935       6934       7044       7045       7056       7055  
      6924       6925       6936       6935       7045       7046       7057       7056  
      6925       6926       6937       6936       7046       7047       7058       7057  
      6926       6927       6938       6937       7047       7048       7059       7058  
      6927       6928       6939       6938       7048       7049       7060       7059  
      6928       6929       6940       6939       7049       7050       7061       7060  
      6929       6930       6941       6940       7050       7051       7062       7061  
      6931       6932       6943       6942       7052       7053       7064       7063  
      6932       6933       6944       6943       7053       7054       7065       7064  
      6933       6934       6945       6944       7054       7055       7066       7065  
      6934       6935       6946       6945       7055       7056       7067       7066  
      6935       6936       6947       6946       7056       7057       7068       7067  
      6936       6937       6948       6947       7057       7058       7069       7068  
      6937       6938       6949       6948       7058       7059       7070       7069  
      6938       6939       6950       6949       7059       7060       7071       7070  
      6939       6940       6951       6950       7060       7061       7072       7071  
      6940       6941       6952       6951       7061       7062       7073       7072  
      6942       6943       6954       6953       7063       7064       7075       7074  
      6943       6944       6955       6954       7064       7065       7076       7075  
      6944       6945       6956       6955       7065       7066       7077       7076  
      6945       6946       6957       6956       7066       7067       7078       7077  
      6946       6947       6958       6957       7067       7068       7079       7078  
      6947       6948       6959       6958       7068       7069       7080       7079  
      6948       6949       6960       6959       7069       7070       7081       7080  
      6949       6950       6961       6960       7070       7071       7082       7081  
      6950       6951       6962       6961       7071       7072       7083       7082  
      6951       6952       6963       6962       7072       7073       7084       7083  
      6953       6954       6965       6964       7074       7075       7086       7085  
      6954       6955       6966       6965       7075       7076       7087       7086  
      6955       6956       6967       6966       7076       7077       7088       7087  
      6956       6957       6968       6967       7077       7078       7089       7088  
      6957       6958       6969       6968       7078       7079       7090       7089  
      6958       6959       6970       6969       7079       7080       7091       7090  
      6959       6960       6971       6970       7080       7081       7092       7091  
      6960       6961       6972       6971       7081       7082       7093       7092  
      6961       6962       6973       6972       7082       7083       7094       7093  
      6962       6963       6974       6973       7083       7084       7095       7094  
      6964       6965       6976       6975       7085       7086       7097       7096  
      6965       6966       6977       6976       7086       7087       7098       7097  
      6966       6967       6978       6977       7087       7088       7099       7098  
      6967       6968       6979       6978       7088       7089       7100       7099  
      6968       6969       6980       6979       7089       7090       7101       7100  
      6969       6970       6981       6980       7090       7091       7102       7101  
      6970       6971       6982       6981       7091       7092       7103       7102  
      6971       6972       6983       6982       7092       7093       7104       7103  
      6972       6973       6984       6983       7093       7094       7105       7104  
      6973       6974       6985       6984       7094       7095       7106       7105  
      6975       6976       6987       6986       7096       7097       7108       7107  
      6976       6977       6988       6987       7097       7098       7109       7108  
      6977       6978       6989       6988       7098       7099       7110       7109  
      6978       6979       6990       6989       7099       7100       7111       7110  
      6979       6980       6991       6990       7100       7101       7112       7111  
      6980       6981       6992       6991       7101       7102       7113       7112  
      6981       6982       6993       6992       7102       7103       7114       7113  
      6982       6983       6994       6993       7103       7104       7115       7114  
      6983       6984       6995       6994       7104       7105       7116       7115  
      6984       6985       6996       6995       7105       7106       7117       7116  
      6986       6987       6998       6997       7107       7108       7119       7118  
      6987       6988       6999       6998       7108       7109       7120       7119  
      6988       6989       7000       6999       7109       7110       7121       7120  
      6989       6990       7001       7000       7110       7111       7122       7121  
      6990       6991       7002       7001       7111       7112       7123       7122  
      6991       6992       7003       7002       7112       7113       7124       7123  
      6992       6993       7004       7003       7113       7114       7125       7124  
      6993       6994       7005       7004       7114       7115       7126       7125  
      6994       6995       7006       7005       7115       7116       7127       7126  
      6995       6996       7007       7006       7116       7117       7128       7127  
      6997       6998       7009       7008       7118       7119       7130       7129  
      6998       6999       7010       7009       7119       7120       7131       7130  
      6999       7000       7011       7010       7120       7121       7132       7131  
      7000       7001       7012       7011       7121       7122       7133       7132  
      7001       7002       7013       7012       7122       7123       7134       7133  
      7002       7003       7014       7013       7123       7124       7135       7134  
      7003       7004       7015       7014       7124       7125       7136       7135  
      7004       7005       7016       7015       7125       7126       7137       7136  
      7005       7006       7017       7016       7126       7127       7138       7137  
      7006       7007       7018       7017       7127       7128       7139       7138  
      7019       7020       7031       7030       7140       7141       7152       7151  
      7020       7021       7032       7031       7141       7142       7153       7152  
      7021       7022       7033       7032       7142       7143       7154       7153  
      7022       7023       7034       7033       7143       7144       7155       7154  
      7023       7024       7035       7034       7144       7145       7156       7155  
      7024       7025       7036       7035       7145       7146       7157       7156  
      7025       7026       7037       7036       7146       7147       7158       7157  
      7026       7027       7038       7037       7147       7148       7159       7158  
      7027       7028       7039       7038       7148       7149       7160       7159  
      7028       7029       7040       7039       7149       7150       7161       7160  
      7030       7031       7042       7041       7151       7152       7163       7162  
      7031       7032       7043       7042       7152       7153       7164       7163  
      7032       7033       7044       7043       7153       7154       7165       7164  
      7033       7034       7045       7044       7154       7155       7166       7165  
      7034       7035       7046       7045       7155       7156       7167       7166  
      7035       7036       7047       7046       7156       7157       7168       7167  
      7036       7037       7048       7047       7157       7158       7169       7168  
      7037       7038       7049       7048       7158       7159       7170       7169  
      7038       7039       7050       7049       7159       7160       7171       7170  
      7039       7040       7051       7050       7160       7161       7172       7171  
      7041       7042       7053       7052       7162       7163       7174       7173  
      7042       7043       7054       7053       7163       7164       7175       7174  
      7043       7044       7055       7054       7164       7165       7176       7175  
      7044       7045       7056       7055       7165       7166       7177       7176  
      7045       7046       7057       7056       7166       7167       7178       7177  
      7046       7047       7058       7057       7167       7168       7179       7178  
      7047       7048       7059       7058       7168       7169       7180       7179  
      7048       7049       7060       7059       7169       7170       7181       7180  
      7049       7050       7061       7060       7170       7171       7182       7181  
      7050       7051       7062       7061       7171       7172       7183       7182  
      7052       7053       7064       7063       7173       7174       7185       7184  
      7053       7054       7065       7064       7174       7175       7186       7185  
      7054       7055       7066       7065       7175       7176       7187       7186  
      7055       7056       7067       7066       7176       7177       7188       7187  
      7056       7057       7068       7067       7177       7178       7189       7188  
      7057       7058       7069       7068       7178       7179       7190       7189  
      7058       7059       7070       7069       7179       7180       7191       7190  
      7059       7060       7071       7070       7180       7181       7192       7191  
      7060       7061       7072       7071       7181       7182       7193       7192  
      7061       7062       7073       7072       7182       7183       7194       7193  
      7063       7064       7075       7074       7184       7185       7196       7195  
      7064       7065       7076       7075       7185       7186       7197       7196  
      7065       7066       7077       7076       7186       7187       7198       7197  
      7066       7067       7078       7077       7187       7188       7199       7198  
      7067       7068       7079       7078       7188       7189       7200       7199  
      7068       7069       7080       7079       7189       7190       7201       7200  
      7069       7070       7081       7080       7190       7191       7202       7201  
      7070       7071       7082       7081       7191       7192       7203       7202  
      7071       7072       7083       7082       7192       7193       7204       7203  
      7072       7073       7084       7083       7193       7194       7205       7204  
      7074       7075       7086       7085       7195       7196       7207       7206  
      7075       7076       7087       7086       7196       7197       7208       7207  
      7076       7077       7088       7087       7197       7198       7209       7208  
      7077       7078       7089       7088       7198       7199       7210       7209  
      7078       7079       7090       7089       7199       7200       7211       7210  
      7079       7080       7091       7090       7200       7201       7212       7211  
      7080       7081       7092       7091       7201       7202       7213       7212  
      7081       7082       7093       7092       7202       7203       7214       7213  
      7082       7083       7094       7093       7203       7204       7215       7214  
      7083       7084       7095       7094       7204       7205       7216       7215  
      7085       7086       7097       7096       7206       7207       7218       7217  
      7086       7087       7098       7097       7207       7208       7219       7218  
      7087       7088       7099       7098       7208       7209       7220       7219  
      7088       7089       7100       7099       7209       7210       7221       7220  
      7089       7090       7101       7100       7210       7211       7222       7221  
      7090       7091       7102       7101       7211       7212       7223       7222  
      7091       7092       7103       7102       7212       7213       7224       7223  
      7092       7093       7104       7103       7213       7214       7225       7224  
      7093       7094       7105       7104       7214       7215       7226       7225  
      7094       7095       7106       7105       7215       7216       7227       7226  
      7096       7097       7108       7107       7217       7218       7229       7228  
      7097       7098       7109       7108       7218       7219       7230       7229  
      7098       7099       7110       7109       7219       7220       7231       7230  
      7099       7100       7111       7110       7220       7221       7232       7231  
      7100       7101       7112       7111       7221       7222       7233       7232  
      7101       7102       7113       7112       7222       7223       7234       7233  
      7102       7103       7114       7113       7223       7224       7235       7234  
      7103       7104       7115       7114       7224       7225       7236       7235  
      7104       7105       7116       7115       7225       7226       7237       7236  
      7105       7106       7117       7116       7226       7227       7238       7237  
      7107       7108       7119       7118       7228       7229       7240       7239  
      7108       7109       7120       7119       7229       7230       7241       7240  
      7109       7110       7121       7120       7230       7231       7242       7241  
      7110       7111       7122       7121       7231       7232       7243       7242  
      7111       7112       7123       7122       7232       7233       7244       7243  
      7112       7113       7124       7123       7233       7234       7245       7244  
      7113       7114       7125       7124       7234       7235       7246       7245  
      7114       7115       7126       7125       7235       7236       7247       7246  
      7115       7116       7127       7126       7236       7237       7248       7247  
      7116       7117       7128       7127       7237       7238       7249       7248  
      7118       7119       7130       7129       7239       7240       7251       7250  
      7119       7120       7131       7130       7240       7241       7252       7251  
      7120       7121       7132       7131       7241       7242       7253       7252  
      7121       7122       7133       7132       7242       7243       7254       7253  
      7122       7123       7134       7133       7243       7244       7255       7254  
      7123       7124       7135       7134       7244       7245       7256       7255  
      7124       7125       7136       7135       7245       7246       7257       7256  
      7125       7126       7137       7136       7246       7247       7258       7257  
      7126       7127       7138       7137       7247       7248       7259       7258  
      7127       7128       7139       7138       7248       7249       7260       7259  
      7140       7141       7152       7151       7261       7262       7273       7272  
      7141       7142       7153       7152       7262       7263       7274       7273  
      7142       7143       7154       7153       7263       7264       7275       7274  
      7143       7144       7155       7154       7264       7265       7276       7275  
      7144       7145       7156       7155       7265       7266       7277       7276  
      7145       7146       7157       7156       7266       7267       7278       7277  
      7146       7147       7158       7157       7267       7268       7279       7278  
      7147       7148       7159       7158       7268       7269       7280       7279  
      7148       7149       7160       7159       7269       7270       7281       7280  
      7149       7150       7161       7160       7270       7271       7282       7281  
      7151       7152       7163       7162       7272       7273       7284       7283  
      7152       7153       7164       7163       7273       7274       7285       7284  
      7153       7154       7165       7164       7274       7275       7286       7285  
      7154       7155       7166       7165       7275       7276       7287       7286  
      7155       7156       7167       7166       7276       7277       7288       7287  
      7156       7157       7168       7167       7277       7278       7289       7288  
      7157       7158       7169       7168       7278       7279       7290       7289  
      7158       7159       7170       7169       7279       7280       7291       7290  
      7159       7160       7171       7170       7280       7281       7292       7291  
      7160       7161       7172       7171       7281       7282       7293       7292  
      7162       7163       7174       7173       7283       7284       7295       7294  
      7163       7164       7175       7174       7284       7285       7296       7295  
      7164       7165       7176       7175       7285       7286       7297       7296  
      7165       7166       7177       7176       7286       7287       7298       7297  
      7166       7167       7178       7177       7287       7288       7299       7298  
      7167       7168       7179       7178       7288       7289       7300       7299  
      7168       7169       7180       7179       7289       7290       7301       7300  
      7169       7170       7181       7180       7290       7291       7302       7301  
      7170       7171       7182       7181       7291       7292       7303       7302  
      7171       7172       7183       7182       7292       7293       7304       7303  
      7173       7174       7185       7184       7294       7295       7306       7305  
      7174       7175       7186       7185       7295       7296       7307       7306  
      7175       7176       7187       7186       7296       7297       7308       7307  
      7176       7177       7188       7187       7297       7298       7309       7308  
      7177       7178       7189       7188       7298       7299       7310       7309  
      7178       7179       7190       7189       7299       7300       7311       7310  
      7179       7180       7191       7190       7300       7301       7312       7311  
      7180       7181       7192       7191       7301       7302       7313       7312  
      7181       7182       7193       7192       7302       7303       7314       7313  
      7182       7183       7194       7193       7303       7304       7315       7314  
      7184       7185       7196       7195       7305       7306       7317       7316  
      7185       7186       7197       7196       7306       7307       7318       7317  
      7186       7187       7198       7197       7307       7308       7319       7318  
      7187       7188       7199       7198       7308       7309       7320       7319  
      7188       7189       7200       7199       7309       7310       7321       7320  
      7189       7190       7201       7200       7310       7311       7322       7321  
      7190       7191       7202       7201       7311       7312       7323       7322  
      7191       7192       7203       7202       7312       7313       7324       7323  
      7192       7193       7204       7203       7313       7314       7325       7324  
      7193       7194       7205       7204       7314       7315       7326       7325  
      7195       7196       7207       7206       7316       7317       7328       7327  
      7196       7197       7208       7207       7317       7318       7329       7328  
      7197       7198       7209       7208       7318       7319       7330       7329  
      7198       7199       7210       7209       7319       7320       7331       7330  
      7199       7200       7211       7210       7320       7321       7332       7331  
      7200       7201       7212       7211       7321       7322       7333       7332  
      7201       7202       7213       7212       7322       7323       7334       7333  
      7202       7203       7214       7213       7323       7324       7335       7334  
      7203       7204       7215       7214       7324       7325       7336       7335  
      7204       7205       7216       7215       7325       7326       7337       7336  
      7206       7207       7218       7217       7327       7328       7339       7338  
      7207       7208       7219       7218       7328       7329       7340       7339  
      7208       7209       7220       7219       7329       7330       7341       7340  
      7209       7210       7221       7220       7330       7331       7342       7341  
      7210       7211       7222       7221       7331       7332       7343       7342  
      7211       7212       7223       7222       7332       7333       7344       7343  
      7212       7213       7224       7223       7333       7334       7345       7344  
      7213       7214       7225       7224       7334       7335       7346       7345  
      7214       7215       7226       7225       7335       7336       7347       7346  
      7215       7216       7227       7226       7336       7337       7348       7347  
      7217       7218       7229       7228       7338       7339       7350       7349  
      7218       7219       7230       7229       7339       7340       7351       7350  
      7219       7220       7231       7230       7340       7341       7352       7351  
      7220       7221       7232       7231       7341       7342       7353       7352  
      7221       7222       7233       7232       7342       7343       7354       7353  
      7222       7223       7234       7233       7343       7344       7355       7354  
      7223       7224       7235       7234       7344       7345       7356       7355  
      7224       7225       7236       7235       7345       7346       7357       7356  
      7225       7226       7237       7236       7346       7347       7358       7357  
      7226       7227       7238       7237       7347       7348       7359       7358  
      7228       7229       7240       7239       7349       7350       7361       7360  
      7229       7230       7241       7240       7350       7351       7362       7361  
      7230       7231       7242       7241       7351       7352       7363       7362  
      7231       7232       7243       7242       7352       7353       7364       7363  
      7232       7233       7244       7243       7353       7354       7365       7364  
      7233       7234       7245       7244       7354       7355       7366       7365  
      7234       7235       7246       7245       7355       7356       7367       7366  
      7235       7236       7247       7246       7356       7357       7368       7367  
      7236       7237       7248       7247       7357       7358       7369       7368  
      7237       7238       7249       7248       7358       7359       7370       7369  
      7239       7240       7251       7250       7360       7361       7372       7371  
      7240       7241       7252       7251       7361       7362       7373       7372  
      7241       7242       7253       7252       7362       7363       7374       7373  
      7242       7243       7254       7253       7363       7364       7375       7374  
      7243       7244       7255       7254       7364       7365       7376       7375  
      7244       7245       7256       7255       7365       7366       7377       7376  
      7245       7246       7257       7256       7366       7367       7378       7377  
      7246       7247       7258       7257       7367       7368       7379       7378  
      7247       7248       7259       7258       7368       7369       7380       7379  
      7248       7249       7260       7259       7369       7370       7381       7380  
      7261       7262       7273       7272       7382       7383       7394       7393  
      7262       7263       7274       7273       7383       7384       7395       7394  
      7263       7264       7275       7274       7384       7385       7396       7395  
      7264       7265       7276       7275       7385       7386       7397       7396  
      7265       7266       7277       7276       7386       7387       7398       7397  
      7266       7267       7278       7277       7387       7388       7399       7398  
      7267       7268       7279       7278       7388       7389       7400       7399  
      7268       7269       7280       7279       7389       7390       7401       7400  
      7269       7270       7281       7280       7390       7391       7402       7401  
      7270       7271       7282       7281       7391       7392       7403       7402  
      7272       7273       7284       7283       7393       7394       7405       7404  
      7273       7274       7285       7284       7394       7395       7406       7405  
      7274       7275       7286       7285       7395       7396       7407       7406  
      7275       7276       7287       7286       7396       7397       7408       7407  
      7276       7277       7288       7287       7397       7398       7409       7408  
      7277       7278       7289       7288       7398       7399       7410       7409  
      7278       7279       7290       7289       7399       7400       7411       7410  
      7279       7280       7291       7290       7400       7401       7412       7411  
      7280       7281       7292       7291       7401       7402       7413       7412  
      7281       7282       7293       7292       7402       7403       7414       7413  
      7283       7284       7295       7294       7404       7405       7416       7415  
      7284       7285       7296       7295       7405       7406       7417       7416  
      7285       7286       7297       7296       7406       7407       7418       7417  
      7286       7287       7298       7297       7407       7408       7419       7418  
      7287       7288       7299       7298       7408       7409       7420       7419  
      7288       7289       7300       7299       7409       7410       7421       7420  
      7289       7290       7301       7300       7410       7411       7422       7421  
      7290       7291       7302       7301       7411       7412       7423       7422  
      7291       7292       7303       7302       7412       7413       7424       7423  
      7292       7293       7304       7303       7413       7414       7425       7424  
      7294       7295       7306       7305       7415       7416       7427       7426  
      7295       7296       7307       7306       7416       7417       7428       7427  
      7296       7297       7308       7307       7417       7418       7429       7428  
      7297       7298       7309       7308       7418       7419       7430       7429  
      7298       7299       7310       7309       7419       7420       7431       7430  
      7299       7300       7311       7310       7420       7421       7432       7431  
      7300       7301       7312       7311       7421       7422       7433       7432  
      7301       7302       7313       7312       7422       7423       7434       7433  
      7302       7303       7314       7313       7423       7424       7435       7434  
      7303       7304       7315       7314       7424       7425       7436       7435  
      7305       7306       7317       7316       7426       7427       7438       7437  
      7306       7307       7318       7317       7427       7428       7439       7438  
      7307       7308       7319       7318       7428       7429       7440       7439  
      7308       7309       7320       7319       7429       7430       7441       7440  
      7309       7310       7321       7320       7430       7431       7442       7441  
      7310       7311       7322       7321       7431       7432       7443       7442  
      7311       7312       7323       7322       7432       7433       7444       7443  
      7312       7313       7324       7323       7433       7434       7445       7444  
      7313       7314       7325       7324       7434       7435       7446       7445  
      7314       7315       7326       7325       7435       7436       7447       7446  
      7316       7317       7328       7327       7437       7438       7449       7448  
      7317       7318       7329       7328       7438       7439       7450       7449  
      7318       7319       7330       7329       7439       7440       7451       7450  
      7319       7320       7331       7330       7440       7441       7452       7451  
      7320       7321       7332       7331       7441       7442       7453       7452  
      7321       7322       7333       7332       7442       7443       7454       7453  
      7322       7323       7334       7333       7443       7444       7455       7454  
      7323       7324       7335       7334       7444       7445       7456       7455  
      7324       7325       7336       7335       7445       7446       7457       7456  
      7325       7326       7337       7336       7446       7447       7458       7457  
      7327       7328       7339       7338       7448       7449       7460       7459  
      7328       7329       7340       7339       7449       7450       7461       7460  
      7329       7330       7341       7340       7450       7451       7462       7461  
      7330       7331       7342       7341       7451       7452       7463       7462  
      7331       7332       7343       7342       7452       7453       7464       7463  
      7332       7333       7344       7343       7453       7454       7465       7464  
      7333       7334       7345       7344       7454       7455       7466       7465  
      7334       7335       7346       7345       7455       7456       7467       7466  
      7335       7336       7347       7346       7456       7457       7468       7467  
      7336       7337       7348       7347       7457       7458       7469       7468  
      7338       7339       7350       7349       7459       7460       7471       7470  
      7339       7340       7351       7350       7460       7461       7472       7471  
      7340       7341       7352       7351       7461       7462       7473       7472  
      7341       7342       7353       7352       7462       7463       7474       7473  
      7342       7343       7354       7353       7463       7464       7475       7474  
      7343       7344       7355       7354       7464       7465       7476       7475  
      7344       7345       7356       7355       7465       7466       7477       7476  
      7345       7346       7357       7356       7466       7467       7478       7477  
      7346       7347       7358       7357       7467       7468       7479       7478  
      7347       7348       7359       7358       7468       7469       7480       7479  
      7349       7350       7361       7360       7470       7471       7482       7481  
      7350       7351       7362       7361       7471       7472       7483       7482  
      7351       7352       7363       7362       7472       7473       7484       7483  
      7352       7353       7364       7363       7473       7474       7485       7484  
      7353       7354       7365       7364       7474       7475       7486       7485  
      7354       7355       7366       7365       7475       7476       7487       7486  
      7355       7356       7367       7366       7476       7477       7488       7487  
      7356       7357       7368       7367       7477       7478       7489       7488  
      7357       7358       7369       7368       7478       7479       7490       7489  
      7358       7359       7370       7369       7479       7480       7491       7490  
      7360       7361       7372       7371       7481       7482       7493       7492  
      7361       7362       7373       7372       7482       7483       7494       7493  
      7362       7363       7374       7373       7483       7484       7495       7494  
      7363       7364       7375       7374       7484       7485       7496       7495  
      7364       7365       7376       7375       7485       7486       7497       7496  
      7365       7366       7377       7376       7486       7487       7498       7497  
      7366       7367       7378       7377       7487       7488       7499       7498  
      7367       7368       7379       7378       7488       7489       7500       7499  
      7368       7369       7380       7379       7489       7490       7501       7500  
      7369       7370       7381       7380       7490       7491       7502       7501  
      7382       7383       7394       7393       7503       7504       7515       7514  
      7383       7384       7395       7394       7504       7505       7516       7515  
      7384       7385       7396       7395       7505       7506       7517       7516  
      7385       7386       7397       7396       7506       7507       7518       7517  
      7386       7387       7398       7397       7507       7508       7519       7518  
      7387       7388       7399       7398       7508       7509       7520       7519  
      7388       7389       7400       7399       7509       7510       7521       7520  
      7389       7390       7401       7400       7510       7511       7522       7521  
      7390       7391       7402       7401       7511       7512       7523       7522  
      7391       7392       7403       7402       7512       7513       7524       7523  
      7393       7394       7405       7404       7514       7515       7526       7525  
      7394       7395       7406       7405       7515       7516       7527       7526  
      7395       7396       7407       7406       7516       7517       7528       7527  
      7396       7397       7408       7407       7517       7518       7529       7528  
      7397       7398       7409       7408       7518       7519       7530       7529  
      7398       7399       7410       7409       7519       7520       7531       7530  
      7399       7400       7411       7410       7520       7521       7532       7531  
      7400       7401       7412       7411       7521       7522       7533       7532  
      7401       7402       7413       7412       7522       7523       7534       7533  
      7402       7403       7414       7413       7523       7524       7535       7534  
      7404       7405       7416       7415       7525       7526       7537       7536  
      7405       7406       7417       7416       7526       7527       7538       7537  
      7406       7407       7418       7417       7527       7528       7539       7538  
      7407       7408       7419       7418       7528       7529       7540       7539  
      7408       7409       7420       7419       7529       7530       7541       7540  
      7409       7410       7421       7420       7530       7531       7542       7541  
      7410       7411       7422       7421       7531       7532       7543       7542  
      7411       7412       7423       7422       7532       7533       7544       7543  
      7412       7413       7424       7423       7533       7534       7545       7544  
      7413       7414       7425       7424       7534       7535       7546       7545  
      7415       7416       7427       7426       7536       7537       7548       7547  
      7416       7417       7428       7427       7537       7538       7549       7548  
      7417       7418       7429       7428       7538       7539       7550       7549  
      7418       7419       7430       7429       7539       7540       7551       7550  
      7419       7420       7431       7430       7540       7541       7552       7551  
      7420       7421       7432       7431       7541       7542       7553       7552  
      7421       7422       7433       7432       7542       7543       7554       7553  
      7422       7423       7434       7433       7543       7544       7555       7554  
      7423       7424       7435       7434       7544       7545       7556       7555  
      7424       7425       7436       7435       7545       7546       7557       7556  
      7426       7427       7438       7437       7547       7548       7559       7558  
      7427       7428       7439       7438       7548       7549       7560       7559  
      7428       7429       7440       7439       7549       7550       7561       7560  
      7429       7430       7441       7440       7550       7551       7562       7561  
      7430       7431       7442       7441       7551       7552       7563       7562  
      7431       7432       7443       7442       7552       7553       7564       7563  
      7432       7433       7444       7443       7553       7554       7565       7564  
      7433       7434       7445       7444       7554       7555       7566       7565  
      7434       7435       7446       7445       7555       7556       7567       7566  
      7435       7436       7447       7446       7556       7557       7568       7567  
      7437       7438       7449       7448       7558       7559       7570       7569  
      7438       7439       7450       7449       7559       7560       7571       7570  
      7439       7440       7451       7450       7560       7561       7572       7571  
      7440       7441       7452       7451       7561       7562       7573       7572  
      7441       7442       7453       7452       7562       7563       7574       7573  
      7442       7443       7454       7453       7563       7564       7575       7574  
      7443       7444       7455       7454       7564       7565       7576       7575  
      7444       7445       7456       7455       7565       7566       7577       7576  
      7445       7446       7457       7456       7566       7567       7578       7577  
      7446       7447       7458       7457       7567       7568       7579       7578  
      7448       7449       7460       7459       7569       7570       7581       7580  
      7449       7450       7461       7460       7570       7571       7582       7581  
      7450       7451       7462       7461       7571       7572       7583       7582  
      7451       7452       7463       7462       7572       7573       7584       7583  
      7452       7453       7464       7463       7573       7574       7585       7584  
      7453       7454       7465       7464       7574       7575       7586       7585  
      7454       7455       7466       7465       7575       7576       7587       7586  
      7455       7456       7467       7466       7576       7577       7588       7587  
      7456       7457       7468       7467       7577       7578       7589       7588  
      7457       7458       7469       7468       7578       7579       7590       7589  
      7459       7460       7471       7470       7580       7581       7592       7591  
      7460       7461       7472       7471       7581       7582       7593       7592  
      7461       7462       7473       7472       7582       7583       7594       7593  
      7462       7463       7474       7473       7583       7584       7595       7594  
      7463       7464       7475       7474       7584       7585       7596       7595  
      7464       7465       7476       7475       7585       7586       7597       7596  
      7465       7466       7477       7476       7586       7587       7598       7597  
      7466       7467       7478       7477       7587       7588       7599       7598  
      7467       7468       7479       7478       7588       7589       7600       7599  
      7468       7469       7480       7479       7589       7590       7601       7600  
      7470       7471       7482       7481       7591       7592       7603       7602  
      7471       7472       7483       7482       7592       7593       7604       7603  
      7472       7473       7484       7483       7593       7594       7605       7604  
      7473       7474       7485       7484       7594       7595       7606       7605  
      7474       7475       7486       7485       7595       7596       7607       7606  
      7475       7476       7487       7486       7596       7597       7608       7607  
      7476       7477       7488       7487       7597       7598       7609       7608  
      7477       7478       7489       7488       7598       7599       7610       7609  
      7478       7479       7490       7489       7599       7600       7611       7610  
      7479       7480       7491       7490       7600       7601       7612       7611  
      7481       7482       7493       7492       7602       7603       7614       7613  
      7482       7483       7494       7493       7603       7604       7615       7614  
      7483       7484       7495       7494       7604       7605       7616       7615  
      7484       7485       7496       7495       7605       7606       7617       7616  
      7485       7486       7497       7496       7606       7607       7618       7617  
      7486       7487       7498       7497       7607       7608       7619       7618  
      7487       7488       7499       7498       7608       7609       7620       7619  
      7488       7489       7500       7499       7609       7610       7621       7620  
      7489       7490       7501       7500       7610       7611       7622       7621  
      7490       7491       7502       7501       7611       7612       7623       7622  
      7503       7504       7515       7514       7624       7625       7636       7635  
      7504       7505       7516       7515       7625       7626       7637       7636  
      7505       7506       7517       7516       7626       7627       7638       7637  
      7506       7507       7518       7517       7627       7628       7639       7638  
      7507       7508       7519       7518       7628       7629       7640       7639  
      7508       7509       7520       7519       7629       7630       7641       7640  
      7509       7510       7521       7520       7630       7631       7642       7641  
      7510       7511       7522       7521       7631       7632       7643       7642  
      7511       7512       7523       7522       7632       7633       7644       7643  
      7512       7513       7524       7523       7633       7634       7645       7644  
      7514       7515       7526       7525       7635       7636       7647       7646  
      7515       7516       7527       7526       7636       7637       7648       7647  
      7516       7517       7528       7527       7637       7638       7649       7648  
      7517       7518       7529       7528       7638       7639       7650       7649  
      7518       7519       7530       7529       7639       7640       7651       7650  
      7519       7520       7531       7530       7640       7641       7652       7651  
      7520       7521       7532       7531       7641       7642       7653       7652  
      7521       7522       7533       7532       7642       7643       7654       7653  
      7522       7523       7534       7533       7643       7644       7655       7654  
      7523       7524       7535       7534       7644       7645       7656       7655  
      7525       7526       7537       7536       7646       7647       7658       7657  
      7526       7527       7538       7537       7647       7648       7659       7658  
      7527       7528       7539       7538       7648       7649       7660       7659  
      7528       7529       7540       7539       7649       7650       7661       7660  
      7529       7530       7541       7540       7650       7651       7662       7661  
      7530       7531       7542       7541       7651       7652       7663       7662  
      7531       7532       7543       7542       7652       7653       7664       7663  
      7532       7533       7544       7543       7653       7654       7665       7664  
      7533       7534       7545       7544       7654       7655       7666       7665  
      7534       7535       7546       7545       7655       7656       7667       7666  
      7536       7537       7548       7547       7657       7658       7669       7668  
      7537       7538       7549       7548       7658       7659       7670       7669  
      7538       7539       7550       7549       7659       7660       7671       7670  
      7539       7540       7551       7550       7660       7661       7672       7671  
      7540       7541       7552       7551       7661       7662       7673       7672  
      7541       7542       7553       7552       7662       7663       7674       7673  
      7542       7543       7554       7553       7663       7664       7675       7674  
      7543       7544       7555       7554       7664       7665       7676       7675  
      7544       7545       7556       7555       7665       7666       7677       7676  
      7545       7546       7557       7556       7666       7667       7678       7677  
      7547       7548       7559       7558       7668       7669       7680       7679  
      7548       7549       7560       7559       7669       7670       7681       7680  
      7549       7550       7561       7560       7670       7671       7682       7681  
      7550       7551       7562       7561       7671       7672       7683       7682  
      7551       7552       7563       7562       7672       7673       7684       7683  
      7552       7553       7564       7563       7673       7674       7685       7684  
      7553       7554       7565       7564       7674       7675       7686       7685  
      7554       7555       7566       7565       7675       7676       7687       7686  
      7555       7556       7567       7566       7676       7677       7688       7687  
      7556       7557       7568       7567       7677       7678       7689       7688  
      7558       7559       7570       7569       7679       7680       7691       7690  
      7559       7560       7571       7570       7680       7681       7692       7691  
      7560       7561       7572       7571       7681       7682       7693       7692  
      7561       7562       7573       7572       7682       7683       7694       7693  
      7562       7563       7574       7573       7683       7684       7695       7694  
      7563       7564       7575       7574       7684       7685       7696       7695  
      7564       7565       7576       7575       7685       7686       7697       7696  
      7565       7566       7577       7576       7686       7687       7698       7697  
      7566       7567       7578       7577       7687       7688       7699       7698  
      7567       7568       7579       7578       7688       7689       7700       7699  
      7569       7570       7581       7580       7690       7691       7702       7701  
      7570       7571       7582       7581       7691       7692       7703       7702  
      7571       7572       7583       7582       7692       7693       7704       7703  
      7572       7573       7584       7583       7693       7694       7705       7704  
      7573       7574       7585       7584       7694       7695       7706       7705  
      7574       7575       7586       7585       7695       7696       7707       7706  
      7575       7576       7587       7586       7696       7697       7708       7707  
      7576       7577       7588       7587       7697       7698       7709       7708  
      7577       7578       7589       7588       7698       7699       7710       7709  
      7578       7579       7590       7589       7699       7700       7711       7710  
      7580       7581       7592       7591       7701       7702       7713       7712  
      7581       7582       7593       7592       7702       7703       7714       7713  
      7582       7583       7594       7593       7703       7704       7715       7714  
      7583       7584       7595       7594       7704       7705       7716       7715  
      7584       7585       7596       7595       7705       7706       7717       7716  
      7585       7586       7597       7596       7706       7707       7718       7717  
      7586       7587       7598       7597       7707       7708       7719       7718  
      7587       7588       7599       7598       7708       7709       7720       7719  
      7588       7589       7600       7599       7709       7710       7721       7720  
      7589       7590       7601       7600       7710       7711       7722       7721  
      7591       7592       7603       7602       7712       7713       7724       7723  
      7592       7593       7604       7603       7713       7714       7725       7724  
      7593       7594       7605       7604       7714       7715       7726       7725  
      7594       7595       7606       7605       7715       7716       7727       7726  
      7595       7596       7607       7606       7716       7717       7728       7727  
      7596       7597       7608       7607       7717       7718       7729       7728  
      7597       7598       7609       7608       7718       7719       7730       7729  
      7598       7599       7610       7609       7719       7720       7731       7730  
      7599       7600       7611       7610       7720       7721       7732       7731  
      7600       7601       7612       7611       7721       7722       7733       7732  
      7602       7603       7614       7613       7723       7724       7735       7734  
      7603       7604       7615       7614       7724       7725       7736       7735  
      7604       7605       7616       7615       7725       7726       7737       7736  
      7605       7606       7617       7616       7726       7727       7738       7737  
      7606       7607       7618       7617       7727       7728       7739       7738  
      7607       7608       7619       7618       7728       7729       7740       7739  
      7608       7609       7620       7619       7729       7730       7741       7740  
      7609       7610       7621       7620       7730       7731       7742       7741  
      7610       7611       7622       7621       7731       7732       7743       7742  
      7611       7612       7623       7622       7732       7733       7744       7743  
      7624       7625       7636       7635       7745       7746       7757       7756  
      7625       7626       7637       7636       7746       7747       7758       7757  
      7626       7627       7638       7637       7747       7748       7759       7758  
      7627       7628       7639       7638       7748       7749       7760       7759  
      7628       7629       7640       7639       7749       7750       7761       7760  
      7629       7630       7641       7640       7750       7751       7762       7761  
      7630       7631       7642       7641       7751       7752       7763       7762  
      7631       7632       7643       7642       7752       7753       7764       7763  
      7632       7633       7644       7643       7753       7754       7765       7764  
      7633       7634       7645       7644       7754       7755       7766       7765  
      7635       7636       7647       7646       7756       7757       7768       7767  
      7636       7637       7648       7647       7757       7758       7769       7768  
      7637       7638       7649       7648       7758       7759       7770       7769  
      7638       7639       7650       7649       7759       7760       7771       7770  
      7639       7640       7651       7650       7760       7761       7772       7771  
      7640       7641       7652       7651       7761       7762       7773       7772  
      7641       7642       7653       7652       7762       7763       7774       7773  
      7642       7643       7654       7653       7763       7764       7775       7774  
      7643       7644       7655       7654       7764       7765       7776       7775  
      7644       7645       7656       7655       7765       7766       7777       7776  
      7646       7647       7658       7657       7767       7768       7779       7778  
      7647       7648       7659       7658       7768       7769       7780       7779  
      7648       7649       7660       7659       7769       7770       7781       7780  
      7649       7650       7661       7660       7770       7771       7782       7781  
      7650       7651       7662       7661       7771       7772       7783       7782  
      7651       7652       7663       7662       7772       7773       7784       7783  
      7652       7653       7664       7663       7773       7774       7785       7784  
      7653       7654       7665       7664       7774       7775       7786       7785  
      7654       7655       7666       7665       7775       7776       7787       7786  
      7655       7656       7667       7666       7776       7777       7788       7787  
      7657       7658       7669       7668       7778       7779       7790       7789  
      7658       7659       7670       7669       7779       7780       7791       7790  
      7659       7660       7671       7670       7780       7781       7792       7791  
      7660       7661       7672       7671       7781       7782       7793       7792  
      7661       7662       7673       7672       7782       7783       7794       7793  
      7662       7663       7674       7673       7783       7784       7795       7794  
      7663       7664       7675       7674       7784       7785       7796       7795  
      7664       7665       7676       7675       7785       7786       7797       7796  
      7665       7666       7677       7676       7786       7787       7798       7797  
      7666       7667       7678       7677       7787       7788       7799       7798  
      7668       7669       7680       7679       7789       7790       7801       7800  
      7669       7670       7681       7680       7790       7791       7802       7801  
      7670       7671       7682       7681       7791       7792       7803       7802  
      7671       7672       7683       7682       7792       7793       7804       7803  
      7672       7673       7684       7683       7793       7794       7805       7804  
      7673       7674       7685       7684       7794       7795       7806       7805  
      7674       7675       7686       7685       7795       7796       7807       7806  
      7675       7676       7687       7686       7796       7797       7808       7807  
      7676       7677       7688       7687       7797       7798       7809       7808  
      7677       7678       7689       7688       7798       7799       7810       7809  
      7679       7680       7691       7690       7800       7801       7812       7811  
      7680       7681       7692       7691       7801       7802       7813       7812  
      7681       7682       7693       7692       7802       7803       7814       7813  
      7682       7683       7694       7693       7803       7804       7815       7814  
      7683       7684       7695       7694       7804       7805       7816       7815  
      7684       7685       7696       7695       7805       7806       7817       7816  
      7685       7686       7697       7696       7806       7807       7818       7817  
      7686       7687       7698       7697       7807       7808       7819       7818  
      7687       7688       7699       7698       7808       7809       7820       7819  
      7688       7689       7700       7699       7809       7810       7821       7820  
      7690       7691       7702       7701       7811       7812       7823       7822  
      7691       7692       7703       7702       7812       7813       7824       7823  
      7692       7693       7704       7703       7813       7814       7825       7824  
      7693       7694       7705       7704       7814       7815       7826       7825  
      7694       7695       7706       7705       7815       7816       7827       7826  
      7695       7696       7707       7706       7816       7817       7828       7827  
      7696       7697       7708       7707       7817       7818       7829       7828  
      7697       7698       7709       7708       7818       7819       7830       7829  
      7698       7699       7710       7709       7819       7820       7831       7830  
      7699       7700       7711       7710       7820       7821       7832       7831  
      7701       7702       7713       7712       7822       7823       7834       7833  
      7702       7703       7714       7713       7823       7824       7835       7834  
      7703       7704       7715       7714       7824       7825       7836       7835  
      7704       7705       7716       7715       7825       7826       7837       7836  
      7705       7706       7717       7716       7826       7827       7838       7837  
      7706       7707       7718       7717       7827       7828       7839       7838  
      7707       7708       7719       7718       7828       7829       7840       7839  
      7708       7709       7720       7719       7829       7830       7841       7840  
      7709       7710       7721       7720       7830       7831       7842       7841  
      7710       7711       7722       7721       7831       7832       7843       7842  
      7712       7713       7724       7723       7833       7834       7845       7844  
      7713       7714       7725       7724       7834       7835       7846       7845  
      7714       7715       7726       7725       7835       7836       7847       7846  
      7715       7716       7727       7726       7836       7837       7848       7847  
      7716       7717       7728       7727       7837       7838       7849       7848  
      7717       7718       7729       7728       7838       7839       7850       7849  
      7718       7719       7730       7729       7839       7840       7851       7850  
      7719       7720       7731       7730       7840       7841       7852       7851  
      7720       7721       7732       7731       7841       7842       7853       7852  
      7721       7722       7733       7732       7842       7843       7854       7853  
      7723       7724       7735       7734       7844       7845       7856       7855  
      7724       7725       7736       7735       7845       7846       7857       7856  
      7725       7726       7737       7736       7846       7847       7858       7857  
      7726       7727       7738       7737       7847       7848       7859       7858  
      7727       7728       7739       7738       7848       7849       7860       7859  
      7728       7729       7740       7739       7849       7850       7861       7860  
      7729       7730       7741       7740       7850       7851       7862       7861  
      7730       7731       7742       7741       7851       7852       7863       7862  
      7731       7732       7743       7742       7852       7853       7864       7863  
      7732       7733       7744       7743       7853       7854       7865       7864  
      7745       7746       7757       7756       7866       7867       7878       7877  
      7746       7747       7758       7757       7867       7868       7879       7878  
      7747       7748       7759       7758       7868       7869       7880       7879  
      7748       7749       7760       7759       7869       7870       7881       7880  
      7749       7750       7761       7760       7870       7871       7882       7881  
      7750       7751       7762       7761       7871       7872       7883       7882  
      7751       7752       7763       7762       7872       7873       7884       7883  
      7752       7753       7764       7763       7873       7874       7885       7884  
      7753       7754       7765       7764       7874       7875       7886       7885  
      7754       7755       7766       7765       7875       7876       7887       7886  
      7756       7757       7768       7767       7877       7878       7889       7888  
      7757       7758       7769       7768       7878       7879       7890       7889  
      7758       7759       7770       7769       7879       7880       7891       7890  
      7759       7760       7771       7770       7880       7881       7892       7891  
      7760       7761       7772       7771       7881       7882       7893       7892  
      7761       7762       7773       7772       7882       7883       7894       7893  
      7762       7763       7774       7773       7883       7884       7895       7894  
      7763       7764       7775       7774       7884       7885       7896       7895  
      7764       7765       7776       7775       7885       7886       7897       7896  
      7765       7766       7777       7776       7886       7887       7898       7897  
      7767       7768       7779       7778       7888       7889       7900       7899  
      7768       7769       7780       7779       7889       7890       7901       7900  
      7769       7770       7781       7780       7890       7891       7902       7901  
      7770       7771       7782       7781       7891       7892       7903       7902  
      7771       7772       7783       7782       7892       7893       7904       7903  
      7772       7773       7784       7783       7893       7894       7905       7904  
      7773       7774       7785       7784       7894       7895       7906       7905  
      7774       7775       7786       7785       7895       7896       7907       7906  
      7775       7776       7787       7786       7896       7897       7908       7907  
      7776       7777       7788       7787       7897       7898       7909       7908  
      7778       7779       7790       7789       7899       7900       7911       7910  
      7779       7780       7791       7790       7900       7901       7912       7911  
      7780       7781       7792       7791       7901       7902       7913       7912  
      7781       7782       7793       7792       7902       7903       7914       7913  
      7782       7783       7794       7793       7903       7904       7915       7914  
      7783       7784       7795       7794       7904       7905       7916       7915  
      7784       7785       7796       7795       7905       7906       7917       7916  
      7785       7786       7797       7796       7906       7907       7918       7917  
      7786       7787       7798       7797       7907       7908       7919       7918  
      7787       7788       7799       7798       7908       7909       7920       7919  
      7789       7790       7801       7800       7910       7911       7922       7921  
      7790       7791       7802       7801       7911       7912       7923       7922  
      7791       7792       7803       7802       7912       7913       7924       7923  
      7792       7793       7804       7803       7913       7914       7925       7924  
      7793       7794       7805       7804       7914       7915       7926       7925  
      7794       7795       7806       7805       7915       7916       7927       7926  
      7795       7796       7807       7806       7916       7917       7928       7927  
      7796       7797       7808       7807       7917       7918       7929       7928  
      7797       7798       7809       7808       7918       7919       7930       7929  
      7798       7799       7810       7809       7919       7920       7931       7930  
      7800       7801       7812       7811       7921       7922       7933       7932  
      7801       7802       7813       7812       7922       7923       7934       7933  
      7802       7803       7814       7813       7923       7924       7935       7934  
      7803       7804       7815       7814       7924       7925       7936       7935  
      7804       7805       7816       7815       7925       7926       7937       7936  
      7805       7806       7817       7816       7926       7927       7938       7937  
      7806       7807       7818       7817       7927       7928       7939       7938  
      7807       7808       7819       7818       7928       7929       7940       7939  
      7808       7809       7820       7819       7929       7930       7941       7940  
      7809       7810       7821       7820       7930       7931       7942       7941  
      7811       7812       7823       7822       7932       7933       7944       7943  
      7812       7813       7824       7823       7933       7934       7945       7944  
      7813       7814       7825       7824       7934       7935       7946       7945  
      7814       7815       7826       7825       7935       7936       7947       7946  
      7815       7816       7827       7826       7936       7937       7948       7947  
      7816       7817       7828       7827       7937       7938       7949       7948  
      7817       7818       7829       7828       7938       7939       7950       7949  
      7818       7819       7830       7829       7939       7940       7951       7950  
      7819       7820       7831       7830       7940       7941       7952       7951  
      7820       7821       7832       7831       7941       7942       7953       7952  
      7822       7823       7834       7833       7943       7944       7955       7954  
      7823       7824       7835       7834       7944       7945       7956       7955  
      7824       7825       7836       7835       7945       7946       7957       7956  
      7825       7826       7837       7836       7946       7947       7958       7957  
      7826       7827       7838       7837       7947       7948       7959       7958  
      7827       7828       7839       7838       7948       7949       7960       7959  
      7828       7829       7840       7839       7949       7950       7961       7960  
      7829       7830       7841       7840       7950       7951       7962       7961  
      7830       7831       7842       7841       7951       7952       7963       7962  
      7831       7832       7843       7842       7952       7953       7964       7963  
      7833       7834       7845       7844       7954       7955       7966       7965  
      7834       7835       7846       7845       7955       7956       7967       7966  
      7835       7836       7847       7846       7956       7957       7968       7967  
      7836       7837       7848       7847       7957       7958       7969       7968  
      7837       7838       7849       7848       7958       7959       7970       7969  
      7838       7839       7850       7849       7959       7960       7971       7970  
      7839       7840       7851       7850       7960       7961       7972       7971  
      7840       7841       7852       7851       7961       7962       7973       7972  
      7841       7842       7853       7852       7962       7963       7974       7973  
      7842       7843       7854       7853       7963       7964       7975       7974  
      7844       7845       7856       7855       7965       7966       7977       7976  
      7845       7846       7857       7856       7966       7967       7978       7977  
      7846       7847       7858       7857       7967       7968       7979       7978  
      7847       7848       7859       7858       7968       7969       7980       7979  
      7848       7849       7860       7859       7969       7970       7981       7980  
      7849       7850       7861       7860       7970       7971       7982       7981  
      7850       7851       7862       7861       7971       7972       7983       7982  
      7851       7852       7863       7862       7972       7973       7984       7983  
      7852       7853       7864       7863       7973       7974       7985       7984  
      7853       7854       7865       7864       7974       7975       7986       7985  
      7866       7867       7878       7877       7987       7988       7999       7998  
      7867       7868       7879       7878       7988       7989       8000       7999  
      7868       7869       7880       7879       7989       7990       8001       8000  
      7869       7870       7881       7880       7990       7991       8002       8001  
      7870       7871       7882       7881       7991       7992       8003       8002  
      7871       7872       7883       7882       7992       7993       8004       8003  
      7872       7873       7884       7883       7993       7994       8005       8004  
      7873       7874       7885       7884       7994       7995       8006       8005  
      7874       7875       7886       7885       7995       7996       8007       8006  
      7875       7876       7887       7886       7996       7997       8008       8007  
      7877       7878       7889       7888       7998       7999       8010       8009  
      7878       7879       7890       7889       7999       8000       8011       8010  
      7879       7880       7891       7890       8000       8001       8012       8011  
      7880       7881       7892       7891       8001       8002       8013       8012  
      7881       7882       7893       7892       8002       8003       8014       8013  
      7882       7883       7894       7893       8003       8004       8015       8014  
      7883       7884       7895       7894       8004       8005       8016       8015  
      7884       7885       7896       7895       8005       8006       8017       8016  
      7885       7886       7897       7896       8006       8007       8018       8017  
      7886       7887       7898       7897       8007       8008       8019       8018  
      7888       7889       7900       7899       8009       8010       8021       8020  
      7889       7890       7901       7900       8010       8011       8022       8021  
      7890       7891       7902       7901       8011       8012       8023       8022  
      7891       7892       7903       7902       8012       8013       8024       8023  
      7892       7893       7904       7903       8013       8014       8025       8024  
      7893       7894       7905       7904       8014       8015       8026       8025  
      7894       7895       7906       7905       8015       8016       8027       8026  
      7895       7896       7907       7906       8016       8017       8028       8027  
      7896       7897       7908       7907       8017       8018       8029       8028  
      7897       7898       7909       7908       8018       8019       8030       8029  
      7899       7900       7911       7910       8020       8021       8032       8031  
      7900       7901       7912       7911       8021       8022       8033       8032  
      7901       7902       7913       7912       8022       8023       8034       8033  
      7902       7903       7914       7913       8023       8024       8035       8034  
      7903       7904       7915       7914       8024       8025       8036       8035  
      7904       7905       7916       7915       8025       8026       8037       8036  
      7905       7906       7917       7916       8026       8027       8038       8037  
      7906       7907       7918       7917       8027       8028       8039       8038  
      7907       7908       7919       7918       8028       8029       8040       8039  
      7908       7909       7920       7919       8029       8030       8041       8040  
      7910       7911       7922       7921       8031       8032       8043       8042  
      7911       7912       7923       7922       8032       8033       8044       8043  
      7912       7913       7924       7923       8033       8034       8045       8044  
      7913       7914       7925       7924       8034       8035       8046       8045  
      7914       7915       7926       7925       8035       8036       8047       8046  
      7915       7916       7927       7926       8036       8037       8048       8047  
      7916       7917       7928       7927       8037       8038       8049       8048  
      7917       7918       7929       7928       8038       8039       8050       8049  
      7918       7919       7930       7929       8039       8040       8051       8050  
      7919       7920       7931       7930       8040       8041       8052       8051  
      7921       7922       7933       7932       8042       8043       8054       8053  
      7922       7923       7934       7933       8043       8044       8055       8054  
      7923       7924       7935       7934       8044       8045       8056       8055  
      7924       7925       7936       7935       8045       8046       8057       8056  
      7925       7926       7937       7936       8046       8047       8058       8057  
      7926       7927       7938       7937       8047       8048       8059       8058  
      7927       7928       7939       7938       8048       8049       8060       8059  
      7928       7929       7940       7939       8049       8050       8061       8060  
      7929       7930       7941       7940       8050       8051       8062       8061  
      7930       7931       7942       7941       8051       8052       8063       8062  
      7932       7933       7944       7943       8053       8054       8065       8064  
      7933       7934       7945       7944       8054       8055       8066       8065  
      7934       7935       7946       7945       8055       8056       8067       8066  
      7935       7936       7947       7946       8056       8057       8068       8067  
      7936       7937       7948       7947       8057       8058       8069       8068  
      7937       7938       7949       7948       8058       8059       8070       8069  
      7938       7939       7950       7949       8059       8060       8071       8070  
      7939       7940       7951       7950       8060       8061       8072       8071  
      7940       7941       7952       7951       8061       8062       8073       8072  
      7941       7942       7953       7952       8062       8063       8074       8073  
      7943       7944       7955       7954       8064       8065       8076       8075  
      7944       7945       7956       7955       8065       8066       8077       8076  
      7945       7946       7957       7956       8066       8067       8078       8077  
      7946       7947       7958       7957       8067       8068       8079       8078  
      7947       7948       7959       7958       8068       8069       8080       8079  
      7948       7949       7960       7959       8069       8070       8081       8080  
      7949       7950       7961       7960       8070       8071       8082       8081  
      7950       7951       7962       7961       8071       8072       8083       8082  
      7951       7952       7963       7962       8072       8073       8084       8083  
      7952       7953       7964       7963       8073       8074       8085       8084  
      7954       7955       7966       7965       8075       8076       8087       8086  
      7955       7956       7967       7966       8076       8077       8088       8087  
      7956       7957       7968       7967       8077       8078       8089       8088  
      7957       7958       7969       7968       8078       8079       8090       8089  
      7958       7959       7970       7969       8079       8080       8091       8090  
      7959       7960       7971       7970       8080       8081       8092       8091  
      7960       7961       7972       7971       8081       8082       8093       8092  
      7961       7962       7973       7972       8082       8083       8094       8093  
      7962       7963       7974       7973       8083       8084       8095       8094  
      7963       7964       7975       7974       8084       8085       8096       8095  
      7965       7966       7977       7976       8086       8087       8098       8097  
      7966       7967       7978       7977       8087       8088       8099       8098  
      7967       7968       7979       7978       8088       8089       8100       8099  
      7968       7969       7980       7979       8089       8090       8101       8100  
      7969       7970       7981       7980       8090       8091       8102       8101  
      7970       7971       7982       7981       8091       8092       8103       8102  
      7971       7972       7983       7982       8092       8093       8104       8103  
      7972       7973       7984       7983       8093       8094       8105       8104  
      7973       7974       7985       7984       8094       8095       8106       8105  
      7974       7975       7986       7985       8095       8096       8107       8106  
      7987       7988       7999       7998       8108       8109       8120       8119  
      7988       7989       8000       7999       8109       8110       8121       8120  
      7989       7990       8001       8000       8110       8111       8122       8121  
      7990       7991       8002       8001       8111       8112       8123       8122  
      7991       7992       8003       8002       8112       8113       8124       8123  
      7992       7993       8004       8003       8113       8114       8125       8124  
      7993       7994       8005       8004       8114       8115       8126       8125  
      7994       7995       8006       8005       8115       8116       8127       8126  
      7995       7996       8007       8006       8116       8117       8128       8127  
      7996       7997       8008       8007       8117       8118       8129       8128  
      7998       7999       8010       8009       8119       8120       8131       8130  
      7999       8000       8011       8010       8120       8121       8132       8131  
      8000       8001       8012       8011       8121       8122       8133       8132  
      8001       8002       8013       8012       8122       8123       8134       8133  
      8002       8003       8014       8013       8123       8124       8135       8134  
      8003       8004       8015       8014       8124       8125       8136       8135  
      8004       8005       8016       8015       8125       8126       8137       8136  
      8005       8006       8017       8016       8126       8127       8138       8137  
      8006       8007       8018       8017       8127       8128       8139       8138  
      8007       8008       8019       8018       8128       8129       8140       8139  
      8009       8010       8021       8020       8130       8131       8142       8141  
      8010       8011       8022       8021       8131       8132       8143       8142  
      8011       8012       8023       8022       8132       8133       8144       8143  
      8012       8013       8024       8023       8133       8134       8145       8144  
      8013       8014       8025       8024       8134       8135       8146       8145  
      8014       8015       8026       8025       8135       8136       8147       8146  
      8015       8016       8027       8026       8136       8137       8148       8147  
      8016       8017       8028       8027       8137       8138       8149       8148  
      8017       8018       8029       8028       8138       8139       8150       8149  
      8018       8019       8030       8029       8139       8140       8151       8150  
      8020       8021       8032       8031       8141       8142       8153       8152  
      8021       8022       8033       8032       8142       8143       8154       8153  
      8022       8023       8034       8033       8143       8144       8155       8154  
      8023       8024       8035       8034       8144       8145       8156       8155  
      8024       8025       8036       8035       8145       8146       8157       8156  
      8025       8026       8037       8036       8146       8147       8158       8157  
      8026       8027       8038       8037       8147       8148       8159       8158  
      8027       8028       8039       8038       8148       8149       8160       8159  
      8028       8029       8040       8039       8149       8150       8161       8160  
      8029       8030       8041       8040       8150       8151       8162       8161  
      8031       8032       8043       8042       8152       8153       8164       8163  
      8032       8033       8044       8043       8153       8154       8165       8164  
      8033       8034       8045       8044       8154       8155       8166       8165  
      8034       8035       8046       8045       8155       8156       8167       8166  
      8035       8036       8047       8046       8156       8157       8168       8167  
      8036       8037       8048       8047       8157       8158       8169       8168  
      8037       8038       8049       8048       8158       8159       8170       8169  
      8038       8039       8050       8049       8159       8160       8171       8170  
      8039       8040       8051       8050       8160       8161       8172       8171  
      8040       8041       8052       8051       8161       8162       8173       8172  
      8042       8043       8054       8053       8163       8164       8175       8174  
      8043       8044       8055       8054       8164       8165       8176       8175  
      8044       8045       8056       8055       8165       8166       8177       8176  
      8045       8046       8057       8056       8166       8167       8178       8177  
      8046       8047       8058       8057       8167       8168       8179       8178  
      8047       8048       8059       8058       8168       8169       8180       8179  
      8048       8049       8060       8059       8169       8170       8181       8180  
      8049       8050       8061       8060       8170       8171       8182       8181  
      8050       8051       8062       8061       8171       8172       8183       8182  
      8051       8052       8063       8062       8172       8173       8184       8183  
      8053       8054       8065       8064       8174       8175       8186       8185  
      8054       8055       8066       8065       8175       8176       8187       8186  
      8055       8056       8067       8066       8176       8177       8188       8187  
      8056       8057       8068       8067       8177       8178       8189       8188  
      8057       8058       8069       8068       8178       8179       8190       8189  
      8058       8059       8070       8069       8179       8180       8191       8190  
      8059       8060       8071       8070       8180       8181       8192       8191  
      8060       8061       8072       8071       8181       8182       8193       8192  
      8061       8062       8073       8072       8182       8183       8194       8193  
      8062       8063       8074       8073       8183       8184       8195       8194  
      8064       8065       8076       8075       8185       8186       8197       8196  
      8065       8066       8077       8076       8186       8187       8198       8197  
      8066       8067       8078       8077       8187       8188       8199       8198  
      8067       8068       8079       8078       8188       8189       8200       8199  
      8068       8069       8080       8079       8189       8190       8201       8200  
      8069       8070       8081       8080       8190       8191       8202       8201  
      8070       8071       8082       8081       8191       8192       8203       8202  
      8071       8072       8083       8082       8192       8193       8204       8203  
      8072       8073       8084       8083       8193       8194       8205       8204  
      8073       8074       8085       8084       8194       8195       8206       8205  
      8075       8076       8087       8086       8196       8197       8208       8207  
      8076       8077       8088       8087       8197       8198       8209       8208  
      8077       8078       8089       8088       8198       8199       8210       8209  
      8078       8079       8090       8089       8199       8200       8211       8210  
      8079       8080       8091       8090       8200       8201       8212       8211  
      8080       8081       8092       8091       8201       8202       8213       8212  
      8081       8082       8093       8092       8202       8203       8214       8213  
      8082       8083       8094       8093       8203       8204       8215       8214  
      8083       8084       8095       8094       8204       8205       8216       8215  
      8084       8085       8096       8095       8205       8206       8217       8216  
      8086       8087       8098       8097       8207       8208       8219       8218  
      8087       8088       8099       8098       8208       8209       8220       8219  
      8088       8089       8100       8099       8209       8210       8221       8220  
      8089       8090       8101       8100       8210       8211       8222       8221  
      8090       8091       8102       8101       8211       8212       8223       8222  
      8091       8092       8103       8102       8212       8213       8224       8223  
      8092       8093       8104       8103       8213       8214       8225       8224  
      8093       8094       8105       8104       8214       8215       8226       8225  
      8094       8095       8106       8105       8215       8216       8227       8226  
      8095       8096       8107       8106       8216       8217       8228       8227  
      8108       8109       8120       8119       8229       8230       8241       8240  
      8109       8110       8121       8120       8230       8231       8242       8241  
      8110       8111       8122       8121       8231       8232       8243       8242  
      8111       8112       8123       8122       8232       8233       8244       8243  
      8112       8113       8124       8123       8233       8234       8245       8244  
      8113       8114       8125       8124       8234       8235       8246       8245  
      8114       8115       8126       8125       8235       8236       8247       8246  
      8115       8116       8127       8126       8236       8237       8248       8247  
      8116       8117       8128       8127       8237       8238       8249       8248  
      8117       8118       8129       8128       8238       8239       8250       8249  
      8119       8120       8131       8130       8240       8241       8252       8251  
      8120       8121       8132       8131       8241       8242       8253       8252  
      8121       8122       8133       8132       8242       8243       8254       8253  
      8122       8123       8134       8133       8243       8244       8255       8254  
      8123       8124       8135       8134       8244       8245       8256       8255  
      8124       8125       8136       8135       8245       8246       8257       8256  
      8125       8126       8137       8136       8246       8247       8258       8257  
      8126       8127       8138       8137       8247       8248       8259       8258  
      8127       8128       8139       8138       8248       8249       8260       8259  
      8128       8129       8140       8139       8249       8250       8261       8260  
      8130       8131       8142       8141       8251       8252       8263       8262  
      8131       8132       8143       8142       8252       8253       8264       8263  
      8132       8133       8144       8143       8253       8254       8265       8264  
      8133       8134       8145       8144       8254       8255       8266       8265  
      8134       8135       8146       8145       8255       8256       8267       8266  
      8135       8136       8147       8146       8256       8257       8268       8267  
      8136       8137       8148       8147       8257       8258       8269       8268  
      8137       8138       8149       8148       8258       8259       8270       8269  
      8138       8139       8150       8149       8259       8260       8271       8270  
      8139       8140       8151       8150       8260       8261       8272       8271  
      8141       8142       8153       8152       8262       8263       8274       8273  
      8142       8143       8154       8153       8263       8264       8275       8274  
      8143       8144       8155       8154       8264       8265       8276       8275  
      8144       8145       8156       8155       8265       8266       8277       8276  
      8145       8146       8157       8156       8266       8267       8278       8277  
      8146       8147       8158       8157       8267       8268       8279       8278  
      8147       8148       8159       8158       8268       8269       8280       8279  
      8148       8149       8160       8159       8269       8270       8281       8280  
      8149       8150       8161       8160       8270       8271       8282       8281  
      8150       8151       8162       8161       8271       8272       8283       8282  
      8152       8153       8164       8163       8273       8274       8285       8284  
      8153       8154       8165       8164       8274       8275       8286       8285  
      8154       8155       8166       8165       8275       8276       8287       8286  
      8155       8156       8167       8166       8276       8277       8288       8287  
      8156       8157       8168       8167       8277       8278       8289       8288  
      8157       8158       8169       8168       8278       8279       8290       8289  
      8158       8159       8170       8169       8279       8280       8291       8290  
      8159       8160       8171       8170       8280       8281       8292       8291  
      8160       8161       8172       8171       8281       8282       8293       8292  
      8161       8162       8173       8172       8282       8283       8294       8293  
      8163       8164       8175       8174       8284       8285       8296       8295  
      8164       8165       8176       8175       8285       8286       8297       8296  
      8165       8166       8177       8176       8286       8287       8298       8297  
      8166       8167       8178       8177       8287       8288       8299       8298  
      8167       8168       8179       8178       8288       8289       8300       8299  
      8168       8169       8180       8179       8289       8290       8301       8300  
      8169       8170       8181       8180       8290       8291       8302       8301  
      8170       8171       8182       8181       8291       8292       8303       8302  
      8171       8172       8183       8182       8292       8293       8304       8303  
      8172       8173       8184       8183       8293       8294       8305       8304  
      8174       8175       8186       8185       8295       8296       8307       8306  
      8175       8176       8187       8186       8296       8297       8308       8307  
      8176       8177       8188       8187       8297       8298       8309       8308  
      8177       8178       8189       8188       8298       8299       8310       8309  
      8178       8179       8190       8189       8299       8300       8311       8310  
      8179       8180       8191       8190       8300       8301       8312       8311  
      8180       8181       8192       8191       8301       8302       8313       8312  
      8181       8182       8193       8192       8302       8303       8314       8313  
      8182       8183       8194       8193       8303       8304       8315       8314  
      8183       8184       8195       8194       8304       8305       8316       8315  
      8185       8186       8197       8196       8306       8307       8318       8317  
      8186       8187       8198       8197       8307       8308       8319       8318  
      8187       8188       8199       8198       8308       8309       8320       8319  
      8188       8189       8200       8199       8309       8310       8321       8320  
      8189       8190       8201       8200       8310       8311       8322       8321  
      8190       8191       8202       8201       8311       8312       8323       8322  
      8191       8192       8203       8202       8312       8313       8324       8323  
      8192       8193       8204       8203       8313       8314       8325       8324  
      8193       8194       8205       8204       8314       8315       8326       8325  
      8194       8195       8206       8205       8315       8316       8327       8326  
      8196       8197       8208       8207       8317       8318       8329       8328  
      8197       8198       8209       8208       8318       8319       8330       8329  
      8198       8199       8210       8209       8319       8320       8331       8330  
      8199       8200       8211       8210       8320       8321       8332       8331  
      8200       8201       8212       8211       8321       8322       8333       8332  
      8201       8202       8213       8212       8322       8323       8334       8333  
      8202       8203       8214       8213       8323       8324       8335       8334  
      8203       8204       8215       8214       8324       8325       8336       8335  
      8204       8205       8216       8215       8325       8326       8337       8336  
      8205       8206       8217       8216       8326       8327       8338       8337  
      8207       8208       8219       8218       8328       8329       8340       8339  
      8208       8209       8220       8219       8329       8330       8341       8340  
      8209       8210       8221       8220       8330       8331       8342       8341  
      8210       8211       8222       8221       8331       8332       8343       8342  
      8211       8212       8223       8222       8332       8333       8344       8343  
      8212       8213       8224       8223       8333       8334       8345       8344  
      8213       8214       8225       8224       8334       8335       8346       8345  
      8214       8215       8226       8225       8335       8336       8347       8346  
      8215       8216       8227       8226       8336       8337       8348       8347  
      8216       8217       8228       8227       8337       8338       8349       8348  
      8229       8230       8241       8240       8350       8351       8362       8361  
      8230       8231       8242       8241       8351       8352       8363       8362  
      8231       8232       8243       8242       8352       8353       8364       8363  
      8232       8233       8244       8243       8353       8354       8365       8364  
      8233       8234       8245       8244       8354       8355       8366       8365  
      8234       8235       8246       8245       8355       8356       8367       8366  
      8235       8236       8247       8246       8356       8357       8368       8367  
      8236       8237       8248       8247       8357       8358       8369       8368  
      8237       8238       8249       8248       8358       8359       8370       8369  
      8238       8239       8250       8249       8359       8360       8371       8370  
      8240       8241       8252       8251       8361       8362       8373       8372  
      8241       8242       8253       8252       8362       8363       8374       8373  
      8242       8243       8254       8253       8363       8364       8375       8374  
      8243       8244       8255       8254       8364       8365       8376       8375  
      8244       8245       8256       8255       8365       8366       8377       8376  
      8245       8246       8257       8256       8366       8367       8378       8377  
      8246       8247       8258       8257       8367       8368       8379       8378  
      8247       8248       8259       8258       8368       8369       8380       8379  
      8248       8249       8260       8259       8369       8370       8381       8380  
      8249       8250       8261       8260       8370       8371       8382       8381  
      8251       8252       8263       8262       8372       8373       8384       8383  
      8252       8253       8264       8263       8373       8374       8385       8384  
      8253       8254       8265       8264       8374       8375       8386       8385  
      8254       8255       8266       8265       8375       8376       8387       8386  
      8255       8256       8267       8266       8376       8377       8388       8387  
      8256       8257       8268       8267       8377       8378       8389       8388  
      8257       8258       8269       8268       8378       8379       8390       8389  
      8258       8259       8270       8269       8379       8380       8391       8390  
      8259       8260       8271       8270       8380       8381       8392       8391  
      8260       8261       8272       8271       8381       8382       8393       8392  
      8262       8263       8274       8273       8383       8384       8395       8394  
      8263       8264       8275       8274       8384       8385       8396       8395  
      8264       8265       8276       8275       8385       8386       8397       8396  
      8265       8266       8277       8276       8386       8387       8398       8397  
      8266       8267       8278       8277       8387       8388       8399       8398  
      8267       8268       8279       8278       8388       8389       8400       8399  
      8268       8269       8280       8279       8389       8390       8401       8400  
      8269       8270       8281       8280       8390       8391       8402       8401  
      8270       8271       8282       8281       8391       8392       8403       8402  
      8271       8272       8283       8282       8392       8393       8404       8403  
      8273       8274       8285       8284       8394       8395       8406       8405  
      8274       8275       8286       8285       8395       8396       8407       8406  
      8275       8276       8287       8286       8396       8397       8408       8407  
      8276       8277       8288       8287       8397       8398       8409       8408  
      8277       8278       8289       8288       8398       8399       8410       8409  
      8278       8279       8290       8289       8399       8400       8411       8410  
      8279       8280       8291       8290       8400       8401       8412       8411  
      8280       8281       8292       8291       8401       8402       8413       8412  
      8281       8282       8293       8292       8402       8403       8414       8413  
      8282       8283       8294       8293       8403       8404       8415       8414  
      8284       8285       8296       8295       8405       8406       8417       8416  
      8285       8286       8297       8296       8406       8407       8418       8417  
      8286       8287       8298       8297       8407       8408       8419       8418  
      8287       8288       8299       8298       8408       8409       8420       8419  
      8288       8289       8300       8299       8409       8410       8421       8420  
      8289       8290       8301       8300       8410       8411       8422       8421  
      8290       8291       8302       8301       8411       8412       8423       8422  
      8291       8292       8303       8302       8412       8413       8424       8423  
      8292       8293       8304       8303       8413       8414       8425       8424  
      8293       8294       8305       8304       8414       8415       8426       8425  
      8295       8296       8307       8306       8416       8417       8428       8427  
      8296       8297       8308       8307       8417       8418       8429       8428  
      8297       8298       8309       8308       8418       8419       8430       8429  
      8298       8299       8310       8309       8419       8420       8431       8430  
      8299       8300       8311       8310       8420       8421       8432       8431  
      8300       8301       8312       8311       8421       8422       8433       8432  
      8301       8302       8313       8312       8422       8423       8434       8433  
      8302       8303       8314       8313       8423       8424       8435       8434  
      8303       8304       8315       8314       8424       8425       8436       8435  
      8304       8305       8316       8315       8425       8426       8437       8436  
      8306       8307       8318       8317       8427       8428       8439       8438  
      8307       8308       8319       8318       8428       8429       8440       8439  
      8308       8309       8320       8319       8429       8430       8441       8440  
      8309       8310       8321       8320       8430       8431       8442       8441  
      8310       8311       8322       8321       8431       8432       8443       8442  
      8311       8312       8323       8322       8432       8433       8444       8443  
      8312       8313       8324       8323       8433       8434       8445       8444  
      8313       8314       8325       8324       8434       8435       8446       8445  
      8314       8315       8326       8325       8435       8436       8447       8446  
      8315       8316       8327       8326       8436       8437       8448       8447  
      8317       8318       8329       8328       8438       8439       8450       8449  
      8318       8319       8330       8329       8439       8440       8451       8450  
      8319       8320       8331       8330       8440       8441       8452       8451  
      8320       8321       8332       8331       8441       8442       8453       8452  
      8321       8322       8333       8332       8442       8443       8454       8453  
      8322       8323       8334       8333       8443       8444       8455       8454  
      8323       8324       8335       8334       8444       8445       8456       8455  
      8324       8325       8336       8335       8445       8446       8457       8456  
      8325       8326       8337       8336       8446       8447       8458       8457  
      8326       8327       8338       8337       8447       8448       8459       8458  
      8328       8329       8340       8339       8449       8450       8461       8460  
      8329       8330       8341       8340       8450       8451       8462       8461  
      8330       8331       8342       8341       8451       8452       8463       8462  
      8331       8332       8343       8342       8452       8453       8464       8463  
      8332       8333       8344       8343       8453       8454       8465       8464  
      8333       8334       8345       8344       8454       8455       8466       8465  
      8334       8335       8346       8345       8455       8456       8467       8466  
      8335       8336       8347       8346       8456       8457       8468       8467  
      8336       8337       8348       8347       8457       8458       8469       8468  
      8337       8338       8349       8348       8458       8459       8470       8469  
      8350       8351       8362       8361       8471       8472       8483       8482  
      8351       8352       8363       8362       8472       8473       8484       8483  
      8352       8353       8364       8363       8473       8474       8485       8484  
      8353       8354       8365       8364       8474       8475       8486       8485  
      8354       8355       8366       8365       8475       8476       8487       8486  
      8355       8356       8367       8366       8476       8477       8488       8487  
      8356       8357       8368       8367       8477       8478       8489       8488  
      8357       8358       8369       8368       8478       8479       8490       8489  
      8358       8359       8370       8369       8479       8480       8491       8490  
      8359       8360       8371       8370       8480       8481       8492       8491  
      8361       8362       8373       8372       8482       8483       8494       8493  
      8362       8363       8374       8373       8483       8484       8495       8494  
      8363       8364       8375       8374       8484       8485       8496       8495  
      8364       8365       8376       8375       8485       8486       8497       8496  
      8365       8366       8377       8376       8486       8487       8498       8497  
      8366       8367       8378       8377       8487       8488       8499       8498  
      8367       8368       8379       8378       8488       8489       8500       8499  
      8368       8369       8380       8379       8489       8490       8501       8500  
      8369       8370       8381       8380       8490       8491       8502       8501  
      8370       8371       8382       8381       8491       8492       8503       8502  
      8372       8373       8384       8383       8493       8494       8505       8504  
      8373       8374       8385       8384       8494       8495       8506       8505  
      8374       8375       8386       8385       8495       8496       8507       8506  
      8375       8376       8387       8386       8496       8497       8508       8507  
      8376       8377       8388       8387       8497       8498       8509       8508  
      8377       8378       8389       8388       8498       8499       8510       8509  
      8378       8379       8390       8389       8499       8500       8511       8510  
      8379       8380       8391       8390       8500       8501       8512       8511  
      8380       8381       8392       8391       8501       8502       8513       8512  
      8381       8382       8393       8392       8502       8503       8514       8513  
      8383       8384       8395       8394       8504       8505       8516       8515  
      8384       8385       8396       8395       8505       8506       8517       8516  
      8385       8386       8397       8396       8506       8507       8518       8517  
      8386       8387       8398       8397       8507       8508       8519       8518  
      8387       8388       8399       8398       8508       8509       8520       8519  
      8388       8389       8400       8399       8509       8510       8521       8520  
      8389       8390       8401       8400       8510       8511       8522       8521  
      8390       8391       8402       8401       8511       8512       8523       8522  
      8391       8392       8403       8402       8512       8513       8524       8523  
      8392       8393       8404       8403       8513       8514       8525       8524  
      8394       8395       8406       8405       8515       8516       8527       8526  
      8395       8396       8407       8406       8516       8517       8528       8527  
      8396       8397       8408       8407       8517       8518       8529       8528  
      8397       8398       8409       8408       8518       8519       8530       8529  
      8398       8399       8410       8409       8519       8520       8531       8530  
      8399       8400       8411       8410       8520       8521       8532       8531  
      8400       8401       8412       8411       8521       8522       8533       8532  
      8401       8402       8413       8412       8522       8523       8534       8533  
      8402       8403       8414       8413       8523       8524       8535       8534  
      8403       8404       8415       8414       8524       8525       8536       8535  
      8405       8406       8417       8416       8526       8527       8538       8537  
      8406       8407       8418       8417       8527       8528       8539       8538  
      8407       8408       8419       8418       8528       8529       8540       8539  
      8408       8409       8420       8419       8529       8530       8541       8540  
      8409       8410       8421       8420       8530       8531       8542       8541  
      8410       8411       8422       8421       8531       8532       8543       8542  
      8411       8412       8423       8422       8532       8533       8544       8543  
      8412       8413       8424       8423       8533       8534       8545       8544  
      8413       8414       8425       8424       8534       8535       8546       8545  
      8414       8415       8426       8425       8535       8536       8547       8546  
      8416       8417       8428       8427       8537       8538       8549       8548  
      8417       8418       8429       8428       8538       8539       8550       8549  
      8418       8419       8430       8429       8539       8540       8551       8550  
      8419       8420       8431       8430       8540       8541       8552       8551  
      8420       8421       8432       8431       8541       8542       8553       8552  
      8421       8422       8433       8432       8542       8543       8554       8553  
      8422       8423       8434       8433       8543       8544       8555       8554  
      8423       8424       8435       8434       8544       8545       8556       8555  
      8424       8425       8436       8435       8545       8546       8557       8556  
      8425       8426       8437       8436       8546       8547       8558       8557  
      8427       8428       8439       8438       8548       8549       8560       8559  
      8428       8429       8440       8439       8549       8550       8561       8560  
      8429       8430       8441       8440       8550       8551       8562       8561  
      8430       8431       8442       8441       8551       8552       8563       8562  
      8431       8432       8443       8442       8552       8553       8564       8563  
      8432       8433       8444       8443       8553       8554       8565       8564  
      8433       8434       8445       8444       8554       8555       8566       8565  
      8434       8435       8446       8445       8555       8556       8567       8566  
      8435       8436       8447       8446       8556       8557       8568       8567  
      8436       8437       8448       8447       8557       8558       8569       8568  
      8438       8439       8450       8449       8559       8560       8571       8570  
      8439       8440       8451       8450       8560       8561       8572       8571  
      8440       8441       8452       8451       8561       8562       8573       8572  
      8441       8442       8453       8452       8562       8563       8574       8573  
      8442       8443       8454       8453       8563       8564       8575       8574  
      8443       8444       8455       8454       8564       8565       8576       8575  
      8444       8445       8456       8455       8565       8566       8577       8576  
      8445       8446       8457       8456       8566       8567       8578       8577  
      8446       8447       8458       8457       8567       8568       8579       8578  
      8447       8448       8459       8458       8568       8569       8580       8579  
      8449       8450       8461       8460       8570       8571       8582       8581  
      8450       8451       8462       8461       8571       8572       8583       8582  
      8451       8452       8463       8462       8572       8573       8584       8583  
      8452       8453       8464       8463       8573       8574       8585       8584  
      8453       8454       8465       8464       8574       8575       8586       8585  
      8454       8455       8466       8465       8575       8576       8587       8586  
      8455       8456       8467       8466       8576       8577       8588       8587  
      8456       8457       8468       8467       8577       8578       8589       8588  
      8457       8458       8469       8468       8578       8579       8590       8589  
      8458       8459       8470       8469       8579       8580       8591       8590  
      8471       8472       8483       8482       8592       8593       8604       8603  
      8472       8473       8484       8483       8593       8594       8605       8604  
      8473       8474       8485       8484       8594       8595       8606       8605  
      8474       8475       8486       8485       8595       8596       8607       8606  
      8475       8476       8487       8486       8596       8597       8608       8607  
      8476       8477       8488       8487       8597       8598       8609       8608  
      8477       8478       8489       8488       8598       8599       8610       8609  
      8478       8479       8490       8489       8599       8600       8611       8610  
      8479       8480       8491       8490       8600       8601       8612       8611  
      8480       8481       8492       8491       8601       8602       8613       8612  
      8482       8483       8494       8493       8603       8604       8615       8614  
      8483       8484       8495       8494       8604       8605       8616       8615  
      8484       8485       8496       8495       8605       8606       8617       8616  
      8485       8486       8497       8496       8606       8607       8618       8617  
      8486       8487       8498       8497       8607       8608       8619       8618  
      8487       8488       8499       8498       8608       8609       8620       8619  
      8488       8489       8500       8499       8609       8610       8621       8620  
      8489       8490       8501       8500       8610       8611       8622       8621  
      8490       8491       8502       8501       8611       8612       8623       8622  
      8491       8492       8503       8502       8612       8613       8624       8623  
      8493       8494       8505       8504       8614       8615       8626       8625  
      8494       8495       8506       8505       8615       8616       8627       8626  
      8495       8496       8507       8506       8616       8617       8628       8627  
      8496       8497       8508       8507       8617       8618       8629       8628  
      8497       8498       8509       8508       8618       8619       8630       8629  
      8498       8499       8510       8509       8619       8620       8631       8630  
      8499       8500       8511       8510       8620       8621       8632       8631  
      8500       8501       8512       8511       8621       8622       8633       8632  
      8501       8502       8513       8512       8622       8623       8634       8633  
      8502       8503       8514       8513       8623       8624       8635       8634  
      8504       8505       8516       8515       8625       8626       8637       8636  
      8505       8506       8517       8516       8626       8627       8638       8637  
      8506       8507       8518       8517       8627       8628       8639       8638  
      8507       8508       8519       8518       8628       8629       8640       8639  
      8508       8509       8520       8519       8629       8630       8641       8640  
      8509       8510       8521       8520       8630       8631       8642       8641  
      8510       8511       8522       8521       8631       8632       8643       8642  
      8511       8512       8523       8522       8632       8633       8644       8643  
      8512       8513       8524       8523       8633       8634       8645       8644  
      8513       8514       8525       8524       8634       8635       8646       8645  
      8515       8516       8527       8526       8636       8637       8648       8647  
      8516       8517       8528       8527       8637       8638       8649       8648  
      8517       8518       8529       8528       8638       8639       8650       8649  
      8518       8519       8530       8529       8639       8640       8651       8650  
      8519       8520       8531       8530       8640       8641       8652       8651  
      8520       8521       8532       8531       8641       8642       8653       8652  
      8521       8522       8533       8532       8642       8643       8654       8653  
      8522       8523       8534       8533       8643       8644       8655       8654  
      8523       8524       8535       8534       8644       8645       8656       8655  
      8524       8525       8536       8535       8645       8646       8657       8656  
      8526       8527       8538       8537       8647       8648       8659       8658  
      8527       8528       8539       8538       8648       8649       8660       8659  
      8528       8529       8540       8539       8649       8650       8661       8660  
      8529       8530       8541       8540       8650       8651       8662       8661  
      8530       8531       8542       8541       8651       8652       8663       8662  
      8531       8532       8543       8542       8652       8653       8664       8663  
      8532       8533       8544       8543       8653       8654       8665       8664  
      8533       8534       8545       8544       8654       8655       8666       8665  
      8534       8535       8546       8545       8655       8656       8667       8666  
      8535       8536       8547       8546       8656       8657       8668       8667  
      8537       8538       8549       8548       8658       8659       8670       8669  
      8538       8539       8550       8549       8659       8660       8671       8670  
      8539       8540       8551       8550       8660       8661       8672       8671  
      8540       8541       8552       8551       8661       8662       8673       8672  
      8541       8542       8553       8552       8662       8663       8674       8673  
      8542       8543       8554       8553       8663       8664       8675       8674  
      8543       8544       8555       8554       8664       8665       8676       8675  
      8544       8545       8556       8555       8665       8666       8677       8676  
      8545       8546       8557       8556       8666       8667       8678       8677  
      8546       8547       8558       8557       8667       8668       8679       8678  
      8548       8549       8560       8559       8669       8670       8681       8680  
      8549       8550       8561       8560       8670       8671       8682       8681  
      8550       8551       8562       8561       8671       8672       8683       8682  
      8551       8552       8563       8562       8672       8673       8684       8683  
      8552       8553       8564       8563       8673       8674       8685       8684  
      8553       8554       8565       8564       8674       8675       8686       8685  
      8554       8555       8566       8565       8675       8676       8687       8686  
      8555       8556       8567       8566       8676       8677       8688       8687  
      8556       8557       8568       8567       8677       8678       8689       8688  
      8557       8558       8569       8568       8678       8679       8690       8689  
      8559       8560       8571       8570       8680       8681       8692       8691  
      8560       8561       8572       8571       8681       8682       8693       8692  
      8561       8562       8573       8572       8682       8683       8694       8693  
      8562       8563       8574       8573       8683       8684       8695       8694  
      8563       8564       8575       8574       8684       8685       8696       8695  
      8564       8565       8576       8575       8685       8686       8697       8696  
      8565       8566       8577       8576       8686       8687       8698       8697  
      8566       8567       8578       8577       8687       8688       8699       8698  
      8567       8568       8579       8578       8688       8689       8700       8699  
      8568       8569       8580       8579       8689       8690       8701       8700  
      8570       8571       8582       8581       8691       8692       8703       8702  
      8571       8572       8583       8582       8692       8693       8704       8703  
      8572       8573       8584       8583       8693       8694       8705       8704  
      8573       8574       8585       8584       8694       8695       8706       8705  
      8574       8575       8586       8585       8695       8696       8707       8706  
      8575       8576       8587       8586       8696       8697       8708       8707  
      8576       8577       8588       8587       8697       8698       8709       8708  
      8577       8578       8589       8588       8698       8699       8710       8709  
      8578       8579       8590       8589       8699       8700       8711       8710  
      8579       8580       8591       8590       8700       8701       8712       8711  
      8592       8593       8604       8603       8713       8714       8725       8724  
      8593       8594       8605       8604       8714       8715       8726       8725  
      8594       8595       8606       8605       8715       8716       8727       8726  
      8595       8596       8607       8606       8716       8717       8728       8727  
      8596       8597       8608       8607       8717       8718       8729       8728  
      8597       8598       8609       8608       8718       8719       8730       8729  
      8598       8599       8610       8609       8719       8720       8731       8730  
      8599       8600       8611       8610       8720       8721       8732       8731  
      8600       8601       8612       8611       8721       8722       8733       8732  
      8601       8602       8613       8612       8722       8723       8734       8733  
      8603       8604       8615       8614       8724       8725       8736       8735  
      8604       8605       8616       8615       8725       8726       8737       8736  
      8605       8606       8617       8616       8726       8727       8738       8737  
      8606       8607       8618       8617       8727       8728       8739       8738  
      8607       8608       8619       8618       8728       8729       8740       8739  
      8608       8609       8620       8619       8729       8730       8741       8740  
      8609       8610       8621       8620       8730       8731       8742       8741  
      8610       8611       8622       8621       8731       8732       8743       8742  
      8611       8612       8623       8622       8732       8733       8744       8743  
      8612       8613       8624       8623       8733       8734       8745       8744  
      8614       8615       8626       8625       8735       8736       8747       8746  
      8615       8616       8627       8626       8736       8737       8748       8747  
      8616       8617       8628       8627       8737       8738       8749       8748  
      8617       8618       8629       8628       8738       8739       8750       8749  
      8618       8619       8630       8629       8739       8740       8751       8750  
      8619       8620       8631       8630       8740       8741       8752       8751  
      8620       8621       8632       8631       8741       8742       8753       8752  
      8621       8622       8633       8632       8742       8743       8754       8753  
      8622       8623       8634       8633       8743       8744       8755       8754  
      8623       8624       8635       8634       8744       8745       8756       8755  
      8625       8626       8637       8636       8746       8747       8758       8757  
      8626       8627       8638       8637       8747       8748       8759       8758  
      8627       8628       8639       8638       8748       8749       8760       8759  
      8628       8629       8640       8639       8749       8750       8761       8760  
      8629       8630       8641       8640       8750       8751       8762       8761  
      8630       8631       8642       8641       8751       8752       8763       8762  
      8631       8632       8643       8642       8752       8753       8764       8763  
      8632       8633       8644       8643       8753       8754       8765       8764  
      8633       8634       8645       8644       8754       8755       8766       8765  
      8634       8635       8646       8645       8755       8756       8767       8766  
      8636       8637       8648       8647       8757       8758       8769       8768  
      8637       8638       8649       8648       8758       8759       8770       8769  
      8638       8639       8650       8649       8759       8760       8771       8770  
      8639       8640       8651       8650       8760       8761       8772       8771  
      8640       8641       8652       8651       8761       8762       8773       8772  
      8641       8642       8653       8652       8762       8763       8774       8773  
      8642       8643       8654       8653       8763       8764       8775       8774  
      8643       8644       8655       8654       8764       8765       8776       8775  
      8644       8645       8656       8655       8765       8766       8777       8776  
      8645       8646       8657       8656       8766       8767       8778       8777  
      8647       8648       8659       8658       8768       8769       8780       8779  
      8648       8649       8660       8659       8769       8770       8781       8780  
      8649       8650       8661       8660       8770       8771       8782       8781  
      8650       8651       8662       8661       8771       8772       8783       8782  
      8651       8652       8663       8662       8772       8773       8784       8783  
      8652       8653       8664       8663       8773       8774       8785       8784  
      8653       8654       8665       8664       8774       8775       8786       8785  
      8654       8655       8666       8665       8775       8776       8787       8786  
      8655       8656       8667       8666       8776       8777       8788       8787  
      8656       8657       8668       8667       8777       8778       8789       8788  
      8658       8659       8670       8669       8779       8780       8791       8790  
      8659       8660       8671       8670       8780       8781       8792       8791  
      8660       8661       8672       8671       8781       8782       8793       8792  
      8661       8662       8673       8672       8782       8783       8794       8793  
      8662       8663       8674       8673       8783       8784       8795       8794  
      8663       8664       8675       8674       8784       8785       8796       8795  
      8664       8665       8676       8675       8785       8786       8797       8796  
      8665       8666       8677       8676       8786       8787       8798       8797  
      8666       8667       8678       8677       8787       8788       8799       8798  
      8667       8668       8679       8678       8788       8789       8800       8799  
      8669       8670       8681       8680       8790       8791       8802       8801  
      8670       8671       8682       8681       8791       8792       8803       8802  
      8671       8672       8683       8682       8792       8793       8804       8803  
      8672       8673       8684       8683       8793       8794       8805       8804  
      8673       8674       8685       8684       8794       8795       8806       8805  
      8674       8675       8686       8685       8795       8796       8807       8806  
      8675       8676       8687       8686       8796       8797       8808       8807  
      8676       8677       8688       8687       8797       8798       8809       8808  
      8677       8678       8689       8688       8798       8799       8810       8809  
      8678       8679       8690       8689       8799       8800       8811       8810  
      8680       8681       8692       8691       8801       8802       8813       8812  
      8681       8682       8693       8692       8802       8803       8814       8813  
      8682       8683       8694       8693       8803       8804       8815       8814  
      8683       8684       8695       8694       8804       8805       8816       8815  
      8684       8685       8696       8695       8805       8806       8817       8816  
      8685       8686       8697       8696       8806       8807       8818       8817  
      8686       8687       8698       8697       8807       8808       8819       8818  
      8687       8688       8699       8698       8808       8809       8820       8819  
      8688       8689       8700       8699       8809       8810       8821       8820  
      8689       8690       8701       8700       8810       8811       8822       8821  
      8691       8692       8703       8702       8812       8813       8824       8823  
      8692       8693       8704       8703       8813       8814       8825       8824  
      8693       8694       8705       8704       8814       8815       8826       8825  
      8694       8695       8706       8705       8815       8816       8827       8826  
      8695       8696       8707       8706       8816       8817       8828       8827  
      8696       8697       8708       8707       8817       8818       8829       8828  
      8697       8698       8709       8708       8818       8819       8830       8829  
      8698       8699       8710       8709       8819       8820       8831       8830  
      8699       8700       8711       8710       8820       8821       8832       8831  
      8700       8701       8712       8711       8821       8822       8833       8832  
      8713       8714       8725       8724       8834       8835       8846       8845  
      8714       8715       8726       8725       8835       8836       8847       8846  
      8715       8716       8727       8726       8836       8837       8848       8847  
      8716       8717       8728       8727       8837       8838       8849       8848  
      8717       8718       8729       8728       8838       8839       8850       8849  
      8718       8719       8730       8729       8839       8840       8851       8850  
      8719       8720       8731       8730       8840       8841       8852       8851  
      8720       8721       8732       8731       8841       8842       8853       8852  
      8721       8722       8733       8732       8842       8843       8854       8853  
      8722       8723       8734       8733       8843       8844       8855       8854  
      8724       8725       8736       8735       8845       8846       8857       8856  
      8725       8726       8737       8736       8846       8847       8858       8857  
      8726       8727       8738       8737       8847       8848       8859       8858  
      8727       8728       8739       8738       8848       8849       8860       8859  
      8728       8729       8740       8739       8849       8850       8861       8860  
      8729       8730       8741       8740       8850       8851       8862       8861  
      8730       8731       8742       8741       8851       8852       8863       8862  
      8731       8732       8743       8742       8852       8853       8864       8863  
      8732       8733       8744       8743       8853       8854       8865       8864  
      8733       8734       8745       8744       8854       8855       8866       8865  
      8735       8736       8747       8746       8856       8857       8868       8867  
      8736       8737       8748       8747       8857       8858       8869       8868  
      8737       8738       8749       8748       8858       8859       8870       8869  
      8738       8739       8750       8749       8859       8860       8871       8870  
      8739       8740       8751       8750       8860       8861       8872       8871  
      8740       8741       8752       8751       8861       8862       8873       8872  
      8741       8742       8753       8752       8862       8863       8874       8873  
      8742       8743       8754       8753       8863       8864       8875       8874  
      8743       8744       8755       8754       8864       8865       8876       8875  
      8744       8745       8756       8755       8865       8866       8877       8876  
      8746       8747       8758       8757       8867       8868       8879       8878  
      8747       8748       8759       8758       8868       8869       8880       8879  
      8748       8749       8760       8759       8869       8870       8881       8880  
      8749       8750       8761       8760       8870       8871       8882       8881  
      8750       8751       8762       8761       8871       8872       8883       8882  
      8751       8752       8763       8762       8872       8873       8884       8883  
      8752       8753       8764       8763       8873       8874       8885       8884  
      8753       8754       8765       8764       8874       8875       8886       8885  
      8754       8755       8766       8765       8875       8876       8887       8886  
      8755       8756       8767       8766       8876       8877       8888       8887  
      8757       8758       8769       8768       8878       8879       8890       8889  
      8758       8759       8770       8769       8879       8880       8891       8890  
      8759       8760       8771       8770       8880       8881       8892       8891  
      8760       8761       8772       8771       8881       8882       8893       8892  
      8761       8762       8773       8772       8882       8883       8894       8893  
      8762       8763       8774       8773       8883       8884       8895       8894  
      8763       8764       8775       8774       8884       8885       8896       8895  
      8764       8765       8776       8775       8885       8886       8897       8896  
      8765       8766       8777       8776       8886       8887       8898       8897  
      8766       8767       8778       8777       8887       8888       8899       8898  
      8768       8769       8780       8779       8889       8890       8901       8900  
      8769       8770       8781       8780       8890       8891       8902       8901  
      8770       8771       8782       8781       8891       8892       8903       8902  
      8771       8772       8783       8782       8892       8893       8904       8903  
      8772       8773       8784       8783       8893       8894       8905       8904  
      8773       8774       8785       8784       8894       8895       8906       8905  
      8774       8775       8786       8785       8895       8896       8907       8906  
      8775       8776       8787       8786       8896       8897       8908       8907  
      8776       8777       8788       8787       8897       8898       8909       8908  
      8777       8778       8789       8788       8898       8899       8910       8909  
      8779       8780       8791       8790       8900       8901       8912       8911  
      8780       8781       8792       8791       8901       8902       8913       8912  
      8781       8782       8793       8792       8902       8903       8914       8913  
      8782       8783       8794       8793       8903       8904       8915       8914  
      8783       8784       8795       8794       8904       8905       8916       8915  
      8784       8785       8796       8795       8905       8906       8917       8916  
      8785       8786       8797       8796       8906       8907       8918       8917  
      8786       8787       8798       8797       8907       8908       8919       8918  
      8787       8788       8799       8798       8908       8909       8920       8919  
      8788       8789       8800       8799       8909       8910       8921       8920  
      8790       8791       8802       8801       8911       8912       8923       8922  
      8791       8792       8803       8802       8912       8913       8924       8923  
      8792       8793       8804       8803       8913       8914       8925       8924  
      8793       8794       8805       8804       8914       8915       8926       8925  
      8794       8795       8806       8805       8915       8916       8927       8926  
      8795       8796       8807       8806       8916       8917       8928       8927  
      8796       8797       8808       8807       8917       8918       8929       8928  
      8797       8798       8809       8808       8918       8919       8930       8929  
      8798       8799       8810       8809       8919       8920       8931       8930  
      8799       8800       8811       8810       8920       8921       8932       8931  
      8801       8802       8813       8812       8922       8923       8934       8933  
      8802       8803       8814       8813       8923       8924       8935       8934  
      8803       8804       8815       8814       8924       8925       8936       8935  
      8804       8805       8816       8815       8925       8926       8937       8936  
      8805       8806       8817       8816       8926       8927       8938       8937  
      8806       8807       8818       8817       8927       8928       8939       8938  
      8807       8808       8819       8818       8928       8929       8940       8939  
      8808       8809       8820       8819       8929       8930       8941       8940  
      8809       8810       8821       8820       8930       8931       8942       8941  
      8810       8811       8822       8821       8931       8932       8943       8942  
      8812       8813       8824       8823       8933       8934       8945       8944  
      8813       8814       8825       8824       8934       8935       8946       8945  
      8814       8815       8826       8825       8935       8936       8947       8946  
      8815       8816       8827       8826       8936       8937       8948       8947  
      8816       8817       8828       8827       8937       8938       8949       8948  
      8817       8818       8829       8828       8938       8939       8950       8949  
      8818       8819       8830       8829       8939       8940       8951       8950  
      8819       8820       8831       8830       8940       8941       8952       8951  
      8820       8821       8832       8831       8941       8942       8953       8952  
      8821       8822       8833       8832       8942       8943       8954       8953  
      8834       8835       8846       8845       8955       8956       8967       8966  
      8835       8836       8847       8846       8956       8957       8968       8967  
      8836       8837       8848       8847       8957       8958       8969       8968  
      8837       8838       8849       8848       8958       8959       8970       8969  
      8838       8839       8850       8849       8959       8960       8971       8970  
      8839       8840       8851       8850       8960       8961       8972       8971  
      8840       8841       8852       8851       8961       8962       8973       8972  
      8841       8842       8853       8852       8962       8963       8974       8973  
      8842       8843       8854       8853       8963       8964       8975       8974  
      8843       8844       8855       8854       8964       8965       8976       8975  
      8845       8846       8857       8856       8966       8967       8978       8977  
      8846       8847       8858       8857       8967       8968       8979       8978  
      8847       8848       8859       8858       8968       8969       8980       8979  
      8848       8849       8860       8859       8969       8970       8981       8980  
      8849       8850       8861       8860       8970       8971       8982       8981  
      8850       8851       8862       8861       8971       8972       8983       8982  
      8851       8852       8863       8862       8972       8973       8984       8983  
      8852       8853       8864       8863       8973       8974       8985       8984  
      8853       8854       8865       8864       8974       8975       8986       8985  
      8854       8855       8866       8865       8975       8976       8987       8986  
      8856       8857       8868       8867       8977       8978       8989       8988  
      8857       8858       8869       8868       8978       8979       8990       8989  
      8858       8859       8870       8869       8979       8980       8991       8990  
      8859       8860       8871       8870       8980       8981       8992       8991  
      8860       8861       8872       8871       8981       8982       8993       8992  
      8861       8862       8873       8872       8982       8983       8994       8993  
      8862       8863       8874       8873       8983       8984       8995       8994  
      8863       8864       8875       8874       8984       8985       8996       8995  
      8864       8865       8876       8875       8985       8986       8997       8996  
      8865       8866       8877       8876       8986       8987       8998       8997  
      8867       8868       8879       8878       8988       8989       9000       8999  
      8868       8869       8880       8879       8989       8990       9001       9000  
      8869       8870       8881       8880       8990       8991       9002       9001  
      8870       8871       8882       8881       8991       8992       9003       9002  
      8871       8872       8883       8882       8992       8993       9004       9003  
      8872       8873       8884       8883       8993       8994       9005       9004  
      8873       8874       8885       8884       8994       8995       9006       9005  
      8874       8875       8886       8885       8995       8996       9007       9006  
      8875       8876       8887       8886       8996       8997       9008       9007  
      8876       8877       8888       8887       8997       8998       9009       9008  
      8878       8879       8890       8889       8999       9000       9011       9010  
      8879       8880       8891       8890       9000       9001       9012       9011  
      8880       8881       8892       8891       9001       9002       9013       9012  
      8881       8882       8893       8892       9002       9003       9014       9013  
      8882       8883       8894       8893       9003       9004       9015       9014  
      8883       8884       8895       8894       9004       9005       9016       9015  
      8884       8885       8896       8895       9005       9006       9017       9016  
      8885       8886       8897       8896       9006       9007       9018       9017  
      8886       8887       8898       8897       9007       9008       9019       9018  
      8887       8888       8899       8898       9008       9009       9020       9019  
      8889       8890       8901       8900       9010       9011       9022       9021  
      8890       8891       8902       8901       9011       9012       9023       9022  
      8891       8892       8903       8902       9012       9013       9024       9023  
      8892       8893       8904       8903       9013       9014       9025       9024  
      8893       8894       8905       8904       9014       9015       9026       9025  
      8894       8895       8906       8905       9015       9016       9027       9026  
      8895       8896       8907       8906       9016       9017       9028       9027  
      8896       8897       8908       8907       9017       9018       9029       9028  
      8897       8898       8909       8908       9018       9019       9030       9029  
      8898       8899       8910       8909       9019       9020       9031       9030  
      8900       8901       8912       8911       9021       9022       9033       9032  
      8901       8902       8913       8912       9022       9023       9034       9033  
      8902       8903       8914       8913       9023       9024       9035       9034  
      8903       8904       8915       8914       9024       9025       9036       9035  
      8904       8905       8916       8915       9025       9026       9037       9036  
      8905       8906       8917       8916       9026       9027       9038       9037  
      8906       8907       8918       8917       9027       9028       9039       9038  
      8907       8908       8919       8918       9028       9029       9040       9039  
      8908       8909       8920       8919       9029       9030       9041       9040  
      8909       8910       8921       8920       9030       9031       9042       9041  
      8911       8912       8923       8922       9032       9033       9044       9043  
      8912       8913       8924       8923       9033       9034       9045       9044  
      8913       8914       8925       8924       9034       9035       9046       9045  
      8914       8915       8926       8925       9035       9036       9047       9046  
      8915       8916       8927       8926       9036       9037       9048       9047  
      8916       8917       8928       8927       9037       9038       9049       9048  
      8917       8918       8929       8928       9038       9039       9050       9049  
      8918       8919       8930       8929       9039       9040       9051       9050  
      8919       8920       8931       8930       9040       9041       9052       9051  
      8920       8921       8932       8931       9041       9042       9053       9052  
      8922       8923       8934       8933       9043       9044       9055       9054  
      8923       8924       8935       8934       9044       9045       9056       9055  
      8924       8925       8936       8935       9045       9046       9057       9056  
      8925       8926       8937       8936       9046       9047       9058       9057  
      8926       8927       8938       8937       9047       9048       9059       9058  
      8927       8928       8939       8938       9048       9049       9060       9059  
      8928       8929       8940       8939       9049       9050       9061       9060  
      8929       8930       8941       8940       9050       9051       9062       9061  
      8930       8931       8942       8941       9051       9052       9063       9062  
      8931       8932       8943       8942       9052       9053       9064       9063  
      8933       8934       8945       8944       9054       9055       9066       9065  
      8934       8935       8946       8945       9055       9056       9067       9066  
      8935       8936       8947       8946       9056       9057       9068       9067  
      8936       8937       8948       8947       9057       9058       9069       9068  
      8937       8938       8949       8948       9058       9059       9070       9069  
      8938       8939       8950       8949       9059       9060       9071       9070  
      8939       8940       8951       8950       9060       9061       9072       9071  
      8940       8941       8952       8951       9061       9062       9073       9072  
      8941       8942       8953       8952       9062       9063       9074       9073  
      8942       8943       8954       8953       9063       9064       9075       9074  
      8955       8956       8967       8966       9076       9077       9088       9087  
      8956       8957       8968       8967       9077       9078       9089       9088  
      8957       8958       8969       8968       9078       9079       9090       9089  
      8958       8959       8970       8969       9079       9080       9091       9090  
      8959       8960       8971       8970       9080       9081       9092       9091  
      8960       8961       8972       8971       9081       9082       9093       9092  
      8961       8962       8973       8972       9082       9083       9094       9093  
      8962       8963       8974       8973       9083       9084       9095       9094  
      8963       8964       8975       8974       9084       9085       9096       9095  
      8964       8965       8976       8975       9085       9086       9097       9096  
      8966       8967       8978       8977       9087       9088       9099       9098  
      8967       8968       8979       8978       9088       9089       9100       9099  
      8968       8969       8980       8979       9089       9090       9101       9100  
      8969       8970       8981       8980       9090       9091       9102       9101  
      8970       8971       8982       8981       9091       9092       9103       9102  
      8971       8972       8983       8982       9092       9093       9104       9103  
      8972       8973       8984       8983       9093       9094       9105       9104  
      8973       8974       8985       8984       9094       9095       9106       9105  
      8974       8975       8986       8985       9095       9096       9107       9106  
      8975       8976       8987       8986       9096       9097       9108       9107  
      8977       8978       8989       8988       9098       9099       9110       9109  
      8978       8979       8990       8989       9099       9100       9111       9110  
      8979       8980       8991       8990       9100       9101       9112       9111  
      8980       8981       8992       8991       9101       9102       9113       9112  
      8981       8982       8993       8992       9102       9103       9114       9113  
      8982       8983       8994       8993       9103       9104       9115       9114  
      8983       8984       8995       8994       9104       9105       9116       9115  
      8984       8985       8996       8995       9105       9106       9117       9116  
      8985       8986       8997       8996       9106       9107       9118       9117  
      8986       8987       8998       8997       9107       9108       9119       9118  
      8988       8989       9000       8999       9109       9110       9121       9120  
      8989       8990       9001       9000       9110       9111       9122       9121  
      8990       8991       9002       9001       9111       9112       9123       9122  
      8991       8992       9003       9002       9112       9113       9124       9123  
      8992       8993       9004       9003       9113       9114       9125       9124  
      8993       8994       9005       9004       9114       9115       9126       9125  
      8994       8995       9006       9005       9115       9116       9127       9126  
      8995       8996       9007       9006       9116       9117       9128       9127  
      8996       8997       9008       9007       9117       9118       9129       9128  
      8997       8998       9009       9008       9118       9119       9130       9129  
      8999       9000       9011       9010       9120       9121       9132       9131  
      9000       9001       9012       9011       9121       9122       9133       9132  
      9001       9002       9013       9012       9122       9123       9134       9133  
      9002       9003       9014       9013       9123       9124       9135       9134  
      9003       9004       9015       9014       9124       9125       9136       9135  
      9004       9005       9016       9015       9125       9126       9137       9136  
      9005       9006       9017       9016       9126       9127       9138       9137  
      9006       9007       9018       9017       9127       9128       9139       9138  
      9007       9008       9019       9018       9128       9129       9140       9139  
      9008       9009       9020       9019       9129       9130       9141       9140  
      9010       9011       9022       9021       9131       9132       9143       9142  
      9011       9012       9023       9022       9132       9133       9144       9143  
      9012       9013       9024       9023       9133       9134       9145       9144  
      9013       9014       9025       9024       9134       9135       9146       9145  
      9014       9015       9026       9025       9135       9136       9147       9146  
      9015       9016       9027       9026       9136       9137       9148       9147  
      9016       9017       9028       9027       9137       9138       9149       9148  
      9017       9018       9029       9028       9138       9139       9150       9149  
      9018       9019       9030       9029       9139       9140       9151       9150  
      9019       9020       9031       9030       9140       9141       9152       9151  
      9021       9022       9033       9032       9142       9143       9154       9153  
      9022       9023       9034       9033       9143       9144       9155       9154  
      9023       9024       9035       9034       9144       9145       9156       9155  
      9024       9025       9036       9035       9145       9146       9157       9156  
      9025       9026       9037       9036       9146       9147       9158       9157  
      9026       9027       9038       9037       9147       9148       9159       9158  
      9027       9028       9039       9038       9148       9149       9160       9159  
      9028       9029       9040       9039       9149       9150       9161       9160  
      9029       9030       9041       9040       9150       9151       9162       9161  
      9030       9031       9042       9041       9151       9152       9163       9162  
      9032       9033       9044       9043       9153       9154       9165       9164  
      9033       9034       9045       9044       9154       9155       9166       9165  
      9034       9035       9046       9045       9155       9156       9167       9166  
      9035       9036       9047       9046       9156       9157       9168       9167  
      9036       9037       9048       9047       9157       9158       9169       9168  
      9037       9038       9049       9048       9158       9159       9170       9169  
      9038       9039       9050       9049       9159       9160       9171       9170  
      9039       9040       9051       9050       9160       9161       9172       9171  
      9040       9041       9052       9051       9161       9162       9173       9172  
      9041       9042       9053       9052       9162       9163       9174       9173  
      9043       9044       9055       9054       9164       9165       9176       9175  
      9044       9045       9056       9055       9165       9166       9177       9176  
      9045       9046       9057       9056       9166       9167       9178       9177  
      9046       9047       9058       9057       9167       9168       9179       9178  
      9047       9048       9059       9058       9168       9169       9180       9179  
      9048       9049       9060       9059       9169       9170       9181       9180  
      9049       9050       9061       9060       9170       9171       9182       9181  
      9050       9051       9062       9061       9171       9172       9183       9182  
      9051       9052       9063       9062       9172       9173       9184       9183  
      9052       9053       9064       9063       9173       9174       9185       9184  
      9054       9055       9066       9065       9175       9176       9187       9186  
      9055       9056       9067       9066       9176       9177       9188       9187  
      9056       9057       9068       9067       9177       9178       9189       9188  
      9057       9058       9069       9068       9178       9179       9190       9189  
      9058       9059       9070       9069       9179       9180       9191       9190  
      9059       9060       9071       9070       9180       9181       9192       9191  
      9060       9061       9072       9071       9181       9182       9193       9192  
      9061       9062       9073       9072       9182       9183       9194       9193  
      9062       9063       9074       9073       9183       9184       9195       9194  
      9063       9064       9075       9074       9184       9185       9196       9195  
      9076       9077       9088       9087       9197       9198       9209       9208  
      9077       9078       9089       9088       9198       9199       9210       9209  
      9078       9079       9090       9089       9199       9200       9211       9210  
      9079       9080       9091       9090       9200       9201       9212       9211  
      9080       9081       9092       9091       9201       9202       9213       9212  
      9081       9082       9093       9092       9202       9203       9214       9213  
      9082       9083       9094       9093       9203       9204       9215       9214  
      9083       9084       9095       9094       9204       9205       9216       9215  
      9084       9085       9096       9095       9205       9206       9217       9216  
      9085       9086       9097       9096       9206       9207       9218       9217  
      9087       9088       9099       9098       9208       9209       9220       9219  
      9088       9089       9100       9099       9209       9210       9221       9220  
      9089       9090       9101       9100       9210       9211       9222       9221  
      9090       9091       9102       9101       9211       9212       9223       9222  
      9091       9092       9103       9102       9212       9213       9224       9223  
      9092       9093       9104       9103       9213       9214       9225       9224  
      9093       9094       9105       9104       9214       9215       9226       9225  
      9094       9095       9106       9105       9215       9216       9227       9226  
      9095       9096       9107       9106       9216       9217       9228       9227  
      9096       9097       9108       9107       9217       9218       9229       9228  
      9098       9099       9110       9109       9219       9220       9231       9230  
      9099       9100       9111       9110       9220       9221       9232       9231  
      9100       9101       9112       9111       9221       9222       9233       9232  
      9101       9102       9113       9112       9222       9223       9234       9233  
      9102       9103       9114       9113       9223       9224       9235       9234  
      9103       9104       9115       9114       9224       9225       9236       9235  
      9104       9105       9116       9115       9225       9226       9237       9236  
      9105       9106       9117       9116       9226       9227       9238       9237  
      9106       9107       9118       9117       9227       9228       9239       9238  
      9107       9108       9119       9118       9228       9229       9240       9239  
      9109       9110       9121       9120       9230       9231       9242       9241  
      9110       9111       9122       9121       9231       9232       9243       9242  
      9111       9112       9123       9122       9232       9233       9244       9243  
      9112       9113       9124       9123       9233       9234       9245       9244  
      9113       9114       9125       9124       9234       9235       9246       9245  
      9114       9115       9126       9125       9235       9236       9247       9246  
      9115       9116       9127       9126       9236       9237       9248       9247  
      9116       9117       9128       9127       9237       9238       9249       9248  
      9117       9118       9129       9128       9238       9239       9250       9249  
      9118       9119       9130       9129       9239       9240       9251       9250  
      9120       9121       9132       9131       9241       9242       9253       9252  
      9121       9122       9133       9132       9242       9243       9254       9253  
      9122       9123       9134       9133       9243       9244       9255       9254  
      9123       9124       9135       9134       9244       9245       9256       9255  
      9124       9125       9136       9135       9245       9246       9257       9256  
      9125       9126       9137       9136       9246       9247       9258       9257  
      9126       9127       9138       9137       9247       9248       9259       9258  
      9127       9128       9139       9138       9248       9249       9260       9259  
      9128       9129       9140       9139       9249       9250       9261       9260  
      9129       9130       9141       9140       9250       9251       9262       9261  
      9131       9132       9143       9142       9252       9253       9264       9263  
      9132       9133       9144       9143       9253       9254       9265       9264  
      9133       9134       9145       9144       9254       9255       9266       9265  
      9134       9135       9146       9145       9255       9256       9267       9266  
      9135       9136       9147       9146       9256       9257       9268       9267  
      9136       9137       9148       9147       9257       9258       9269       9268  
      9137       9138       9149       9148       9258       9259       9270       9269  
      9138       9139       9150       9149       9259       9260       9271       9270  
      9139       9140       9151       9150       9260       9261       9272       9271  
      9140       9141       9152       9151       9261       9262       9273       9272  
      9142       9143       9154       9153       9263       9264       9275       9274  
      9143       9144       9155       9154       9264       9265       9276       9275  
      9144       9145       9156       9155       9265       9266       9277       9276  
      9145       9146       9157       9156       9266       9267       9278       9277  
      9146       9147       9158       9157       9267       9268       9279       9278  
      9147       9148       9159       9158       9268       9269       9280       9279  
      9148       9149       9160       9159       9269       9270       9281       9280  
      9149       9150       9161       9160       9270       9271       9282       9281  
      9150       9151       9162       9161       9271       9272       9283       9282  
      9151       9152       9163       9162       9272       9273       9284       9283  
      9153       9154       9165       9164       9274       9275       9286       9285  
      9154       9155       9166       9165       9275       9276       9287       9286  
      9155       9156       9167       9166       9276       9277       9288       9287  
      9156       9157       9168       9167       9277       9278       9289       9288  
      9157       9158       9169       9168       9278       9279       9290       9289  
      9158       9159       9170       9169       9279       9280       9291       9290  
      9159       9160       9171       9170       9280       9281       9292       9291  
      9160       9161       9172       9171       9281       9282       9293       9292  
      9161       9162       9173       9172       9282       9283       9294       9293  
      9162       9163       9174       9173       9283       9284       9295       9294  
      9164       9165       9176       9175       9285       9286       9297       9296  
      9165       9166       9177       9176       9286       9287       9298       9297  
      9166       9167       9178       9177       9287       9288       9299       9298  
      9167       9168       9179       9178       9288       9289       9300       9299  
      9168       9169       9180       9179       9289       9290       9301       9300  
      9169       9170       9181       9180       9290       9291       9302       9301  
      9170       9171       9182       9181       9291       9292       9303       9302  
      9171       9172       9183       9182       9292       9293       9304       9303  
      9172       9173       9184       9183       9293       9294       9305       9304  
      9173       9174       9185       9184       9294       9295       9306       9305  
      9175       9176       9187       9186       9296       9297       9308       9307  
      9176       9177       9188       9187       9297       9298       9309       9308  
      9177       9178       9189       9188       9298       9299       9310       9309  
      9178       9179       9190       9189       9299       9300       9311       9310  
      9179       9180       9191       9190       9300       9301       9312       9311  
      9180       9181       9192       9191       9301       9302       9313       9312  
      9181       9182       9193       9192       9302       9303       9314       9313  
      9182       9183       9194       9193       9303       9304       9315       9314  
      9183       9184       9195       9194       9304       9305       9316       9315  
      9184       9185       9196       9195       9305       9306       9317       9316  
      9197       9198       9209       9208       9318       9319       9330       9329  
      9198       9199       9210       9209       9319       9320       9331       9330  
      9199       9200       9211       9210       9320       9321       9332       9331  
      9200       9201       9212       9211       9321       9322       9333       9332  
      9201       9202       9213       9212       9322       9323       9334       9333  
      9202       9203       9214       9213       9323       9324       9335       9334  
      9203       9204       9215       9214       9324       9325       9336       9335  
      9204       9205       9216       9215       9325       9326       9337       9336  
      9205       9206       9217       9216       9326       9327       9338       9337  
      9206       9207       9218       9217       9327       9328       9339       9338  
      9208       9209       9220       9219       9329       9330       9341       9340  
      9209       9210       9221       9220       9330       9331       9342       9341  
      9210       9211       9222       9221       9331       9332       9343       9342  
      9211       9212       9223       9222       9332       9333       9344       9343  
      9212       9213       9224       9223       9333       9334       9345       9344  
      9213       9214       9225       9224       9334       9335       9346       9345  
      9214       9215       9226       9225       9335       9336       9347       9346  
      9215       9216       9227       9226       9336       9337       9348       9347  
      9216       9217       9228       9227       9337       9338       9349       9348  
      9217       9218       9229       9228       9338       9339       9350       9349  
      9219       9220       9231       9230       9340       9341       9352       9351  
      9220       9221       9232       9231       9341       9342       9353       9352  
      9221       9222       9233       9232       9342       9343       9354       9353  
      9222       9223       9234       9233       9343       9344       9355       9354  
      9223       9224       9235       9234       9344       9345       9356       9355  
      9224       9225       9236       9235       9345       9346       9357       9356  
      9225       9226       9237       9236       9346       9347       9358       9357  
      9226       9227       9238       9237       9347       9348       9359       9358  
      9227       9228       9239       9238       9348       9349       9360       9359  
      9228       9229       9240       9239       9349       9350       9361       9360  
      9230       9231       9242       9241       9351       9352       9363       9362  
      9231       9232       9243       9242       9352       9353       9364       9363  
      9232       9233       9244       9243       9353       9354       9365       9364  
      9233       9234       9245       9244       9354       9355       9366       9365  
      9234       9235       9246       9245       9355       9356       9367       9366  
      9235       9236       9247       9246       9356       9357       9368       9367  
      9236       9237       9248       9247       9357       9358       9369       9368  
      9237       9238       9249       9248       9358       9359       9370       9369  
      9238       9239       9250       9249       9359       9360       9371       9370  
      9239       9240       9251       9250       9360       9361       9372       9371  
      9241       9242       9253       9252       9362       9363       9374       9373  
      9242       9243       9254       9253       9363       9364       9375       9374  
      9243       9244       9255       9254       9364       9365       9376       9375  
      9244       9245       9256       9255       9365       9366       9377       9376  
      9245       9246       9257       9256       9366       9367       9378       9377  
      9246       9247       9258       9257       9367       9368       9379       9378  
      9247       9248       9259       9258       9368       9369       9380       9379  
      9248       9249       9260       9259       9369       9370       9381       9380  
      9249       9250       9261       9260       9370       9371       9382       9381  
      9250       9251       9262       9261       9371       9372       9383       9382  
      9252       9253       9264       9263       9373       9374       9385       9384  
      9253       9254       9265       9264       9374       9375       9386       9385  
      9254       9255       9266       9265       9375       9376       9387       9386  
      9255       9256       9267       9266       9376       9377       9388       9387  
      9256       9257       9268       9267       9377       9378       9389       9388  
      9257       9258       9269       9268       9378       9379       9390       9389  
      9258       9259       9270       9269       9379       9380       9391       9390  
      9259       9260       9271       9270       9380       9381       9392       9391  
      9260       9261       9272       9271       9381       9382       9393       9392  
      9261       9262       9273       9272       9382       9383       9394       9393  
      9263       9264       9275       9274       9384       9385       9396       9395  
      9264       9265       9276       9275       9385       9386       9397       9396  
      9265       9266       9277       9276       9386       9387       9398       9397  
      9266       9267       9278       9277       9387       9388       9399       9398  
      9267       9268       9279       9278       9388       9389       9400       9399  
      9268       9269       9280       9279       9389       9390       9401       9400  
      9269       9270       9281       9280       9390       9391       9402       9401  
      9270       9271       9282       9281       9391       9392       9403       9402  
      9271       9272       9283       9282       9392       9393       9404       9403  
      9272       9273       9284       9283       9393       9394       9405       9404  
      9274       9275       9286       9285       9395       9396       9407       9406  
      9275       9276       9287       9286       9396       9397       9408       9407  
      9276       9277       9288       9287       9397       9398       9409       9408  
      9277       9278       9289       9288       9398       9399       9410       9409  
      9278       9279       9290       9289       9399       9400       9411       9410  
      9279       9280       9291       9290       9400       9401       9412       9411  
      9280       9281       9292       9291       9401       9402       9413       9412  
      9281       9282       9293       9292       9402       9403       9414       9413  
      9282       9283       9294       9293       9403       9404       9415       9414  
      9283       9284       9295       9294       9404       9405       9416       9415  
      9285       9286       9297       9296       9406       9407       9418       9417  
      9286       9287       9298       9297       9407       9408       9419       9418  
      9287       9288       9299       9298       9408       9409       9420       9419  
      9288       9289       9300       9299       9409       9410       9421       9420  
      9289       9290       9301       9300       9410       9411       9422       9421  
      9290       9291       9302       9301       9411       9412       9423       9422  
      9291       9292       9303       9302       9412       9413       9424       9423  
      9292       9293       9304       9303       9413       9414       9425       9424  
      9293       9294       9305       9304       9414       9415       9426       9425  
      9294       9295       9306       9305       9415       9416       9427       9426  
      9296       9297       9308       9307       9417       9418       9429       9428  
      9297       9298       9309       9308       9418       9419       9430       9429  
      9298       9299       9310       9309       9419       9420       9431       9430  
      9299       9300       9311       9310       9420       9421       9432       9431  
      9300       9301       9312       9311       9421       9422       9433       9432  
      9301       9302       9313       9312       9422       9423       9434       9433  
      9302       9303       9314       9313       9423       9424       9435       9434  
      9303       9304       9315       9314       9424       9425       9436       9435  
      9304       9305       9316       9315       9425       9426       9437       9436  
      9305       9306       9317       9316       9426       9427       9438       9437  
      9318       9319       9330       9329       9439       9440       9451       9450  
      9319       9320       9331       9330       9440       9441       9452       9451  
      9320       9321       9332       9331       9441       9442       9453       9452  
      9321       9322       9333       9332       9442       9443       9454       9453  
      9322       9323       9334       9333       9443       9444       9455       9454  
      9323       9324       9335       9334       9444       9445       9456       9455  
      9324       9325       9336       9335       9445       9446       9457       9456  
      9325       9326       9337       9336       9446       9447       9458       9457  
      9326       9327       9338       9337       9447       9448       9459       9458  
      9327       9328       9339       9338       9448       9449       9460       9459  
      9329       9330       9341       9340       9450       9451       9462       9461  
      9330       9331       9342       9341       9451       9452       9463       9462  
      9331       9332       9343       9342       9452       9453       9464       9463  
      9332       9333       9344       9343       9453       9454       9465       9464  
      9333       9334       9345       9344       9454       9455       9466       9465  
      9334       9335       9346       9345       9455       9456       9467       9466  
      9335       9336       9347       9346       9456       9457       9468       9467  
      9336       9337       9348       9347       9457       9458       9469       9468  
      9337       9338       9349       9348       9458       9459       9470       9469  
      9338       9339       9350       9349       9459       9460       9471       9470  
      9340       9341       9352       9351       9461       9462       9473       9472  
      9341       9342       9353       9352       9462       9463       9474       9473  
      9342       9343       9354       9353       9463       9464       9475       9474  
      9343       9344       9355       9354       9464       9465       9476       9475  
      9344       9345       9356       9355       9465       9466       9477       9476  
      9345       9346       9357       9356       9466       9467       9478       9477  
      9346       9347       9358       9357       9467       9468       9479       9478  
      9347       9348       9359       9358       9468       9469       9480       9479  
      9348       9349       9360       9359       9469       9470       9481       9480  
      9349       9350       9361       9360       9470       9471       9482       9481  
      9351       9352       9363       9362       9472       9473       9484       9483  
      9352       9353       9364       9363       9473       9474       9485       9484  
      9353       9354       9365       9364       9474       9475       9486       9485  
      9354       9355       9366       9365       9475       9476       9487       9486  
      9355       9356       9367       9366       9476       9477       9488       9487  
      9356       9357       9368       9367       9477       9478       9489       9488  
      9357       9358       9369       9368       9478       9479       9490       9489  
      9358       9359       9370       9369       9479       9480       9491       9490  
      9359       9360       9371       9370       9480       9481       9492       9491  
      9360       9361       9372       9371       9481       9482       9493       9492  
      9362       9363       9374       9373       9483       9484       9495       9494  
      9363       9364       9375       9374       9484       9485       9496       9495  
      9364       9365       9376       9375       9485       9486       9497       9496  
      9365       9366       9377       9376       9486       9487       9498       9497  
      9366       9367       9378       9377       9487       9488       9499       9498  
      9367       9368       9379       9378       9488       9489       9500       9499  
      9368       9369       9380       9379       9489       9490       9501       9500  
      9369       9370       9381       9380       9490       9491       9502       9501  
      9370       9371       9382       9381       9491       9492       9503       9502  
      9371       9372       9383       9382       9492       9493       9504       9503  
      9373       9374       9385       9384       9494       9495       9506       9505  
      9374       9375       9386       9385       9495       9496       9507       9506  
      9375       9376       9387       9386       9496       9497       9508       9507  
      9376       9377       9388       9387       9497       9498       9509       9508  
      9377       9378       9389       9388       9498       9499       9510       9509  
      9378       9379       9390       9389       9499       9500       9511       9510  
      9379       9380       9391       9390       9500       9501       9512       9511  
      9380       9381       9392       9391       9501       9502       9513       9512  
      9381       9382       9393       9392       9502       9503       9514       9513  
      9382       9383       9394       9393       9503       9504       9515       9514  
      9384       9385       9396       9395       9505       9506       9517       9516  
      9385       9386       9397       9396       9506       9507       9518       9517  
      9386       9387       9398       9397       9507       9508       9519       9518  
      9387       9388       9399       9398       9508       9509       9520       9519  
      9388       9389       9400       9399       9509       9510       9521       9520  
      9389       9390       9401       9400       9510       9511       9522       9521  
      9390       9391       9402       9401       9511       9512       9523       9522  
      9391       9392       9403       9402       9512       9513       9524       9523  
      9392       9393       9404       9403       9513       9514       9525       9524  
      9393       9394       9405       9404       9514       9515       9526       9525  
      9395       9396       9407       9406       9516       9517       9528       9527  
      9396       9397       9408       9407       9517       9518       9529       9528  
      9397       9398       9409       9408       9518       9519       9530       9529  
      9398       9399       9410       9409       9519       9520       9531       9530  
      9399       9400       9411       9410       9520       9521       9532       9531  
      9400       9401       9412       9411       9521       9522       9533       9532  
      9401       9402       9413       9412       9522       9523       9534       9533  
      9402       9403       9414       9413       9523       9524       9535       9534  
      9403       9404       9415       9414       9524       9525       9536       9535  
      9404       9405       9416       9415       9525       9526       9537       9536  
      9406       9407       9418       9417       9527       9528       9539       9538  
      9407       9408       9419       9418       9528       9529       9540       9539  
      9408       9409       9420       9419       9529       9530       9541       9540  
      9409       9410       9421       9420       9530       9531       9542       9541  
      9410       9411       9422       9421       9531       9532       9543       9542  
      9411       9412       9423       9422       9532       9533       9544       9543  
      9412       9413       9424       9423       9533       9534       9545       9544  
      9413       9414       9425       9424       9534       9535       9546       9545  
      9414       9415       9426       9425       9535       9536       9547       9546  
      9415       9416       9427       9426       9536       9537       9548       9547  
      9417       9418       9429       9428       9538       9539       9550       9549  
      9418       9419       9430       9429       9539       9540       9551       9550  
      9419       9420       9431       9430       9540       9541       9552       9551  
      9420       9421       9432       9431       9541       9542       9553       9552  
      9421       9422       9433       9432       9542       9543       9554       9553  
      9422       9423       9434       9433       9543       9544       9555       9554  
      9423       9424       9435       9434       9544       9545       9556       9555  
      9424       9425       9436       9435       9545       9546       9557       9556  
      9425       9426       9437       9436       9546       9547       9558       9557  
      9426       9427       9438       9437       9547       9548       9559       9558  
      9439       9440       9451       9450       9560       9561       9572       9571  
      9440       9441       9452       9451       9561       9562       9573       9572  
      9441       9442       9453       9452       9562       9563       9574       9573  
      9442       9443       9454       9453       9563       9564       9575       9574  
      9443       9444       9455       9454       9564       9565       9576       9575  
      9444       9445       9456       9455       9565       9566       9577       9576  
      9445       9446       9457       9456       9566       9567       9578       9577  
      9446       9447       9458       9457       9567       9568       9579       9578  
      9447       9448       9459       9458       9568       9569       9580       9579  
      9448       9449       9460       9459       9569       9570       9581       9580  
      9450       9451       9462       9461       9571       9572       9583       9582  
      9451       9452       9463       9462       9572       9573       9584       9583  
      9452       9453       9464       9463       9573       9574       9585       9584  
      9453       9454       9465       9464       9574       9575       9586       9585  
      9454       9455       9466       9465       9575       9576       9587       9586  
      9455       9456       9467       9466       9576       9577       9588       9587  
      9456       9457       9468       9467       9577       9578       9589       9588  
      9457       9458       9469       9468       9578       9579       9590       9589  
      9458       9459       9470       9469       9579       9580       9591       9590  
      9459       9460       9471       9470       9580       9581       9592       9591  
      9461       9462       9473       9472       9582       9583       9594       9593  
      9462       9463       9474       9473       9583       9584       9595       9594  
      9463       9464       9475       9474       9584       9585       9596       9595  
      9464       9465       9476       9475       9585       9586       9597       9596  
      9465       9466       9477       9476       9586       9587       9598       9597  
      9466       9467       9478       9477       9587       9588       9599       9598  
      9467       9468       9479       9478       9588       9589       9600       9599  
      9468       9469       9480       9479       9589       9590       9601       9600  
      9469       9470       9481       9480       9590       9591       9602       9601  
      9470       9471       9482       9481       9591       9592       9603       9602  
      9472       9473       9484       9483       9593       9594       9605       9604  
      9473       9474       9485       9484       9594       9595       9606       9605  
      9474       9475       9486       9485       9595       9596       9607       9606  
      9475       9476       9487       9486       9596       9597       9608       9607  
      9476       9477       9488       9487       9597       9598       9609       9608  
      9477       9478       9489       9488       9598       9599       9610       9609  
      9478       9479       9490       9489       9599       9600       9611       9610  
      9479       9480       9491       9490       9600       9601       9612       9611  
      9480       9481       9492       9491       9601       9602       9613       9612  
      9481       9482       9493       9492       9602       9603       9614       9613  
      9483       9484       9495       9494       9604       9605       9616       9615  
      9484       9485       9496       9495       9605       9606       9617       9616  
      9485       9486       9497       9496       9606       9607       9618       9617  
      9486       9487       9498       9497       9607       9608       9619       9618  
      9487       9488       9499       9498       9608       9609       9620       9619  
      9488       9489       9500       9499       9609       9610       9621       9620  
      9489       9490       9501       9500       9610       9611       9622       9621  
      9490       9491       9502       9501       9611       9612       9623       9622  
      9491       9492       9503       9502       9612       9613       9624       9623  
      9492       9493       9504       9503       9613       9614       9625       9624  
      9494       9495       9506       9505       9615       9616       9627       9626  
      9495       9496       9507       9506       9616       9617       9628       9627  
      9496       9497       9508       9507       9617       9618       9629       9628  
      9497       9498       9509       9508       9618       9619       9630       9629  
      9498       9499       9510       9509       9619       9620       9631       9630  
      9499       9500       9511       9510       9620       9621       9632       9631  
      9500       9501       9512       9511       9621       9622       9633       9632  
      9501       9502       9513       9512       9622       9623       9634       9633  
      9502       9503       9514       9513       9623       9624       9635       9634  
      9503       9504       9515       9514       9624       9625       9636       9635  
      9505       9506       9517       9516       9626       9627       9638       9637  
      9506       9507       9518       9517       9627       9628       9639       9638  
      9507       9508       9519       9518       9628       9629       9640       9639  
      9508       9509       9520       9519       9629       9630       9641       9640  
      9509       9510       9521       9520       9630       9631       9642       9641  
      9510       9511       9522       9521       9631       9632       9643       9642  
      9511       9512       9523       9522       9632       9633       9644       9643  
      9512       9513       9524       9523       9633       9634       9645       9644  
      9513       9514       9525       9524       9634       9635       9646       9645  
      9514       9515       9526       9525       9635       9636       9647       9646  
      9516       9517       9528       9527       9637       9638       9649       9648  
      9517       9518       9529       9528       9638       9639       9650       9649  
      9518       9519       9530       9529       9639       9640       9651       9650  
      9519       9520       9531       9530       9640       9641       9652       9651  
      9520       9521       9532       9531       9641       9642       9653       9652  
      9521       9522       9533       9532       9642       9643       9654       9653  
      9522       9523       9534       9533       9643       9644       9655       9654  
      9523       9524       9535       9534       9644       9645       9656       9655  
      9524       9525       9536       9535       9645       9646       9657       9656  
      9525       9526       9537       9536       9646       9647       9658       9657  
      9527       9528       9539       9538       9648       9649       9660       9659  
      9528       9529       9540       9539       9649       9650       9661       9660  
      9529       9530       9541       9540       9650       9651       9662       9661  
      9530       9531       9542       9541       9651       9652       9663       9662  
      9531       9532       9543       9542       9652       9653       9664       9663  
      9532       9533       9544       9543       9653       9654       9665       9664  
      9533       9534       9545       9544       9654       9655       9666       9665  
      9534       9535       9546       9545       9655       9656       9667       9666  
      9535       9536       9547       9546       9656       9657       9668       9667  
      9536       9537       9548       9547       9657       9658       9669       9668  
      9538       9539       9550       9549       9659       9660       9671       9670  
      9539       9540       9551       9550       9660       9661       9672       9671  
      9540       9541       9552       9551       9661       9662       9673       9672  
      9541       9542       9553       9552       9662       9663       9674       9673  
      9542       9543       9554       9553       9663       9664       9675       9674  
      9543       9544       9555       9554       9664       9665       9676       9675  
      9544       9545       9556       9555       9665       9666       9677       9676  
      9545       9546       9557       9556       9666       9667       9678       9677  
      9546       9547       9558       9557       9667       9668       9679       9678  
      9547       9548       9559       9558       9668       9669       9680       9679  
      9560       9561       9572       9571       9681       9682       9693       9692  
      9561       9562       9573       9572       9682       9683       9694       9693  
      9562       9563       9574       9573       9683       9684       9695       9694  
      9563       9564       9575       9574       9684       9685       9696       9695  
      9564       9565       9576       9575       9685       9686       9697       9696  
      9565       9566       9577       9576       9686       9687       9698       9697  
      9566       9567       9578       9577       9687       9688       9699       9698  
      9567       9568       9579       9578       9688       9689       9700       9699  
      9568       9569       9580       9579       9689       9690       9701       9700  
      9569       9570       9581       9580       9690       9691       9702       9701  
      9571       9572       9583       9582       9692       9693       9704       9703  
      9572       9573       9584       9583       9693       9694       9705       9704  
      9573       9574       9585       9584       9694       9695       9706       9705  
      9574       9575       9586       9585       9695       9696       9707       9706  
      9575       9576       9587       9586       9696       9697       9708       9707  
      9576       9577       9588       9587       9697       9698       9709       9708  
      9577       9578       9589       9588       9698       9699       9710       9709  
      9578       9579       9590       9589       9699       9700       9711       9710  
      9579       9580       9591       9590       9700       9701       9712       9711  
      9580       9581       9592       9591       9701       9702       9713       9712  
      9582       9583       9594       9593       9703       9704       9715       9714  
      9583       9584       9595       9594       9704       9705       9716       9715  
      9584       9585       9596       9595       9705       9706       9717       9716  
      9585       9586       9597       9596       9706       9707       9718       9717  
      9586       9587       9598       9597       9707       9708       9719       9718  
      9587       9588       9599       9598       9708       9709       9720       9719  
      9588       9589       9600       9599       9709       9710       9721       9720  
      9589       9590       9601       9600       9710       9711       9722       9721  
      9590       9591       9602       9601       9711       9712       9723       9722  
      9591       9592       9603       9602       9712       9713       9724       9723  
      9593       9594       9605       9604       9714       9715       9726       9725  
      9594       9595       9606       9605       9715       9716       9727       9726  
      9595       9596       9607       9606       9716       9717       9728       9727  
      9596       9597       9608       9607       9717       9718       9729       9728  
      9597       9598       9609       9608       9718       9719       9730       9729  
      9598       9599       9610       9609       9719       9720       9731       9730  
      9599       9600       9611       9610       9720       9721       9732       9731  
      9600       9601       9612       9611       9721       9722       9733       9732  
      9601       9602       9613       9612       9722       9723       9734       9733  
      9602       9603       9614       9613       9723       9724       9735       9734  
      9604       9605       9616       9615       9725       9726       9737       9736  
      9605       9606       9617       9616       9726       9727       9738       9737  
      9606       9607       9618       9617       9727       9728       9739       9738  
      9607       9608       9619       9618       9728       9729       9740       9739  
      9608       9609       9620       9619       9729       9730       9741       9740  
      9609       9610       9621       9620       9730       9731       9742       9741  
      9610       9611       9622       9621       9731       9732       9743       9742  
      9611       9612       9623       9622       9732       9733       9744       9743  
      9612       9613       9624       9623       9733       9734       9745       9744  
      9613       9614       9625       9624       9734       9735       9746       9745  
      9615       9616       9627       9626       9736       9737       9748       9747  
      9616       9617       9628       9627       9737       9738       9749       9748  
      9617       9618       9629       9628       9738       9739       9750       9749  
      9618       9619       9630       9629       9739       9740       9751       9750  
      9619       9620       9631       9630       9740       9741       9752       9751  
      9620       9621       9632       9631       9741       9742       9753       9752  
      9621       9622       9633       9632       9742       9743       9754       9753  
      9622       9623       9634       9633       9743       9744       9755       9754  
      9623       9624       9635       9634       9744       9745       9756       9755  
      9624       9625       9636       9635       9745       9746       9757       9756  
      9626       9627       9638       9637       9747       9748       9759       9758  
      9627       9628       9639       9638       9748       9749       9760       9759  
      9628       9629       9640       9639       9749       9750       9761       9760  
      9629       9630       9641       9640       9750       9751       9762       9761  
      9630       9631       9642       9641       9751       9752       9763       9762  
      9631       9632       9643       9642       9752       9753       9764       9763  
      9632       9633       9644       9643       9753       9754       9765       9764  
      9633       9634       9645       9644       9754       9755       9766       9765  
      9634       9635       9646       9645       9755       9756       9767       9766  
      9635       9636       9647       9646       9756       9757       9768       9767  
      9637       9638       9649       9648       9758       9759       9770       9769  
      9638       9639       9650       9649       9759       9760       9771       9770  
      9639       9640       9651       9650       9760       9761       9772       9771  
      9640       9641       9652       9651       9761       9762       9773       9772  
      9641       9642       9653       9652       9762       9763       9774       9773  
      9642       9643       9654       9653       9763       9764       9775       9774  
      9643       9644       9655       9654       9764       9765       9776       9775  
      9644       9645       9656       9655       9765       9766       9777       9776  
      9645       9646       9657       9656       9766       9767       9778       9777  
      9646       9647       9658       9657       9767       9768       9779       9778  
      9648       9649       9660       9659       9769       9770       9781       9780  
      9649       9650       9661       9660       9770       9771       9782       9781  
      9650       9651       9662       9661       9771       9772       9783       9782  
      9651       9652       9663       9662       9772       9773       9784       9783  
      9652       9653       9664       9663       9773       9774       9785       9784  
      9653       9654       9665       9664       9774       9775       9786       9785  
      9654       9655       9666       9665       9775       9776       9787       9786  
      9655       9656       9667       9666       9776       9777       9788       9787  
      9656       9657       9668       9667       9777       9778       9789       9788  
      9657       9658       9669       9668       9778       9779       9790       9789  
      9659       9660       9671       9670       9780       9781       9792       9791  
      9660       9661       9672       9671       9781       9782       9793       9792  
      9661       9662       9673       9672       9782       9783       9794       9793  
      9662       9663       9674       9673       9783       9784       9795       9794  
      9663       9664       9675       9674       9784       9785       9796       9795  
      9664       9665       9676       9675       9785       9786       9797       9796  
      9665       9666       9677       9676       9786       9787       9798       9797  
      9666       9667       9678       9677       9787       9788       9799       9798  
      9667       9668       9679       9678       9788       9789       9800       9799  
      9668       9669       9680       9679       9789       9790       9801       9800  
      9681       9682       9693       9692       9802       9803       9814       9813  
      9682       9683       9694       9693       9803       9804       9815       9814  
      9683       9684       9695       9694       9804       9805       9816       9815  
      9684       9685       9696       9695       9805       9806       9817       9816  
      9685       9686       9697       9696       9806       9807       9818       9817  
      9686       9687       9698       9697       9807       9808       9819       9818  
      9687       9688       9699       9698       9808       9809       9820       9819  
      9688       9689       9700       9699       9809       9810       9821       9820  
      9689       9690       9701       9700       9810       9811       9822       9821  
      9690       9691       9702       9701       9811       9812       9823       9822  
      9692       9693       9704       9703       9813       9814       9825       9824  
      9693       9694       9705       9704       9814       9815       9826       9825  
      9694       9695       9706       9705       9815       9816       9827       9826  
      9695       9696       9707       9706       9816       9817       9828       9827  
      9696       9697       9708       9707       9817       9818       9829       9828  
      9697       9698       9709       9708       9818       9819       9830       9829  
      9698       9699       9710       9709       9819       9820       9831       9830  
      9699       9700       9711       9710       9820       9821       9832       9831  
      9700       9701       9712       9711       9821       9822       9833       9832  
      9701       9702       9713       9712       9822       9823       9834       9833  
      9703       9704       9715       9714       9824       9825       9836       9835  
      9704       9705       9716       9715       9825       9826       9837       9836  
      9705       9706       9717       9716       9826       9827       9838       9837  
      9706       9707       9718       9717       9827       9828       9839       9838  
      9707       9708       9719       9718       9828       9829       9840       9839  
      9708       9709       9720       9719       9829       9830       9841       9840  
      9709       9710       9721       9720       9830       9831       9842       9841  
      9710       9711       9722       9721       9831       9832       9843       9842  
      9711       9712       9723       9722       9832       9833       9844       9843  
      9712       9713       9724       9723       9833       9834       9845       9844  
      9714       9715       9726       9725       9835       9836       9847       9846  
      9715       9716       9727       9726       9836       9837       9848       9847  
      9716       9717       9728       9727       9837       9838       9849       9848  
      9717       9718       9729       9728       9838       9839       9850       9849  
      9718       9719       9730       9729       9839       9840       9851       9850  
      9719       9720       9731       9730       9840       9841       9852       9851  
      9720       9721       9732       9731       9841       9842       9853       9852  
      9721       9722       9733       9732       9842       9843       9854       9853  
      9722       9723       9734       9733       9843       9844       9855       9854  
      9723       9724       9735       9734       9844       9845       9856       9855  
      9725       9726       9737       9736       9846       9847       9858       9857  
      9726       9727       9738       9737       9847       9848       9859       9858  
      9727       9728       9739       9738       9848       9849       9860       9859  
      9728       9729       9740       9739       9849       9850       9861       9860  
      9729       9730       9741       9740       9850       9851       9862       9861  
      9730       9731       9742       9741       9851       9852       9863       9862  
      9731       9732       9743       9742       9852       9853       9864       9863  
      9732       9733       9744       9743       9853       9854       9865       9864  
      9733       9734       9745       9744       9854       9855       9866       9865  
      9734       9735       9746       9745       9855       9856       9867       9866  
      9736       9737       9748       9747       9857       9858       9869       9868  
      9737       9738       9749       9748       9858       9859       9870       9869  
      9738       9739       9750       9749       9859       9860       9871       9870  
      9739       9740       9751       9750       9860       9861       9872       9871  
      9740       9741       9752       9751       9861       9862       9873       9872  
      9741       9742       9753       9752       9862       9863       9874       9873  
      9742       9743       9754       9753       9863       9864       9875       9874  
      9743       9744       9755       9754       9864       9865       9876       9875  
      9744       9745       9756       9755       9865       9866       9877       9876  
      9745       9746       9757       9756       9866       9867       9878       9877  
      9747       9748       9759       9758       9868       9869       9880       9879  
      9748       9749       9760       9759       9869       9870       9881       9880  
      9749       9750       9761       9760       9870       9871       9882       9881  
      9750       9751       9762       9761       9871       9872       9883       9882  
      9751       9752       9763       9762       9872       9873       9884       9883  
      9752       9753       9764       9763       9873       9874       9885       9884  
      9753       9754       9765       9764       9874       9875       9886       9885  
      9754       9755       9766       9765       9875       9876       9887       9886  
      9755       9756       9767       9766       9876       9877       9888       9887  
      9756       9757       9768       9767       9877       9878       9889       9888  
      9758       9759       9770       9769       9879       9880       9891       9890  
      9759       9760       9771       9770       9880       9881       9892       9891  
      9760       9761       9772       9771       9881       9882       9893       9892  
      9761       9762       9773       9772       9882       9883       9894       9893  
      9762       9763       9774       9773       9883       9884       9895       9894  
      9763       9764       9775       9774       9884       9885       9896       9895  
      9764       9765       9776       9775       9885       9886       9897       9896  
      9765       9766       9777       9776       9886       9887       9898       9897  
      9766       9767       9778       9777       9887       9888       9899       9898  
      9767       9768       9779       9778       9888       9889       9900       9899  
      9769       9770       9781       9780       9890       9891       9902       9901  
      9770       9771       9782       9781       9891       9892       9903       9902  
      9771       9772       9783       9782       9892       9893       9904       9903  
      9772       9773       9784       9783       9893       9894       9905       9904  
      9773       9774       9785       9784       9894       9895       9906       9905  
      9774       9775       9786       9785       9895       9896       9907       9906  
      9775       9776       9787       9786       9896       9897       9908       9907  
      9776       9777       9788       9787       9897       9898       9909       9908  
      9777       9778       9789       9788       9898       9899       9910       9909  
      9778       9779       9790       9789       9899       9900       9911       9910  
      9780       9781       9792       9791       9901       9902       9913       9912  
      9781       9782       9793       9792       9902       9903       9914       9913  
      9782       9783       9794       9793       9903       9904       9915       9914  
      9783       9784       9795       9794       9904       9905       9916       9915  
      9784       9785       9796       9795       9905       9906       9917       9916  
      9785       9786       9797       9796       9906       9907       9918       9917  
      9786       9787       9798       9797       9907       9908       9919       9918  
      9787       9788       9799       9798       9908       9909       9920       9919  
      9788       9789       9800       9799       9909       9910       9921       9920  
      9789       9790       9801       9800       9910       9911       9922       9921  
      9802       9803       9814       9813       9923       9924       9935       9934  
      9803       9804       9815       9814       9924       9925       9936       9935  
      9804       9805       9816       9815       9925       9926       9937       9936  
      9805       9806       9817       9816       9926       9927       9938       9937  
      9806       9807       9818       9817       9927       9928       9939       9938  
      9807       9808       9819       9818       9928       9929       9940       9939  
      9808       9809       9820       9819       9929       9930       9941       9940  
      9809       9810       9821       9820       9930       9931       9942       9941  
      9810       9811       9822       9821       9931       9932       9943       9942  
      9811       9812       9823       9822       9932       9933       9944       9943  
      9813       9814       9825       9824       9934       9935       9946       9945  
      9814       9815       9826       9825       9935       9936       9947       9946  
      9815       9816       9827       9826       9936       9937       9948       9947  
      9816       9817       9828       9827       9937       9938       9949       9948  
      9817       9818       9829       9828       9938       9939       9950       9949  
      9818       9819       9830       9829       9939       9940       9951       9950  
      9819       9820       9831       9830       9940       9941       9952       9951  
      9820       9821       9832       9831       9941       9942       9953       9952  
      9821       9822       9833       9832       9942       9943       9954       9953  
      9822       9823       9834       9833       9943       9944       9955       9954  
      9824       9825       9836       9835       9945       9946       9957       9956  
      9825       9826       9837       9836       9946       9947       9958       9957  
      9826       9827       9838       9837       9947       9948       9959       9958  
      9827       9828       9839       9838       9948       9949       9960       9959  
      9828       9829       9840       9839       9949       9950       9961       9960  
      9829       9830       9841       9840       9950       9951       9962       9961  
      9830       9831       9842       9841       9951       9952       9963       9962  
      9831       9832       9843       9842       9952       9953       9964       9963  
      9832       9833       9844       9843       9953       9954       9965       9964  
      9833       9834       9845       9844       9954       9955       9966       9965  
      9835       9836       9847       9846       9956       9957       9968       9967  
      9836       9837       9848       9847       9957       9958       9969       9968  
      9837       9838       9849       9848       9958       9959       9970       9969  
      9838       9839       9850       9849       9959       9960       9971       9970  
      9839       9840       9851       9850       9960       9961       9972       9971  
      9840       9841       9852       9851       9961       9962       9973       9972  
      9841       9842       9853       9852       9962       9963       9974       9973  
      9842       9843       9854       9853       9963       9964       9975       9974  
      9843       9844       9855       9854       9964       9965       9976       9975  
      9844       9845       9856       9855       9965       9966       9977       9976  
      9846       9847       9858       9857       9967       9968       9979       9978  
      9847       9848       9859       9858       9968       9969       9980       9979  
      9848       9849       9860       9859       9969       9970       9981       9980  
      9849       9850       9861       9860       9970       9971       9982       9981  
      9850       9851       9862       9861       9971       9972       9983       9982  
      9851       9852       9863       9862       9972       9973       9984       9983  
      9852       9853       9864       9863       9973       9974       9985       9984  
      9853       9854       9865       9864       9974       9975       9986       9985  
      9854       9855       9866       9865       9975       9976       9987       9986  
      9855       9856       9867       9866       9976       9977       9988       9987  
      9857       9858       9869       9868       9978       9979       9990       9989  
      9858       9859       9870       9869       9979       9980       9991       9990  
      9859       9860       9871       9870       9980       9981       9992       9991  
      9860       9861       9872       9871       9981       9982       9993       9992  
      9861       9862       9873       9872       9982       9983       9994       9993  
      9862       9863       9874       9873       9983       9984       9995       9994  
      9863       9864       9875       9874       9984       9985       9996       9995  
      9864       9865       9876       9875       9985       9986       9997       9996  
      9865       9866       9877       9876       9986       9987       9998       9997  
      9866       9867       9878       9877       9987       9988       9999       9998  
      9868       9869       9880       9879       9989       9990      10001      10000  
      9869       9870       9881       9880       9990       9991      10002      10001  
      9870       9871       9882       9881       9991       9992      10003      10002  
      9871       9872       9883       9882       9992       9993      10004      10003  
      9872       9873       9884       9883       9993       9994      10005      10004  
      9873       9874       9885       9884       9994       9995      10006      10005  
      9874       9875       9886       9885       9995       9996      10007      10006  
      9875       9876       9887       9886       9996       9997      10008      10007  
      9876       9877       9888       9887       9997       9998      10009      10008  
      9877       9878       9889       9888       9998       9999      10010      10009  
      9879       9880       9891       9890      10000      10001      10012      10011  
      9880       9881       9892       9891      10001      10002      10013      10012  
      9881       9882       9893       9892      10002      10003      10014      10013  
      9882       9883       9894       9893      10003      10004      10015      10014  
      9883       9884       9895       9894      10004      10005      10016      10015  
      9884       9885       9896       9895      10005      10006      10017      10016  
      9885       9886       9897       9896      10006      10007      10018      10017  
      9886       9887       9898       9897      10007      10008      10019      10018  
      9887       9888       9899       9898      10008      10009      10020      10019  
      9888       9889       9900       9899      10009      10010      10021      10020  
      9890       9891       9902       9901      10011      10012      10023      10022  
      9891       9892       9903       9902      10012      10013      10024      10023  
      9892       9893       9904       9903      10013      10014      10025      10024  
      9893       9894       9905       9904      10014      10015      10026      10025  
      9894       9895       9906       9905      10015      10016      10027      10026  
      9895       9896       9907       9906      10016      10017      10028      10027  
      9896       9897       9908       9907      10017      10018      10029      10028  
      9897       9898       9909       9908      10018      10019      10030      10029  
      9898       9899       9910       9909      10019      10020      10031      10030  
      9899       9900       9911       9910      10020      10021      10032      10031  
      9901       9902       9913       9912      10022      10023      10034      10033  
      9902       9903       9914       9913      10023      10024      10035      10034  
      9903       9904       9915       9914      10024      10025      10036      10035  
      9904       9905       9916       9915      10025      10026      10037      10036  
      9905       9906       9917       9916      10026      10027      10038      10037  
      9906       9907       9918       9917      10027      10028      10039      10038  
      9907       9908       9919       9918      10028      10029      10040      10039  
      9908       9909       9920       9919      10029      10030      10041      10040  
      9909       9910       9921       9920      10030      10031      10042      10041  
      9910       9911       9922       9921      10031      10032      10043      10042  
      9923       9924       9935       9934      10044      10045      10056      10055  
      9924       9925       9936       9935      10045      10046      10057      10056  
      9925       9926       9937       9936      10046      10047      10058      10057  
      9926       9927       9938       9937      10047      10048      10059      10058  
      9927       9928       9939       9938      10048      10049      10060      10059  
      9928       9929       9940       9939      10049      10050      10061      10060  
      9929       9930       9941       9940      10050      10051      10062      10061  
      9930       9931       9942       9941      10051      10052      10063      10062  
      9931       9932       9943       9942      10052      10053      10064      10063  
      9932       9933       9944       9943      10053      10054      10065      10064  
      9934       9935       9946       9945      10055      10056      10067      10066  
      9935       9936       9947       9946      10056      10057      10068      10067  
      9936       9937       9948       9947      10057      10058      10069      10068  
      9937       9938       9949       9948      10058      10059      10070      10069  
      9938       9939       9950       9949      10059      10060      10071      10070  
      9939       9940       9951       9950      10060      10061      10072      10071  
      9940       9941       9952       9951      10061      10062      10073      10072  
      9941       9942       9953       9952      10062      10063      10074      10073  
      9942       9943       9954       9953      10063      10064      10075      10074  
      9943       9944       9955       9954      10064      10065      10076      10075  
      9945       9946       9957       9956      10066      10067      10078      10077  
      9946       9947       9958       9957      10067      10068      10079      10078  
      9947       9948       9959       9958      10068      10069      10080      10079  
      9948       9949       9960       9959      10069      10070      10081      10080  
      9949       9950       9961       9960      10070      10071      10082      10081  
      9950       9951       9962       9961      10071      10072      10083      10082  
      9951       9952       9963       9962      10072      10073      10084      10083  
      9952       9953       9964       9963      10073      10074      10085      10084  
      9953       9954       9965       9964      10074      10075      10086      10085  
      9954       9955       9966       9965      10075      10076      10087      10086  
      9956       9957       9968       9967      10077      10078      10089      10088  
      9957       9958       9969       9968      10078      10079      10090      10089  
      9958       9959       9970       9969      10079      10080      10091      10090  
      9959       9960       9971       9970      10080      10081      10092      10091  
      9960       9961       9972       9971      10081      10082      10093      10092  
      9961       9962       9973       9972      10082      10083      10094      10093  
      9962       9963       9974       9973      10083      10084      10095      10094  
      9963       9964       9975       9974      10084      10085      10096      10095  
      9964       9965       9976       9975      10085      10086      10097      10096  
      9965       9966       9977       9976      10086      10087      10098      10097  
      9967       9968       9979       9978      10088      10089      10100      10099  
      9968       9969       9980       9979      10089      10090      10101      10100  
      9969       9970       9981       9980      10090      10091      10102      10101  
      9970       9971       9982       9981      10091      10092      10103      10102  
      9971       9972       9983       9982      10092      10093      10104      10103  
      9972       9973       9984       9983      10093      10094      10105      10104  
      9973       9974       9985       9984      10094      10095      10106      10105  
      9974       9975       9986       9985      10095      10096      10107      10106  
      9975       9976       9987       9986      10096      10097      10108      10107  
      9976       9977       9988       9987      10097      10098      10109      10108  
      9978       9979       9990       9989      10099      10100      10111      10110  
      9979       9980       9991       9990      10100      10101      10112      10111  
      9980       9981       9992       9991      10101      10102      10113      10112  
      9981       9982       9993       9992      10102      10103      10114      10113  
      9982       9983       9994       9993      10103      10104      10115      10114  
      9983       9984       9995       9994      10104      10105      10116      10115  
      9984       9985       9996       9995      10105      10106      10117      10116  
      9985       9986       9997       9996      10106      10107      10118      10117  
      9986       9987       9998       9997      10107      10108      10119      10118  
      9987       9988       9999       9998      10108      10109      10120      10119  
      9989       9990      10001      10000      10110      10111      10122      10121  
      9990       9991      10002      10001      10111      10112      10123      10122  
      9991       9992      10003      10002      10112      10113      10124      10123  
      9992       9993      10004      10003      10113      10114      10125      10124  
      9993       9994      10005      10004      10114      10115      10126      10125  
      9994       9995      10006      10005      10115      10116      10127      10126  
      9995       9996      10007      10006      10116      10117      10128      10127  
      9996       9997      10008      10007      10117      10118      10129      10128  
      9997       9998      10009      10008      10118      10119      10130      10129  
      9998       9999      10010      10009      10119      10120      10131      10130  
     10000      10001      10012      10011      10121      10122      10133      10132  
     10001      10002      10013      10012      10122      10123      10134      10133  
     10002      10003      10014      10013      10123      10124      10135      10134  
     10003      10004      10015      10014      10124      10125      10136      10135  
     10004      10005      10016      10015      10125      10126      10137      10136  
     10005      10006      10017      10016      10126      10127      10138      10137  
     10006      10007      10018      10017      10127      10128      10139      10138  
     10007      10008      10019      10018      10128      10129      10140      10139  
     10008      10009      10020      10019      10129      10130      10141      10140  
     10009      10010      10021      10020      10130      10131      10142      10141  
     10011      10012      10023      10022      10132      10133      10144      10143  
     10012      10013      10024      10023      10133      10134      10145      10144  
     10013      10014      10025      10024      10134      10135      10146      10145  
     10014      10015      10026      10025      10135      10136      10147      10146  
     10015      10016      10027      10026      10136      10137      10148      10147  
     10016      10017      10028      10027      10137      10138      10149      10148  
     10017      10018      10029      10028      10138      10139      10150      10149  
     10018      10019      10030      10029      10139      10140      10151      10150  
     10019      10020      10031      10030      10140      10141      10152      10151  
     10020      10021      10032      10031      10141      10142      10153      10152  
     10022      10023      10034      10033      10143      10144      10155      10154  
     10023      10024      10035      10034      10144      10145      10156      10155  
     10024      10025      10036      10035      10145      10146      10157      10156  
     10025      10026      10037      10036      10146      10147      10158      10157  
     10026      10027      10038      10037      10147      10148      10159      10158  
     10027      10028      10039      10038      10148      10149      10160      10159  
     10028      10029      10040      10039      10149      10150      10161      10160  
     10029      10030      10041      10040      10150      10151      10162      10161  
     10030      10031      10042      10041      10151      10152      10163      10162  
     10031      10032      10043      10042      10152      10153      10164      10163  
     10044      10045      10056      10055      10165      10166      10177      10176  
     10045      10046      10057      10056      10166      10167      10178      10177  
     10046      10047      10058      10057      10167      10168      10179      10178  
     10047      10048      10059      10058      10168      10169      10180      10179  
     10048      10049      10060      10059      10169      10170      10181      10180  
     10049      10050      10061      10060      10170      10171      10182      10181  
     10050      10051      10062      10061      10171      10172      10183      10182  
     10051      10052      10063      10062      10172      10173      10184      10183  
     10052      10053      10064      10063      10173      10174      10185      10184  
     10053      10054      10065      10064      10174      10175      10186      10185  
     10055      10056      10067      10066      10176      10177      10188      10187  
     10056      10057      10068      10067      10177      10178      10189      10188  
     10057      10058      10069      10068      10178      10179      10190      10189  
     10058      10059      10070      10069      10179      10180      10191      10190  
     10059      10060      10071      10070      10180      10181      10192      10191  
     10060      10061      10072      10071      10181      10182      10193      10192  
     10061      10062      10073      10072      10182      10183      10194      10193  
     10062      10063      10074      10073      10183      10184      10195      10194  
     10063      10064      10075      10074      10184      10185      10196      10195  
     10064      10065      10076      10075      10185      10186      10197      10196  
     10066      10067      10078      10077      10187      10188      10199      10198  
     10067      10068      10079      10078      10188      10189      10200      10199  
     10068      10069      10080      10079      10189      10190      10201      10200  
     10069      10070      10081      10080      10190      10191      10202      10201  
     10070      10071      10082      10081      10191      10192      10203      10202  
     10071      10072      10083      10082      10192      10193      10204      10203  
     10072      10073      10084      10083      10193      10194      10205      10204  
     10073      10074      10085      10084      10194      10195      10206      10205  
     10074      10075      10086      10085      10195      10196      10207      10206  
     10075      10076      10087      10086      10196      10197      10208      10207  
     10077      10078      10089      10088      10198      10199      10210      10209  
     10078      10079      10090      10089      10199      10200      10211      10210  
     10079      10080      10091      10090      10200      10201      10212      10211  
     10080      10081      10092      10091      10201      10202      10213      10212  
     10081      10082      10093      10092      10202      10203      10214      10213  
     10082      10083      10094      10093      10203      10204      10215      10214  
     10083      10084      10095      10094      10204      10205      10216      10215  
     10084      10085      10096      10095      10205      10206      10217      10216  
     10085      10086      10097      10096      10206      10207      10218      10217  
     10086      10087      10098      10097      10207      10208      10219      10218  
     10088      10089      10100      10099      10209      10210      10221      10220  
     10089      10090      10101      10100      10210      10211      10222      10221  
     10090      10091      10102      10101      10211      10212      10223      10222  
     10091      10092      10103      10102      10212      10213      10224      10223  
     10092      10093      10104      10103      10213      10214      10225      10224  
     10093      10094      10105      10104      10214      10215      10226      10225  
     10094      10095      10106      10105      10215      10216      10227      10226  
     10095      10096      10107      10106      10216      10217      10228      10227  
     10096      10097      10108      10107      10217      10218      10229      10228  
     10097      10098      10109      10108      10218      10219      10230      10229  
     10099      10100      10111      10110      10220      10221      10232      10231  
     10100      10101      10112      10111      10221      10222      10233      10232  
     10101      10102      10113      10112      10222      10223      10234      10233  
     10102      10103      10114      10113      10223      10224      10235      10234  
     10103      10104      10115      10114      10224      10225      10236      10235  
     10104      10105      10116      10115      10225      10226      10237      10236  
     10105      10106      10117      10116      10226      10227      10238      10237  
     10106      10107      10118      10117      10227      10228      10239      10238  
     10107      10108      10119      10118      10228      10229      10240      10239  
     10108      10109      10120      10119      10229      10230      10241      10240  
     10110      10111      10122      10121      10231      10232      10243      10242  
     10111      10112      10123      10122      10232      10233      10244      10243  
     10112      10113      10124      10123      10233      10234      10245      10244  
     10113      10114      10125      10124      10234      10235      10246      10245  
     10114      10115      10126      10125      10235      10236      10247      10246  
     10115      10116      10127      10126      10236      10237      10248      10247  
     10116      10117      10128      10127      10237      10238      10249      10248  
     10117      10118      10129      10128      10238      10239      10250      10249  
     10118      10119      10130      10129      10239      10240      10251      10250  
     10119      10120      10131      10130      10240      10241      10252      10251  
     10121      10122      10133      10132      10242      10243      10254      10253  
     10122      10123      10134      10133      10243      10244      10255      10254  
     10123      10124      10135      10134      10244      10245      10256      10255  
     10124      10125      10136      10135      10245      10246      10257      10256  
     10125      10126      10137      10136      10246      10247      10258      10257  
     10126      10127      10138      10137      10247      10248      10259      10258  
     10127      10128      10139      10138      10248      10249      10260      10259  
     10128      10129      10140      10139      10249      10250      10261      10260  
     10129      10130      10141      10140      10250      10251      10262      10261  
     10130      10131      10142      10141      10251      10252      10263      10262  
     10132      10133      10144      10143      10253      10254      10265      10264  
     10133      10134      10145      10144      10254      10255      10266      10265  
     10134      10135      10146      10145      10255      10256      10267      10266  
     10135      10136      10147      10146      10256      10257      10268      10267  
     10136      10137      10148      10147      10257      10258      10269      10268  
     10137      10138      10149      10148      10258      10259      10270      10269  
     10138      10139      10150      10149      10259      10260      10271      10270  
     10139      10140      10151      10150      10260      10261      10272      10271  
     10140      10141      10152      10151      10261      10262      10273      10272  
     10141      10142      10153      10152      10262      10263      10274      10273  
     10143      10144      10155      10154      10264      10265      10276      10275  
     10144      10145      10156      10155      10265      10266      10277      10276  
     10145      10146      10157      10156      10266      10267      10278      10277  
     10146      10147      10158      10157      10267      10268      10279      10278  
     10147      10148      10159      10158      10268      10269      10280      10279  
     10148      10149      10160      10159      10269      10270      10281      10280  
     10149      10150      10161      10160      10270      10271      10282      10281  
     10150      10151      10162      10161      10271      10272      10283      10282  
     10151      10152      10163      10162      10272      10273      10284      10283  
     10152      10153      10164      10163      10273      10274      10285      10284  
     10165      10166      10177      10176      10286      10287      10298      10297  
     10166      10167      10178      10177      10287      10288      10299      10298  
     10167      10168      10179      10178      10288      10289      10300      10299  
     10168      10169      10180      10179      10289      10290      10301      10300  
     10169      10170      10181      10180      10290      10291      10302      10301  
     10170      10171      10182      10181      10291      10292      10303      10302  
     10171      10172      10183      10182      10292      10293      10304      10303  
     10172      10173      10184      10183      10293      10294      10305      10304  
     10173      10174      10185      10184      10294      10295      10306      10305  
     10174      10175      10186      10185      10295      10296      10307      10306  
     10176      10177      10188      10187      10297      10298      10309      10308  
     10177      10178      10189      10188      10298      10299      10310      10309  
     10178      10179      10190      10189      10299      10300      10311      10310  
     10179      10180      10191      10190      10300      10301      10312      10311  
     10180      10181      10192      10191      10301      10302      10313      10312  
     10181      10182      10193      10192      10302      10303      10314      10313  
     10182      10183      10194      10193      10303      10304      10315      10314  
     10183      10184      10195      10194      10304      10305      10316      10315  
     10184      10185      10196      10195      10305      10306      10317      10316  
     10185      10186      10197      10196      10306      10307      10318      10317  
     10187      10188      10199      10198      10308      10309      10320      10319  
     10188      10189      10200      10199      10309      10310      10321      10320  
     10189      10190      10201      10200      10310      10311      10322      10321  
     10190      10191      10202      10201      10311      10312      10323      10322  
     10191      10192      10203      10202      10312      10313      10324      10323  
     10192      10193      10204      10203      10313      10314      10325      10324  
     10193      10194      10205      10204      10314      10315      10326      10325  
     10194      10195      10206      10205      10315      10316      10327      10326  
     10195      10196      10207      10206      10316      10317      10328      10327  
     10196      10197      10208      10207      10317      10318      10329      10328  
     10198      10199      10210      10209      10319      10320      10331      10330  
     10199      10200      10211      10210      10320      10321      10332      10331  
     10200      10201      10212      10211      10321      10322      10333      10332  
     10201      10202      10213      10212      10322      10323      10334      10333  
     10202      10203      10214      10213      10323      10324      10335      10334  
     10203      10204      10215      10214      10324      10325      10336      10335  
     10204      10205      10216      10215      10325      10326      10337      10336  
     10205      10206      10217      10216      10326      10327      10338      10337  
     10206      10207      10218      10217      10327      10328      10339      10338  
     10207      10208      10219      10218      10328      10329      10340      10339  
     10209      10210      10221      10220      10330      10331      10342      10341  
     10210      10211      10222      10221      10331      10332      10343      10342  
     10211      10212      10223      10222      10332      10333      10344      10343  
     10212      10213      10224      10223      10333      10334      10345      10344  
     10213      10214      10225      10224      10334      10335      10346      10345  
     10214      10215      10226      10225      10335      10336      10347      10346  
     10215      10216      10227      10226      10336      10337      10348      10347  
     10216      10217      10228      10227      10337      10338      10349      10348  
     10217      10218      10229      10228      10338      10339      10350      10349  
     10218      10219      10230      10229      10339      10340      10351      10350  
     10220      10221      10232      10231      10341      10342      10353      10352  
     10221      10222      10233      10232      10342      10343      10354      10353  
     10222      10223      10234      10233      10343      10344      10355      10354  
     10223      10224      10235      10234      10344      10345      10356      10355  
     10224      10225      10236      10235      10345      10346      10357      10356  
     10225      10226      10237      10236      10346      10347      10358      10357  
     10226      10227      10238      10237      10347      10348      10359      10358  
     10227      10228      10239      10238      10348      10349      10360      10359  
     10228      10229      10240      10239      10349      10350      10361      10360  
     10229      10230      10241      10240      10350      10351      10362      10361  
     10231      10232      10243      10242      10352      10353      10364      10363  
     10232      10233      10244      10243      10353      10354      10365      10364  
     10233      10234      10245      10244      10354      10355      10366      10365  
     10234      10235      10246      10245      10355      10356      10367      10366  
     10235      10236      10247      10246      10356      10357      10368      10367  
     10236      10237      10248      10247      10357      10358      10369      10368  
     10237      10238      10249      10248      10358      10359      10370      10369  
     10238      10239      10250      10249      10359      10360      10371      10370  
     10239      10240      10251      10250      10360      10361      10372      10371  
     10240      10241      10252      10251      10361      10362      10373      10372  
     10242      10243      10254      10253      10363      10364      10375      10374  
     10243      10244      10255      10254      10364      10365      10376      10375  
     10244      10245      10256      10255      10365      10366      10377      10376  
     10245      10246      10257      10256      10366      10367      10378      10377  
     10246      10247      10258      10257      10367      10368      10379      10378  
     10247      10248      10259      10258      10368      10369      10380      10379  
     10248      10249      10260      10259      10369      10370      10381      10380  
     10249      10250      10261      10260      10370      10371      10382      10381  
     10250      10251      10262      10261      10371      10372      10383      10382  
     10251      10252      10263      10262      10372      10373      10384      10383  
     10253      10254      10265      10264      10374      10375      10386      10385  
     10254      10255      10266      10265      10375      10376      10387      10386  
     10255      10256      10267      10266      10376      10377      10388      10387  
     10256      10257      10268      10267      10377      10378      10389      10388  
     10257      10258      10269      10268      10378      10379      10390      10389  
     10258      10259      10270      10269      10379      10380      10391      10390  
     10259      10260      10271      10270      10380      10381      10392      10391  
     10260      10261      10272      10271      10381      10382      10393      10392  
     10261      10262      10273      10272      10382      10383      10394      10393  
     10262      10263      10274      10273      10383      10384      10395      10394  
     10264      10265      10276      10275      10385      10386      10397      10396  
     10265      10266      10277      10276      10386      10387      10398      10397  
     10266      10267      10278      10277      10387      10388      10399      10398  
     10267      10268      10279      10278      10388      10389      10400      10399  
     10268      10269      10280      10279      10389      10390      10401      10400  
     10269      10270      10281      10280      10390      10391      10402      10401  
     10270      10271      10282      10281      10391      10392      10403      10402  
     10271      10272      10283      10282      10392      10393      10404      10403  
     10272      10273      10284      10283      10393      10394      10405      10404  
     10273      10274      10285      10284      10394      10395      10406      10405  
     10286      10287      10298      10297      10407      10408      10419      10418  
     10287      10288      10299      10298      10408      10409      10420      10419  
     10288      10289      10300      10299      10409      10410      10421      10420  
     10289      10290      10301      10300      10410      10411      10422      10421  
     10290      10291      10302      10301      10411      10412      10423      10422  
     10291      10292      10303      10302      10412      10413      10424      10423  
     10292      10293      10304      10303      10413      10414      10425      10424  
     10293      10294      10305      10304      10414      10415      10426      10425  
     10294      10295      10306      10305      10415      10416      10427      10426  
     10295      10296      10307      10306      10416      10417      10428      10427  
     10297      10298      10309      10308      10418      10419      10430      10429  
     10298      10299      10310      10309      10419      10420      10431      10430  
     10299      10300      10311      10310      10420      10421      10432      10431  
     10300      10301      10312      10311      10421      10422      10433      10432  
     10301      10302      10313      10312      10422      10423      10434      10433  
     10302      10303      10314      10313      10423      10424      10435      10434  
     10303      10304      10315      10314      10424      10425      10436      10435  
     10304      10305      10316      10315      10425      10426      10437      10436  
     10305      10306      10317      10316      10426      10427      10438      10437  
     10306      10307      10318      10317      10427      10428      10439      10438  
     10308      10309      10320      10319      10429      10430      10441      10440  
     10309      10310      10321      10320      10430      10431      10442      10441  
     10310      10311      10322      10321      10431      10432      10443      10442  
     10311      10312      10323      10322      10432      10433      10444      10443  
     10312      10313      10324      10323      10433      10434      10445      10444  
     10313      10314      10325      10324      10434      10435      10446      10445  
     10314      10315      10326      10325      10435      10436      10447      10446  
     10315      10316      10327      10326      10436      10437      10448      10447  
     10316      10317      10328      10327      10437      10438      10449      10448  
     10317      10318      10329      10328      10438      10439      10450      10449  
     10319      10320      10331      10330      10440      10441      10452      10451  
     10320      10321      10332      10331      10441      10442      10453      10452  
     10321      10322      10333      10332      10442      10443      10454      10453  
     10322      10323      10334      10333      10443      10444      10455      10454  
     10323      10324      10335      10334      10444      10445      10456      10455  
     10324      10325      10336      10335      10445      10446      10457      10456  
     10325      10326      10337      10336      10446      10447      10458      10457  
     10326      10327      10338      10337      10447      10448      10459      10458  
     10327      10328      10339      10338      10448      10449      10460      10459  
     10328      10329      10340      10339      10449      10450      10461      10460  
     10330      10331      10342      10341      10451      10452      10463      10462  
     10331      10332      10343      10342      10452      10453      10464      10463  
     10332      10333      10344      10343      10453      10454      10465      10464  
     10333      10334      10345      10344      10454      10455      10466      10465  
     10334      10335      10346      10345      10455      10456      10467      10466  
     10335      10336      10347      10346      10456      10457      10468      10467  
     10336      10337      10348      10347      10457      10458      10469      10468  
     10337      10338      10349      10348      10458      10459      10470      10469  
     10338      10339      10350      10349      10459      10460      10471      10470  
     10339      10340      10351      10350      10460      10461      10472      10471  
     10341      10342      10353      10352      10462      10463      10474      10473  
     10342      10343      10354      10353      10463      10464      10475      10474  
     10343      10344      10355      10354      10464      10465      10476      10475  
     10344      10345      10356      10355      10465      10466      10477      10476  
     10345      10346      10357      10356      10466      10467      10478      10477  
     10346      10347      10358      10357      10467      10468      10479      10478  
     10347      10348      10359      10358      10468      10469      10480      10479  
     10348      10349      10360      10359      10469      10470      10481      10480  
     10349      10350      10361      10360      10470      10471      10482      10481  
     10350      10351      10362      10361      10471      10472      10483      10482  
     10352      10353      10364      10363      10473      10474      10485      10484  
     10353      10354      10365      10364      10474      10475      10486      10485  
     10354      10355      10366      10365      10475      10476      10487      10486  
     10355      10356      10367      10366      10476      10477      10488      10487  
     10356      10357      10368      10367      10477      10478      10489      10488  
     10357      10358      10369      10368      10478      10479      10490      10489  
     10358      10359      10370      10369      10479      10480      10491      10490  
     10359      10360      10371      10370      10480      10481      10492      10491  
     10360      10361      10372      10371      10481      10482      10493      10492  
     10361      10362      10373      10372      10482      10483      10494      10493  
     10363      10364      10375      10374      10484      10485      10496      10495  
     10364      10365      10376      10375      10485      10486      10497      10496  
     10365      10366      10377      10376      10486      10487      10498      10497  
     10366      10367      10378      10377      10487      10488      10499      10498  
     10367      10368      10379      10378      10488      10489      10500      10499  
     10368      10369      10380      10379      10489      10490      10501      10500  
     10369      10370      10381      10380      10490      10491      10502      10501  
     10370      10371      10382      10381      10491      10492      10503      10502  
     10371      10372      10383      10382      10492      10493      10504      10503  
     10372      10373      10384      10383      10493      10494      10505      10504  
     10374      10375      10386      10385      10495      10496      10507      10506  
     10375      10376      10387      10386      10496      10497      10508      10507  
     10376      10377      10388      10387      10497      10498      10509      10508  
     10377      10378      10389      10388      10498      10499      10510      10509  
     10378      10379      10390      10389      10499      10500      10511      10510  
     10379      10380      10391      10390      10500      10501      10512      10511  
     10380      10381      10392      10391      10501      10502      10513      10512  
     10381      10382      10393      10392      10502      10503      10514      10513  
     10382      10383      10394      10393      10503      10504      10515      10514  
     10383      10384      10395      10394      10504      10505      10516      10515  
     10385      10386      10397      10396      10506      10507      10518      10517  
     10386      10387      10398      10397      10507      10508      10519      10518  
     10387      10388      10399      10398      10508      10509      10520      10519  
     10388      10389      10400      10399      10509      10510      10521      10520  
     10389      10390      10401      10400      10510      10511      10522      10521  
     10390      10391      10402      10401      10511      10512      10523      10522  
     10391      10392      10403      10402      10512      10513      10524      10523  
     10392      10393      10404      10403      10513      10514      10525      10524  
     10393      10394      10405      10404      10514      10515      10526      10525  
     10394      10395      10406      10405      10515      10516      10527      10526  
     10407      10408      10419      10418      10528      10529      10540      10539  
     10408      10409      10420      10419      10529      10530      10541      10540  
     10409      10410      10421      10420      10530      10531      10542      10541  
     10410      10411      10422      10421      10531      10532      10543      10542  
     10411      10412      10423      10422      10532      10533      10544      10543  
     10412      10413      10424      10423      10533      10534      10545      10544  
     10413      10414      10425      10424      10534      10535      10546      10545  
     10414      10415      10426      10425      10535      10536      10547      10546  
     10415      10416      10427      10426      10536      10537      10548      10547  
     10416      10417      10428      10427      10537      10538      10549      10548  
     10418      10419      10430      10429      10539      10540      10551      10550  
     10419      10420      10431      10430      10540      10541      10552      10551  
     10420      10421      10432      10431      10541      10542      10553      10552  
     10421      10422      10433      10432      10542      10543      10554      10553  
     10422      10423      10434      10433      10543      10544      10555      10554  
     10423      10424      10435      10434      10544      10545      10556      10555  
     10424      10425      10436      10435      10545      10546      10557      10556  
     10425      10426      10437      10436      10546      10547      10558      10557  
     10426      10427      10438      10437      10547      10548      10559      10558  
     10427      10428      10439      10438      10548      10549      10560      10559  
     10429      10430      10441      10440      10550      10551      10562      10561  
     10430      10431      10442      10441      10551      10552      10563      10562  
     10431      10432      10443      10442      10552      10553      10564      10563  
     10432      10433      10444      10443      10553      10554      10565      10564  
     10433      10434      10445      10444      10554      10555      10566      10565  
     10434      10435      10446      10445      10555      10556      10567      10566  
     10435      10436      10447      10446      10556      10557      10568      10567  
     10436      10437      10448      10447      10557      10558      10569      10568  
     10437      10438      10449      10448      10558      10559      10570      10569  
     10438      10439      10450      10449      10559      10560      10571      10570  
     10440      10441      10452      10451      10561      10562      10573      10572  
     10441      10442      10453      10452      10562      10563      10574      10573  
     10442      10443      10454      10453      10563      10564      10575      10574  
     10443      10444      10455      10454      10564      10565      10576      10575  
     10444      10445      10456      10455      10565      10566      10577      10576  
     10445      10446      10457      10456      10566      10567      10578      10577  
     10446      10447      10458      10457      10567      10568      10579      10578  
     10447      10448      10459      10458      10568      10569      10580      10579  
     10448      10449      10460      10459      10569      10570      10581      10580  
     10449      10450      10461      10460      10570      10571      10582      10581  
     10451      10452      10463      10462      10572      10573      10584      10583  
     10452      10453      10464      10463      10573      10574      10585      10584  
     10453      10454      10465      10464      10574      10575      10586      10585  
     10454      10455      10466      10465      10575      10576      10587      10586  
     10455      10456      10467      10466      10576      10577      10588      10587  
     10456      10457      10468      10467      10577      10578      10589      10588  
     10457      10458      10469      10468      10578      10579      10590      10589  
     10458      10459      10470      10469      10579      10580      10591      10590  
     10459      10460      10471      10470      10580      10581      10592      10591  
     10460      10461      10472      10471      10581      10582      10593      10592  
     10462      10463      10474      10473      10583      10584      10595      10594  
     10463      10464      10475      10474      10584      10585      10596      10595  
     10464      10465      10476      10475      10585      10586      10597      10596  
     10465      10466      10477      10476      10586      10587      10598      10597  
     10466      10467      10478      10477      10587      10588      10599      10598  
     10467      10468      10479      10478      10588      10589      10600      10599  
     10468      10469      10480      10479      10589      10590      10601      10600  
     10469      10470      10481      10480      10590      10591      10602      10601  
     10470      10471      10482      10481      10591      10592      10603      10602  
     10471      10472      10483      10482      10592      10593      10604      10603  
     10473      10474      10485      10484      10594      10595      10606      10605  
     10474      10475      10486      10485      10595      10596      10607      10606  
     10475      10476      10487      10486      10596      10597      10608      10607  
     10476      10477      10488      10487      10597      10598      10609      10608  
     10477      10478      10489      10488      10598      10599      10610      10609  
     10478      10479      10490      10489      10599      10600      10611      10610  
     10479      10480      10491      10490      10600      10601      10612      10611  
     10480      10481      10492      10491      10601      10602      10613      10612  
     10481      10482      10493      10492      10602      10603      10614      10613  
     10482      10483      10494      10493      10603      10604      10615      10614  
     10484      10485      10496      10495      10605      10606      10617      10616  
     10485      10486      10497      10496      10606      10607      10618      10617  
     10486      10487      10498      10497      10607      10608      10619      10618  
     10487      10488      10499      10498      10608      10609      10620      10619  
     10488      10489      10500      10499      10609      10610      10621      10620  
     10489      10490      10501      10500      10610      10611      10622      10621  
     10490      10491      10502      10501      10611      10612      10623      10622  
     10491      10492      10503      10502      10612      10613      10624      10623  
     10492      10493      10504      10503      10613      10614      10625      10624  
     10493      10494      10505      10504      10614      10615      10626      10625  
     10495      10496      10507      10506      10616      10617      10628      10627  
     10496      10497      10508      10507      10617      10618      10629      10628  
     10497      10498      10509      10508      10618      10619      10630      10629  
     10498      10499      10510      10509      10619      10620      10631      10630  
     10499      10500      10511      10510      10620      10621      10632      10631  
     10500      10501      10512      10511      10621      10622      10633      10632  
     10501      10502      10513      10512      10622      10623      10634      10633  
     10502      10503      10514      10513      10623      10624      10635      10634  
     10503      10504      10515      10514      10624      10625      10636      10635  
     10504      10505      10516      10515      10625      10626      10637      10636  
     10506      10507      10518      10517      10627      10628      10639      10638  
     10507      10508      10519      10518      10628      10629      10640      10639  
     10508      10509      10520      10519      10629      10630      10641      10640  
     10509      10510      10521      10520      10630      10631      10642      10641  
     10510      10511      10522      10521      10631      10632      10643      10642  
     10511      10512      10523      10522      10632      10633      10644      10643  
     10512      10513      10524      10523      10633      10634      10645      10644  
     10513      10514      10525      10524      10634      10635      10646      10645  
     10514      10515      10526      10525      10635      10636      10647      10646  
     10515      10516      10527      10526      10636      10637      10648      10647  
     10528      10529      10540      10539      10649      10650      10661      10660  
     10529      10530      10541      10540      10650      10651      10662      10661  
     10530      10531      10542      10541      10651      10652      10663      10662  
     10531      10532      10543      10542      10652      10653      10664      10663  
     10532      10533      10544      10543      10653      10654      10665      10664  
     10533      10534      10545      10544      10654      10655      10666      10665  
     10534      10535      10546      10545      10655      10656      10667      10666  
     10535      10536      10547      10546      10656      10657      10668      10667  
     10536      10537      10548      10547      10657      10658      10669      10668  
     10537      10538      10549      10548      10658      10659      10670      10669  
     10539      10540      10551      10550      10660      10661      10672      10671  
     10540      10541      10552      10551      10661      10662      10673      10672  
     10541      10542      10553      10552      10662      10663      10674      10673  
     10542      10543      10554      10553      10663      10664      10675      10674  
     10543      10544      10555      10554      10664      10665      10676      10675  
     10544      10545      10556      10555      10665      10666      10677      10676  
     10545      10546      10557      10556      10666      10667      10678      10677  
     10546      10547      10558      10557      10667      10668      10679      10678  
     10547      10548      10559      10558      10668      10669      10680      10679  
     10548      10549      10560      10559      10669      10670      10681      10680  
     10550      10551      10562      10561      10671      10672      10683      10682  
     10551      10552      10563      10562      10672      10673      10684      10683  
     10552      10553      10564      10563      10673      10674      10685      10684  
     10553      10554      10565      10564      10674      10675      10686      10685  
     10554      10555      10566      10565      10675      10676      10687      10686  
     10555      10556      10567      10566      10676      10677      10688      10687  
     10556      10557      10568      10567      10677      10678      10689      10688  
     10557      10558      10569      10568      10678      10679      10690      10689  
     10558      10559      10570      10569      10679      10680      10691      10690  
     10559      10560      10571      10570      10680      10681      10692      10691  
     10561      10562      10573      10572      10682      10683      10694      10693  
     10562      10563      10574      10573      10683      10684      10695      10694  
     10563      10564      10575      10574      10684      10685      10696      10695  
     10564      10565      10576      10575      10685      10686      10697      10696  
     10565      10566      10577      10576      10686      10687      10698      10697  
     10566      10567      10578      10577      10687      10688      10699      10698  
     10567      10568      10579      10578      10688      10689      10700      10699  
     10568      10569      10580      10579      10689      10690      10701      10700  
     10569      10570      10581      10580      10690      10691      10702      10701  
     10570      10571      10582      10581      10691      10692      10703      10702  
     10572      10573      10584      10583      10693      10694      10705      10704  
     10573      10574      10585      10584      10694      10695      10706      10705  
     10574      10575      10586      10585      10695      10696      10707      10706  
     10575      10576      10587      10586      10696      10697      10708      10707  
     10576      10577      10588      10587      10697      10698      10709      10708  
     10577      10578      10589      10588      10698      10699      10710      10709  
     10578      10579      10590      10589      10699      10700      10711      10710  
     10579      10580      10591      10590      10700      10701      10712      10711  
     10580      10581      10592      10591      10701      10702      10713      10712  
     10581      10582      10593      10592      10702      10703      10714      10713  
     10583      10584      10595      10594      10704      10705      10716      10715  
     10584      10585      10596      10595      10705      10706      10717      10716  
     10585      10586      10597      10596      10706      10707      10718      10717  
     10586      10587      10598      10597      10707      10708      10719      10718  
     10587      10588      10599      10598      10708      10709      10720      10719  
     10588      10589      10600      10599      10709      10710      10721      10720  
     10589      10590      10601      10600      10710      10711      10722      10721  
     10590      10591      10602      10601      10711      10712      10723      10722  
     10591      10592      10603      10602      10712      10713      10724      10723  
     10592      10593      10604      10603      10713      10714      10725      10724  
     10594      10595      10606      10605      10715      10716      10727      10726  
     10595      10596      10607      10606      10716      10717      10728      10727  
     10596      10597      10608      10607      10717      10718      10729      10728  
     10597      10598      10609      10608      10718      10719      10730      10729  
     10598      10599      10610      10609      10719      10720      10731      10730  
     10599      10600      10611      10610      10720      10721      10732      10731  
     10600      10601      10612      10611      10721      10722      10733      10732  
     10601      10602      10613      10612      10722      10723      10734      10733  
     10602      10603      10614      10613      10723      10724      10735      10734  
     10603      10604      10615      10614      10724      10725      10736      10735  
     10605      10606      10617      10616      10726      10727      10738      10737  
     10606      10607      10618      10617      10727      10728      10739      10738  
     10607      10608      10619      10618      10728      10729      10740      10739  
     10608      10609      10620      10619      10729      10730      10741      10740  
     10609      10610      10621      10620      10730      10731      10742      10741  
     10610      10611      10622      10621      10731      10732      10743      10742  
     10611      10612      10623      10622      10732      10733      10744      10743  
     10612      10613      10624      10623      10733      10734      10745      10744  
     10613      10614      10625      10624      10734      10735      10746      10745  
     10614      10615      10626      10625      10735      10736      10747      10746  
     10616      10617      10628      10627      10737      10738      10749      10748  
     10617      10618      10629      10628      10738      10739      10750      10749  
     10618      10619      10630      10629      10739      10740      10751      10750  
     10619      10620      10631      10630      10740      10741      10752      10751  
     10620      10621      10632      10631      10741      10742      10753      10752  
     10621      10622      10633      10632      10742      10743      10754      10753  
     10622      10623      10634      10633      10743      10744      10755      10754  
     10623      10624      10635      10634      10744      10745      10756      10755  
     10624      10625      10636      10635      10745      10746      10757      10756  
     10625      10626      10637      10636      10746      10747      10758      10757  
     10627      10628      10639      10638      10748      10749      10760      10759  
     10628      10629      10640      10639      10749      10750      10761      10760  
     10629      10630      10641      10640      10750      10751      10762      10761  
     10630      10631      10642      10641      10751      10752      10763      10762  
     10631      10632      10643      10642      10752      10753      10764      10763  
     10632      10633      10644      10643      10753      10754      10765      10764  
     10633      10634      10645      10644      10754      10755      10766      10765  
     10634      10635      10646      10645      10755      10756      10767      10766  
     10635      10636      10647      10646      10756      10757      10768      10767  
     10636      10637      10648      10647      10757      10758      10769      10768  
     10649      10650      10661      10660      10770      10771      10782      10781  
     10650      10651      10662      10661      10771      10772      10783      10782  
     10651      10652      10663      10662      10772      10773      10784      10783  
     10652      10653      10664      10663      10773      10774      10785      10784  
     10653      10654      10665      10664      10774      10775      10786      10785  
     10654      10655      10666      10665      10775      10776      10787      10786  
     10655      10656      10667      10666      10776      10777      10788      10787  
     10656      10657      10668      10667      10777      10778      10789      10788  
     10657      10658      10669      10668      10778      10779      10790      10789  
     10658      10659      10670      10669      10779      10780      10791      10790  
     10660      10661      10672      10671      10781      10782      10793      10792  
     10661      10662      10673      10672      10782      10783      10794      10793  
     10662      10663      10674      10673      10783      10784      10795      10794  
     10663      10664      10675      10674      10784      10785      10796      10795  
     10664      10665      10676      10675      10785      10786      10797      10796  
     10665      10666      10677      10676      10786      10787      10798      10797  
     10666      10667      10678      10677      10787      10788      10799      10798  
     10667      10668      10679      10678      10788      10789      10800      10799  
     10668      10669      10680      10679      10789      10790      10801      10800  
     10669      10670      10681      10680      10790      10791      10802      10801  
     10671      10672      10683      10682      10792      10793      10804      10803  
     10672      10673      10684      10683      10793      10794      10805      10804  
     10673      10674      10685      10684      10794      10795      10806      10805  
     10674      10675      10686      10685      10795      10796      10807      10806  
     10675      10676      10687      10686      10796      10797      10808      10807  
     10676      10677      10688      10687      10797      10798      10809      10808  
     10677      10678      10689      10688      10798      10799      10810      10809  
     10678      10679      10690      10689      10799      10800      10811      10810  
     10679      10680      10691      10690      10800      10801      10812      10811  
     10680      10681      10692      10691      10801      10802      10813      10812  
     10682      10683      10694      10693      10803      10804      10815      10814  
     10683      10684      10695      10694      10804      10805      10816      10815  
     10684      10685      10696      10695      10805      10806      10817      10816  
     10685      10686      10697      10696      10806      10807      10818      10817  
     10686      10687      10698      10697      10807      10808      10819      10818  
     10687      10688      10699      10698      10808      10809      10820      10819  
     10688      10689      10700      10699      10809      10810      10821      10820  
     10689      10690      10701      10700      10810      10811      10822      10821  
     10690      10691      10702      10701      10811      10812      10823      10822  
     10691      10692      10703      10702      10812      10813      10824      10823  
     10693      10694      10705      10704      10814      10815      10826      10825  
     10694      10695      10706      10705      10815      10816      10827      10826  
     10695      10696      10707      10706      10816      10817      10828      10827  
     10696      10697      10708      10707      10817      10818      10829      10828  
     10697      10698      10709      10708      10818      10819      10830      10829  
     10698      10699      10710      10709      10819      10820      10831      10830  
     10699      10700      10711      10710      10820      10821      10832      10831  
     10700      10701      10712      10711      10821      10822      10833      10832  
     10701      10702      10713      10712      10822      10823      10834      10833  
     10702      10703      10714      10713      10823      10824      10835      10834  
     10704      10705      10716      10715      10825      10826      10837      10836  
     10705      10706      10717      10716      10826      10827      10838      10837  
     10706      10707      10718      10717      10827      10828      10839      10838  
     10707      10708      10719      10718      10828      10829      10840      10839  
     10708      10709      10720      10719      10829      10830      10841      10840  
     10709      10710      10721      10720      10830      10831      10842      10841  
     10710      10711      10722      10721      10831      10832      10843      10842  
     10711      10712      10723      10722      10832      10833      10844      10843  
     10712      10713      10724      10723      10833      10834      10845      10844  
     10713      10714      10725      10724      10834      10835      10846      10845  
     10715      10716      10727      10726      10836      10837      10848      10847  
     10716      10717      10728      10727      10837      10838      10849      10848  
     10717      10718      10729      10728      10838      10839      10850      10849  
     10718      10719      10730      10729      10839      10840      10851      10850  
     10719      10720      10731      10730      10840      10841      10852      10851  
     10720      10721      10732      10731      10841      10842      10853      10852  
     10721      10722      10733      10732      10842      10843      10854      10853  
     10722      10723      10734      10733      10843      10844      10855      10854  
     10723      10724      10735      10734      10844      10845      10856      10855  
     10724      10725      10736      10735      10845      10846      10857      10856  
     10726      10727      10738      10737      10847      10848      10859      10858  
     10727      10728      10739      10738      10848      10849      10860      10859  
     10728      10729      10740      10739      10849      10850      10861      10860  
     10729      10730      10741      10740      10850      10851      10862      10861  
     10730      10731      10742      10741      10851      10852      10863      10862  
     10731      10732      10743      10742      10852      10853      10864      10863  
     10732      10733      10744      10743      10853      10854      10865      10864  
     10733      10734      10745      10744      10854      10855      10866      10865  
     10734      10735      10746      10745      10855      10856      10867      10866  
     10735      10736      10747      10746      10856      10857      10868      10867  
     10737      10738      10749      10748      10858      10859      10870      10869  
     10738      10739      10750      10749      10859      10860      10871      10870  
     10739      10740      10751      10750      10860      10861      10872      10871  
     10740      10741      10752      10751      10861      10862      10873      10872  
     10741      10742      10753      10752      10862      10863      10874      10873  
     10742      10743      10754      10753      10863      10864      10875      10874  
     10743      10744      10755      10754      10864      10865      10876      10875  
     10744      10745      10756      10755      10865      10866      10877      10876  
     10745      10746      10757      10756      10866      10867      10878      10877  
     10746      10747      10758      10757      10867      10868      10879      10878  
     10748      10749      10760      10759      10869      10870      10881      10880  
     10749      10750      10761      10760      10870      10871      10882      10881  
     10750      10751      10762      10761      10871      10872      10883      10882  
     10751      10752      10763      10762      10872      10873      10884      10883  
     10752      10753      10764      10763      10873      10874      10885      10884  
     10753      10754      10765      10764      10874      10875      10886      10885  
     10754      10755      10766      10765      10875      10876      10887      10886  
     10755      10756      10767      10766      10876      10877      10888      10887  
     10756      10757      10768      10767      10877      10878      10889      10888  
     10757      10758      10769      10768      10878      10879      10890      10889  
     10770      10771      10782      10781      10891      10892      10903      10902  
     10771      10772      10783      10782      10892      10893      10904      10903  
     10772      10773      10784      10783      10893      10894      10905      10904  
     10773      10774      10785      10784      10894      10895      10906      10905  
     10774      10775      10786      10785      10895      10896      10907      10906  
     10775      10776      10787      10786      10896      10897      10908      10907  
     10776      10777      10788      10787      10897      10898      10909      10908  
     10777      10778      10789      10788      10898      10899      10910      10909  
     10778      10779      10790      10789      10899      10900      10911      10910  
     10779      10780      10791      10790      10900      10901      10912      10911  
     10781      10782      10793      10792      10902      10903      10914      10913  
     10782      10783      10794      10793      10903      10904      10915      10914  
     10783      10784      10795      10794      10904      10905      10916      10915  
     10784      10785      10796      10795      10905      10906      10917      10916  
     10785      10786      10797      10796      10906      10907      10918      10917  
     10786      10787      10798      10797      10907      10908      10919      10918  
     10787      10788      10799      10798      10908      10909      10920      10919  
     10788      10789      10800      10799      10909      10910      10921      10920  
     10789      10790      10801      10800      10910      10911      10922      10921  
     10790      10791      10802      10801      10911      10912      10923      10922  
     10792      10793      10804      10803      10913      10914      10925      10924  
     10793      10794      10805      10804      10914      10915      10926      10925  
     10794      10795      10806      10805      10915      10916      10927      10926  
     10795      10796      10807      10806      10916      10917      10928      10927  
     10796      10797      10808      10807      10917      10918      10929      10928  
     10797      10798      10809      10808      10918      10919      10930      10929  
     10798      10799      10810      10809      10919      10920      10931      10930  
     10799      10800      10811      10810      10920      10921      10932      10931  
     10800      10801      10812      10811      10921      10922      10933      10932  
     10801      10802      10813      10812      10922      10923      10934      10933  
     10803      10804      10815      10814      10924      10925      10936      10935  
     10804      10805      10816      10815      10925      10926      10937      10936  
     10805      10806      10817      10816      10926      10927      10938      10937  
     10806      10807      10818      10817      10927      10928      10939      10938  
     10807      10808      10819      10818      10928      10929      10940      10939  
     10808      10809      10820      10819      10929      10930      10941      10940  
     10809      10810      10821      10820      10930      10931      10942      10941  
     10810      10811      10822      10821      10931      10932      10943      10942  
     10811      10812      10823      10822      10932      10933      10944      10943  
     10812      10813      10824      10823      10933      10934      10945      10944  
     10814      10815      10826      10825      10935      10936      10947      10946  
     10815      10816      10827      10826      10936      10937      10948      10947  
     10816      10817      10828      10827      10937      10938      10949      10948  
     10817      10818      10829      10828      10938      10939      10950      10949  
     10818      10819      10830      10829      10939      10940      10951      10950  
     10819      10820      10831      10830      10940      10941      10952      10951  
     10820      10821      10832      10831      10941      10942      10953      10952  
     10821      10822      10833      10832      10942      10943      10954      10953  
     10822      10823      10834      10833      10943      10944      10955      10954  
     10823      10824      10835      10834      10944      10945      10956      10955  
     10825      10826      10837      10836      10946      10947      10958      10957  
     10826      10827      10838      10837      10947      10948      10959      10958  
     10827      10828      10839      10838      10948      10949      10960      10959  
     10828      10829      10840      10839      10949      10950      10961      10960  
     10829      10830      10841      10840      10950      10951      10962      10961  
     10830      10831      10842      10841      10951      10952      10963      10962  
     10831      10832      10843      10842      10952      10953      10964      10963  
     10832      10833      10844      10843      10953      10954      10965      10964  
     10833      10834      10845      10844      10954      10955      10966      10965  
     10834      10835      10846      10845      10955      10956      10967      10966  
     10836      10837      10848      10847      10957      10958      10969      10968  
     10837      10838      10849      10848      10958      10959      10970      10969  
     10838      10839      10850      10849      10959      10960      10971      10970  
     10839      10840      10851      10850      10960      10961      10972      10971  
     10840      10841      10852      10851      10961      10962      10973      10972  
     10841      10842      10853      10852      10962      10963      10974      10973  
     10842      10843      10854      10853      10963      10964      10975      10974  
     10843      10844      10855      10854      10964      10965      10976      10975  
     10844      10845      10856      10855      10965      10966      10977      10976  
     10845      10846      10857      10856      10966      10967      10978      10977  
     10847      10848      10859      10858      10968      10969      10980      10979  
     10848      10849      10860      10859      10969      10970      10981      10980  
     10849      10850      10861      10860      10970      10971      10982      10981  
     10850      10851      10862      10861      10971      10972      10983      10982  
     10851      10852      10863      10862      10972      10973      10984      10983  
     10852      10853      10864      10863      10973      10974      10985      10984  
     10853      10854      10865      10864      10974      10975      10986      10985  
     10854      10855      10866      10865      10975      10976      10987      10986  
     10855      10856      10867      10866      10976      10977      10988      10987  
     10856      10857      10868      10867      10977      10978      10989      10988  
     10858      10859      10870      10869      10979      10980      10991      10990  
     10859      10860      10871      10870      10980      10981      10992      10991  
     10860      10861      10872      10871      10981      10982      10993      10992  
     10861      10862      10873      10872      10982      10983      10994      10993  
     10862      10863      10874      10873      10983      10984      10995      10994  
     10863      10864      10875      10874      10984      10985      10996      10995  
     10864      10865      10876      10875      10985      10986      10997      10996  
     10865      10866      10877      10876      10986      10987      10998      10997  
     10866      10867      10878      10877      10987      10988      10999      10998  
     10867      10868      10879      10878      10988      10989      11000      10999  
     10869      10870      10881      10880      10990      10991      11002      11001  
     10870      10871      10882      10881      10991      10992      11003      11002  
     10871      10872      10883      10882      10992      10993      11004      11003  
     10872      10873      10884      10883      10993      10994      11005      11004  
     10873      10874      10885      10884      10994      10995      11006      11005  
     10874      10875      10886      10885      10995      10996      11007      11006  
     10875      10876      10887      10886      10996      10997      11008      11007  
     10876      10877      10888      10887      10997      10998      11009      11008  
     10877      10878      10889      10888      10998      10999      11010      11009  
     10878      10879      10890      10889      10999      11000      11011      11010  
     10891      10892      10903      10902      11012      11013      11024      11023  
     10892      10893      10904      10903      11013      11014      11025      11024  
     10893      10894      10905      10904      11014      11015      11026      11025  
     10894      10895      10906      10905      11015      11016      11027      11026  
     10895      10896      10907      10906      11016      11017      11028      11027  
     10896      10897      10908      10907      11017      11018      11029      11028  
     10897      10898      10909      10908      11018      11019      11030      11029  
     10898      10899      10910      10909      11019      11020      11031      11030  
     10899      10900      10911      10910      11020      11021      11032      11031  
     10900      10901      10912      10911      11021      11022      11033      11032  
     10902      10903      10914      10913      11023      11024      11035      11034  
     10903      10904      10915      10914      11024      11025      11036      11035  
     10904      10905      10916      10915      11025      11026      11037      11036  
     10905      10906      10917      10916      11026      11027      11038      11037  
     10906      10907      10918      10917      11027      11028      11039      11038  
     10907      10908      10919      10918      11028      11029      11040      11039  
     10908      10909      10920      10919      11029      11030      11041      11040  
     10909      10910      10921      10920      11030      11031      11042      11041  
     10910      10911      10922      10921      11031      11032      11043      11042  
     10911      10912      10923      10922      11032      11033      11044      11043  
     10913      10914      10925      10924      11034      11035      11046      11045  
     10914      10915      10926      10925      11035      11036      11047      11046  
     10915      10916      10927      10926      11036      11037      11048      11047  
     10916      10917      10928      10927      11037      11038      11049      11048  
     10917      10918      10929      10928      11038      11039      11050      11049  
     10918      10919      10930      10929      11039      11040      11051      11050  
     10919      10920      10931      10930      11040      11041      11052      11051  
     10920      10921      10932      10931      11041      11042      11053      11052  
     10921      10922      10933      10932      11042      11043      11054      11053  
     10922      10923      10934      10933      11043      11044      11055      11054  
     10924      10925      10936      10935      11045      11046      11057      11056  
     10925      10926      10937      10936      11046      11047      11058      11057  
     10926      10927      10938      10937      11047      11048      11059      11058  
     10927      10928      10939      10938      11048      11049      11060      11059  
     10928      10929      10940      10939      11049      11050      11061      11060  
     10929      10930      10941      10940      11050      11051      11062      11061  
     10930      10931      10942      10941      11051      11052      11063      11062  
     10931      10932      10943      10942      11052      11053      11064      11063  
     10932      10933      10944      10943      11053      11054      11065      11064  
     10933      10934      10945      10944      11054      11055      11066      11065  
     10935      10936      10947      10946      11056      11057      11068      11067  
     10936      10937      10948      10947      11057      11058      11069      11068  
     10937      10938      10949      10948      11058      11059      11070      11069  
     10938      10939      10950      10949      11059      11060      11071      11070  
     10939      10940      10951      10950      11060      11061      11072      11071  
     10940      10941      10952      10951      11061      11062      11073      11072  
     10941      10942      10953      10952      11062      11063      11074      11073  
     10942      10943      10954      10953      11063      11064      11075      11074  
     10943      10944      10955      10954      11064      11065      11076      11075  
     10944      10945      10956      10955      11065      11066      11077      11076  
     10946      10947      10958      10957      11067      11068      11079      11078  
     10947      10948      10959      10958      11068      11069      11080      11079  
     10948      10949      10960      10959      11069      11070      11081      11080  
     10949      10950      10961      10960      11070      11071      11082      11081  
     10950      10951      10962      10961      11071      11072      11083      11082  
     10951      10952      10963      10962      11072      11073      11084      11083  
     10952      10953      10964      10963      11073      11074      11085      11084  
     10953      10954      10965      10964      11074      11075      11086      11085  
     10954      10955      10966      10965      11075      11076      11087      11086  
     10955      10956      10967      10966      11076      11077      11088      11087  
     10957      10958      10969      10968      11078      11079      11090      11089  
     10958      10959      10970      10969      11079      11080      11091      11090  
     10959      10960      10971      10970      11080      11081      11092      11091  
     10960      10961      10972      10971      11081      11082      11093      11092  
     10961      10962      10973      10972      11082      11083      11094      11093  
     10962      10963      10974      10973      11083      11084      11095      11094  
     10963      10964      10975      10974      11084      11085      11096      11095  
     10964      10965      10976      10975      11085      11086      11097      11096  
     10965      10966      10977      10976      11086      11087      11098      11097  
     10966      10967      10978      10977      11087      11088      11099      11098  
     10968      10969      10980      10979      11089      11090      11101      11100  
     10969      10970      10981      10980      11090      11091      11102      11101  
     10970      10971      10982      10981      11091      11092      11103      11102  
     10971      10972      10983      10982      11092      11093      11104      11103  
     10972      10973      10984      10983      11093      11094      11105      11104  
     10973      10974      10985      10984      11094      11095      11106      11105  
     10974      10975      10986      10985      11095      11096      11107      11106  
     10975      10976      10987      10986      11096      11097      11108      11107  
     10976      10977      10988      10987      11097      11098      11109      11108  
     10977      10978      10989      10988      11098      11099      11110      11109  
     10979      10980      10991      10990      11100      11101      11112      11111  
     10980      10981      10992      10991      11101      11102      11113      11112  
     10981      10982      10993      10992      11102      11103      11114      11113  
     10982      10983      10994      10993      11103      11104      11115      11114  
     10983      10984      10995      10994      11104      11105      11116      11115  
     10984      10985      10996      10995      11105      11106      11117      11116  
     10985      10986      10997      10996      11106      11107      11118      11117  
     10986      10987      10998      10997      11107      11108      11119      11118  
     10987      10988      10999      10998      11108      11109      11120      11119  
     10988      10989      11000      10999      11109      11110      11121      11120  
     10990      10991      11002      11001      11111      11112      11123      11122  
     10991      10992      11003      11002      11112      11113      11124      11123  
     10992      10993      11004      11003      11113      11114      11125      11124  
     10993      10994      11005      11004      11114      11115      11126      11125  
     10994      10995      11006      11005      11115      11116      11127      11126  
     10995      10996      11007      11006      11116      11117      11128      11127  
     10996      10997      11008      11007      11117      11118      11129      11128  
     10997      10998      11009      11008      11118      11119      11130      11129  
     10998      10999      11010      11009      11119      11120      11131      11130  
     10999      11000      11011      11010      11120      11121      11132      11131  
     11012      11013      11024      11023      11133      11134      11145      11144  
     11013      11014      11025      11024      11134      11135      11146      11145  
     11014      11015      11026      11025      11135      11136      11147      11146  
     11015      11016      11027      11026      11136      11137      11148      11147  
     11016      11017      11028      11027      11137      11138      11149      11148  
     11017      11018      11029      11028      11138      11139      11150      11149  
     11018      11019      11030      11029      11139      11140      11151      11150  
     11019      11020      11031      11030      11140      11141      11152      11151  
     11020      11021      11032      11031      11141      11142      11153      11152  
     11021      11022      11033      11032      11142      11143      11154      11153  
     11023      11024      11035      11034      11144      11145      11156      11155  
     11024      11025      11036      11035      11145      11146      11157      11156  
     11025      11026      11037      11036      11146      11147      11158      11157  
     11026      11027      11038      11037      11147      11148      11159      11158  
     11027      11028      11039      11038      11148      11149      11160      11159  
     11028      11029      11040      11039      11149      11150      11161      11160  
     11029      11030      11041      11040      11150      11151      11162      11161  
     11030      11031      11042      11041      11151      11152      11163      11162  
     11031      11032      11043      11042      11152      11153      11164      11163  
     11032      11033      11044      11043      11153      11154      11165      11164  
     11034      11035      11046      11045      11155      11156      11167      11166  
     11035      11036      11047      11046      11156      11157      11168      11167  
     11036      11037      11048      11047      11157      11158      11169      11168  
     11037      11038      11049      11048      11158      11159      11170      11169  
     11038      11039      11050      11049      11159      11160      11171      11170  
     11039      11040      11051      11050      11160      11161      11172      11171  
     11040      11041      11052      11051      11161      11162      11173      11172  
     11041      11042      11053      11052      11162      11163      11174      11173  
     11042      11043      11054      11053      11163      11164      11175      11174  
     11043      11044      11055      11054      11164      11165      11176      11175  
     11045      11046      11057      11056      11166      11167      11178      11177  
     11046      11047      11058      11057      11167      11168      11179      11178  
     11047      11048      11059      11058      11168      11169      11180      11179  
     11048      11049      11060      11059      11169      11170      11181      11180  
     11049      11050      11061      11060      11170      11171      11182      11181  
     11050      11051      11062      11061      11171      11172      11183      11182  
     11051      11052      11063      11062      11172      11173      11184      11183  
     11052      11053      11064      11063      11173      11174      11185      11184  
     11053      11054      11065      11064      11174      11175      11186      11185  
     11054      11055      11066      11065      11175      11176      11187      11186  
     11056      11057      11068      11067      11177      11178      11189      11188  
     11057      11058      11069      11068      11178      11179      11190      11189  
     11058      11059      11070      11069      11179      11180      11191      11190  
     11059      11060      11071      11070      11180      11181      11192      11191  
     11060      11061      11072      11071      11181      11182      11193      11192  
     11061      11062      11073      11072      11182      11183      11194      11193  
     11062      11063      11074      11073      11183      11184      11195      11194  
     11063      11064      11075      11074      11184      11185      11196      11195  
     11064      11065      11076      11075      11185      11186      11197      11196  
     11065      11066      11077      11076      11186      11187      11198      11197  
     11067      11068      11079      11078      11188      11189      11200      11199  
     11068      11069      11080      11079      11189      11190      11201      11200  
     11069      11070      11081      11080      11190      11191      11202      11201  
     11070      11071      11082      11081      11191      11192      11203      11202  
     11071      11072      11083      11082      11192      11193      11204      11203  
     11072      11073      11084      11083      11193      11194      11205      11204  
     11073      11074      11085      11084      11194      11195      11206      11205  
     11074      11075      11086      11085      11195      11196      11207      11206  
     11075      11076      11087      11086      11196      11197      11208      11207  
     11076      11077      11088      11087      11197      11198      11209      11208  
     11078      11079      11090      11089      11199      11200      11211      11210  
     11079      11080      11091      11090      11200      11201      11212      11211  
     11080      11081      11092      11091      11201      11202      11213      11212  
     11081      11082      11093      11092      11202      11203      11214      11213  
     11082      11083      11094      11093      11203      11204      11215      11214  
     11083      11084      11095      11094      11204      11205      11216      11215  
     11084      11085      11096      11095      11205      11206      11217      11216  
     11085      11086      11097      11096      11206      11207      11218      11217  
     11086      11087      11098      11097      11207      11208      11219      11218  
     11087      11088      11099      11098      11208      11209      11220      11219  
     11089      11090      11101      11100      11210      11211      11222      11221  
     11090      11091      11102      11101      11211      11212      11223      11222  
     11091      11092      11103      11102      11212      11213      11224      11223  
     11092      11093      11104      11103      11213      11214      11225      11224  
     11093      11094      11105      11104      11214      11215      11226      11225  
     11094      11095      11106      11105      11215      11216      11227      11226  
     11095      11096      11107      11106      11216      11217      11228      11227  
     11096      11097      11108      11107      11217      11218      11229      11228  
     11097      11098      11109      11108      11218      11219      11230      11229  
     11098      11099      11110      11109      11219      11220      11231      11230  
     11100      11101      11112      11111      11221      11222      11233      11232  
     11101      11102      11113      11112      11222      11223      11234      11233  
     11102      11103      11114      11113      11223      11224      11235      11234  
     11103      11104      11115      11114      11224      11225      11236      11235  
     11104      11105      11116      11115      11225      11226      11237      11236  
     11105      11106      11117      11116      11226      11227      11238      11237  
     11106      11107      11118      11117      11227      11228      11239      11238  
     11107      11108      11119      11118      11228      11229      11240      11239  
     11108      11109      11120      11119      11229      11230      11241      11240  
     11109      11110      11121      11120      11230      11231      11242      11241  
     11111      11112      11123      11122      11232      11233      11244      11243  
     11112      11113      11124      11123      11233      11234      11245      11244  
     11113      11114      11125      11124      11234      11235      11246      11245  
     11114      11115      11126      11125      11235      11236      11247      11246  
     11115      11116      11127      11126      11236      11237      11248      11247  
     11116      11117      11128      11127      11237      11238      11249      11248  
     11117      11118      11129      11128      11238      11239      11250      11249  
     11118      11119      11130      11129      11239      11240      11251      11250  
     11119      11120      11131      11130      11240      11241      11252      11251  
     11120      11121      11132      11131      11241      11242      11253      11252  
     11133      11134      11145      11144      11254      11255      11266      11265  
     11134      11135      11146      11145      11255      11256      11267      11266  
     11135      11136      11147      11146      11256      11257      11268      11267  
     11136      11137      11148      11147      11257      11258      11269      11268  
     11137      11138      11149      11148      11258      11259      11270      11269  
     11138      11139      11150      11149      11259      11260      11271      11270  
     11139      11140      11151      11150      11260      11261      11272      11271  
     11140      11141      11152      11151      11261      11262      11273      11272  
     11141      11142      11153      11152      11262      11263      11274      11273  
     11142      11143      11154      11153      11263      11264      11275      11274  
     11144      11145      11156      11155      11265      11266      11277      11276  
     11145      11146      11157      11156      11266      11267      11278      11277  
     11146      11147      11158      11157      11267      11268      11279      11278  
     11147      11148      11159      11158      11268      11269      11280      11279  
     11148      11149      11160      11159      11269      11270      11281      11280  
     11149      11150      11161      11160      11270      11271      11282      11281  
     11150      11151      11162      11161      11271      11272      11283      11282  
     11151      11152      11163      11162      11272      11273      11284      11283  
     11152      11153      11164      11163      11273      11274      11285      11284  
     11153      11154      11165      11164      11274      11275      11286      11285  
     11155      11156      11167      11166      11276      11277      11288      11287  
     11156      11157      11168      11167      11277      11278      11289      11288  
     11157      11158      11169      11168      11278      11279      11290      11289  
     11158      11159      11170      11169      11279      11280      11291      11290  
     11159      11160      11171      11170      11280      11281      11292      11291  
     11160      11161      11172      11171      11281      11282      11293      11292  
     11161      11162      11173      11172      11282      11283      11294      11293  
     11162      11163      11174      11173      11283      11284      11295      11294  
     11163      11164      11175      11174      11284      11285      11296      11295  
     11164      11165      11176      11175      11285      11286      11297      11296  
     11166      11167      11178      11177      11287      11288      11299      11298  
     11167      11168      11179      11178      11288      11289      11300      11299  
     11168      11169      11180      11179      11289      11290      11301      11300  
     11169      11170      11181      11180      11290      11291      11302      11301  
     11170      11171      11182      11181      11291      11292      11303      11302  
     11171      11172      11183      11182      11292      11293      11304      11303  
     11172      11173      11184      11183      11293      11294      11305      11304  
     11173      11174      11185      11184      11294      11295      11306      11305  
     11174      11175      11186      11185      11295      11296      11307      11306  
     11175      11176      11187      11186      11296      11297      11308      11307  
     11177      11178      11189      11188      11298      11299      11310      11309  
     11178      11179      11190      11189      11299      11300      11311      11310  
     11179      11180      11191      11190      11300      11301      11312      11311  
     11180      11181      11192      11191      11301      11302      11313      11312  
     11181      11182      11193      11192      11302      11303      11314      11313  
     11182      11183      11194      11193      11303      11304      11315      11314  
     11183      11184      11195      11194      11304      11305      11316      11315  
     11184      11185      11196      11195      11305      11306      11317      11316  
     11185      11186      11197      11196      11306      11307      11318      11317  
     11186      11187      11198      11197      11307      11308      11319      11318  
     11188      11189      11200      11199      11309      11310      11321      11320  
     11189      11190      11201      11200      11310      11311      11322      11321  
     11190      11191      11202      11201      11311      11312      11323      11322  
     11191      11192      11203      11202      11312      11313      11324      11323  
     11192      11193      11204      11203      11313      11314      11325      11324  
     11193      11194      11205      11204      11314      11315      11326      11325  
     11194      11195      11206      11205      11315      11316      11327      11326  
     11195      11196      11207      11206      11316      11317      11328      11327  
     11196      11197      11208      11207      11317      11318      11329      11328  
     11197      11198      11209      11208      11318      11319      11330      11329  
     11199      11200      11211      11210      11320      11321      11332      11331  
     11200      11201      11212      11211      11321      11322      11333      11332  
     11201      11202      11213      11212      11322      11323      11334      11333  
     11202      11203      11214      11213      11323      11324      11335      11334  
     11203      11204      11215      11214      11324      11325      11336      11335  
     11204      11205      11216      11215      11325      11326      11337      11336  
     11205      11206      11217      11216      11326      11327      11338      11337  
     11206      11207      11218      11217      11327      11328      11339      11338  
     11207      11208      11219      11218      11328      11329      11340      11339  
     11208      11209      11220      11219      11329      11330      11341      11340  
     11210      11211      11222      11221      11331      11332      11343      11342  
     11211      11212      11223      11222      11332      11333      11344      11343  
     11212      11213      11224      11223      11333      11334      11345      11344  
     11213      11214      11225      11224      11334      11335      11346      11345  
     11214      11215      11226      11225      11335      11336      11347      11346  
     11215      11216      11227      11226      11336      11337      11348      11347  
     11216      11217      11228      11227      11337      11338      11349      11348  
     11217      11218      11229      11228      11338      11339      11350      11349  
     11218      11219      11230      11229      11339      11340      11351      11350  
     11219      11220      11231      11230      11340      11341      11352      11351  
     11221      11222      11233      11232      11342      11343      11354      11353  
     11222      11223      11234      11233      11343      11344      11355      11354  
     11223      11224      11235      11234      11344      11345      11356      11355  
     11224      11225      11236      11235      11345      11346      11357      11356  
     11225      11226      11237      11236      11346      11347      11358      11357  
     11226      11227      11238      11237      11347      11348      11359      11358  
     11227      11228      11239      11238      11348      11349      11360      11359  
     11228      11229      11240      11239      11349      11350      11361      11360  
     11229      11230      11241      11240      11350      11351      11362      11361  
     11230      11231      11242      11241      11351      11352      11363      11362  
     11232      11233      11244      11243      11353      11354      11365      11364  
     11233      11234      11245      11244      11354      11355      11366      11365  
     11234      11235      11246      11245      11355      11356      11367      11366  
     11235      11236      11247      11246      11356      11357      11368      11367  
     11236      11237      11248      11247      11357      11358      11369      11368  
     11237      11238      11249      11248      11358      11359      11370      11369  
     11238      11239      11250      11249      11359      11360      11371      11370  
     11239      11240      11251      11250      11360      11361      11372      11371  
     11240      11241      11252      11251      11361      11362      11373      11372  
     11241      11242      11253      11252      11362      11363      11374      11373  
     11254      11255      11266      11265      11375      11376      11387      11386  
     11255      11256      11267      11266      11376      11377      11388      11387  
     11256      11257      11268      11267      11377      11378      11389      11388  
     11257      11258      11269      11268      11378      11379      11390      11389  
     11258      11259      11270      11269      11379      11380      11391      11390  
     11259      11260      11271      11270      11380      11381      11392      11391  
     11260      11261      11272      11271      11381      11382      11393      11392  
     11261      11262      11273      11272      11382      11383      11394      11393  
     11262      11263      11274      11273      11383      11384      11395      11394  
     11263      11264      11275      11274      11384      11385      11396      11395  
     11265      11266      11277      11276      11386      11387      11398      11397  
     11266      11267      11278      11277      11387      11388      11399      11398  
     11267      11268      11279      11278      11388      11389      11400      11399  
     11268      11269      11280      11279      11389      11390      11401      11400  
     11269      11270      11281      11280      11390      11391      11402      11401  
     11270      11271      11282      11281      11391      11392      11403      11402  
     11271      11272      11283      11282      11392      11393      11404      11403  
     11272      11273      11284      11283      11393      11394      11405      11404  
     11273      11274      11285      11284      11394      11395      11406      11405  
     11274      11275      11286      11285      11395      11396      11407      11406  
     11276      11277      11288      11287      11397      11398      11409      11408  
     11277      11278      11289      11288      11398      11399      11410      11409  
     11278      11279      11290      11289      11399      11400      11411      11410  
     11279      11280      11291      11290      11400      11401      11412      11411  
     11280      11281      11292      11291      11401      11402      11413      11412  
     11281      11282      11293      11292      11402      11403      11414      11413  
     11282      11283      11294      11293      11403      11404      11415      11414  
     11283      11284      11295      11294      11404      11405      11416      11415  
     11284      11285      11296      11295      11405      11406      11417      11416  
     11285      11286      11297      11296      11406      11407      11418      11417  
     11287      11288      11299      11298      11408      11409      11420      11419  
     11288      11289      11300      11299      11409      11410      11421      11420  
     11289      11290      11301      11300      11410      11411      11422      11421  
     11290      11291      11302      11301      11411      11412      11423      11422  
     11291      11292      11303      11302      11412      11413      11424      11423  
     11292      11293      11304      11303      11413      11414      11425      11424  
     11293      11294      11305      11304      11414      11415      11426      11425  
     11294      11295      11306      11305      11415      11416      11427      11426  
     11295      11296      11307      11306      11416      11417      11428      11427  
     11296      11297      11308      11307      11417      11418      11429      11428  
     11298      11299      11310      11309      11419      11420      11431      11430  
     11299      11300      11311      11310      11420      11421      11432      11431  
     11300      11301      11312      11311      11421      11422      11433      11432  
     11301      11302      11313      11312      11422      11423      11434      11433  
     11302      11303      11314      11313      11423      11424      11435      11434  
     11303      11304      11315      11314      11424      11425      11436      11435  
     11304      11305      11316      11315      11425      11426      11437      11436  
     11305      11306      11317      11316      11426      11427      11438      11437  
     11306      11307      11318      11317      11427      11428      11439      11438  
     11307      11308      11319      11318      11428      11429      11440      11439  
     11309      11310      11321      11320      11430      11431      11442      11441  
     11310      11311      11322      11321      11431      11432      11443      11442  
     11311      11312      11323      11322      11432      11433      11444      11443  
     11312      11313      11324      11323      11433      11434      11445      11444  
     11313      11314      11325      11324      11434      11435      11446      11445  
     11314      11315      11326      11325      11435      11436      11447      11446  
     11315      11316      11327      11326      11436      11437      11448      11447  
     11316      11317      11328      11327      11437      11438      11449      11448  
     11317      11318      11329      11328      11438      11439      11450      11449  
     11318      11319      11330      11329      11439      11440      11451      11450  
     11320      11321      11332      11331      11441      11442      11453      11452  
     11321      11322      11333      11332      11442      11443      11454      11453  
     11322      11323      11334      11333      11443      11444      11455      11454  
     11323      11324      11335      11334      11444      11445      11456      11455  
     11324      11325      11336      11335      11445      11446      11457      11456  
     11325      11326      11337      11336      11446      11447      11458      11457  
     11326      11327      11338      11337      11447      11448      11459      11458  
     11327      11328      11339      11338      11448      11449      11460      11459  
     11328      11329      11340      11339      11449      11450      11461      11460  
     11329      11330      11341      11340      11450      11451      11462      11461  
     11331      11332      11343      11342      11452      11453      11464      11463  
     11332      11333      11344      11343      11453      11454      11465      11464  
     11333      11334      11345      11344      11454      11455      11466      11465  
     11334      11335      11346      11345      11455      11456      11467      11466  
     11335      11336      11347      11346      11456      11457      11468      11467  
     11336      11337      11348      11347      11457      11458      11469      11468  
     11337      11338      11349      11348      11458      11459      11470      11469  
     11338      11339      11350      11349      11459      11460      11471      11470  
     11339      11340      11351      11350      11460      11461      11472      11471  
     11340      11341      11352      11351      11461      11462      11473      11472  
     11342      11343      11354      11353      11463      11464      11475      11474  
     11343      11344      11355      11354      11464      11465      11476      11475  
     11344      11345      11356      11355      11465      11466      11477      11476  
     11345      11346      11357      11356      11466      11467      11478      11477  
     11346      11347      11358      11357      11467      11468      11479      11478  
     11347      11348      11359      11358      11468      11469      11480      11479  
     11348      11349      11360      11359      11469      11470      11481      11480  
     11349      11350      11361      11360      11470      11471      11482      11481  
     11350      11351      11362      11361      11471      11472      11483      11482  
     11351      11352      11363      11362      11472      11473      11484      11483  
     11353      11354      11365      11364      11474      11475      11486      11485  
     11354      11355      11366      11365      11475      11476      11487      11486  
     11355      11356      11367      11366      11476      11477      11488      11487  
     11356      11357      11368      11367      11477      11478      11489      11488  
     11357      11358      11369      11368      11478      11479      11490      11489  
     11358      11359      11370      11369      11479      11480      11491      11490  
     11359      11360      11371      11370      11480      11481      11492      11491  
     11360      11361      11372      11371      11481      11482      11493      11492  
     11361      11362      11373      11372      11482      11483      11494      11493  
     11362      11363      11374      11373      11483      11484      11495      11494  
     11375      11376      11387      11386      11496      11497      11508      11507  
     11376      11377      11388      11387      11497      11498      11509      11508  
     11377      11378      11389      11388      11498      11499      11510      11509  
     11378      11379      11390      11389      11499      11500      11511      11510  
     11379      11380      11391      11390      11500      11501      11512      11511  
     11380      11381      11392      11391      11501      11502      11513      11512  
     11381      11382      11393      11392      11502      11503      11514      11513  
     11382      11383      11394      11393      11503      11504      11515      11514  
     11383      11384      11395      11394      11504      11505      11516      11515  
     11384      11385      11396      11395      11505      11506      11517      11516  
     11386      11387      11398      11397      11507      11508      11519      11518  
     11387      11388      11399      11398      11508      11509      11520      11519  
     11388      11389      11400      11399      11509      11510      11521      11520  
     11389      11390      11401      11400      11510      11511      11522      11521  
     11390      11391      11402      11401      11511      11512      11523      11522  
     11391      11392      11403      11402      11512      11513      11524      11523  
     11392      11393      11404      11403      11513      11514      11525      11524  
     11393      11394      11405      11404      11514      11515      11526      11525  
     11394      11395      11406      11405      11515      11516      11527      11526  
     11395      11396      11407      11406      11516      11517      11528      11527  
     11397      11398      11409      11408      11518      11519      11530      11529  
     11398      11399      11410      11409      11519      11520      11531      11530  
     11399      11400      11411      11410      11520      11521      11532      11531  
     11400      11401      11412      11411      11521      11522      11533      11532  
     11401      11402      11413      11412      11522      11523      11534      11533  
     11402      11403      11414      11413      11523      11524      11535      11534  
     11403      11404      11415      11414      11524      11525      11536      11535  
     11404      11405      11416      11415      11525      11526      11537      11536  
     11405      11406      11417      11416      11526      11527      11538      11537  
     11406      11407      11418      11417      11527      11528      11539      11538  
     11408      11409      11420      11419      11529      11530      11541      11540  
     11409      11410      11421      11420      11530      11531      11542      11541  
     11410      11411      11422      11421      11531      11532      11543      11542  
     11411      11412      11423      11422      11532      11533      11544      11543  
     11412      11413      11424      11423      11533      11534      11545      11544  
     11413      11414      11425      11424      11534      11535      11546      11545  
     11414      11415      11426      11425      11535      11536      11547      11546  
     11415      11416      11427      11426      11536      11537      11548      11547  
     11416      11417      11428      11427      11537      11538      11549      11548  
     11417      11418      11429      11428      11538      11539      11550      11549  
     11419      11420      11431      11430      11540      11541      11552      11551  
     11420      11421      11432      11431      11541      11542      11553      11552  
     11421      11422      11433      11432      11542      11543      11554      11553  
     11422      11423      11434      11433      11543      11544      11555      11554  
     11423      11424      11435      11434      11544      11545      11556      11555  
     11424      11425      11436      11435      11545      11546      11557      11556  
     11425      11426      11437      11436      11546      11547      11558      11557  
     11426      11427      11438      11437      11547      11548      11559      11558  
     11427      11428      11439      11438      11548      11549      11560      11559  
     11428      11429      11440      11439      11549      11550      11561      11560  
     11430      11431      11442      11441      11551      11552      11563      11562  
     11431      11432      11443      11442      11552      11553      11564      11563  
     11432      11433      11444      11443      11553      11554      11565      11564  
     11433      11434      11445      11444      11554      11555      11566      11565  
     11434      11435      11446      11445      11555      11556      11567      11566  
     11435      11436      11447      11446      11556      11557      11568      11567  
     11436      11437      11448      11447      11557      11558      11569      11568  
     11437      11438      11449      11448      11558      11559      11570      11569  
     11438      11439      11450      11449      11559      11560      11571      11570  
     11439      11440      11451      11450      11560      11561      11572      11571  
     11441      11442      11453      11452      11562      11563      11574      11573  
     11442      11443      11454      11453      11563      11564      11575      11574  
     11443      11444      11455      11454      11564      11565      11576      11575  
     11444      11445      11456      11455      11565      11566      11577      11576  
     11445      11446      11457      11456      11566      11567      11578      11577  
     11446      11447      11458      11457      11567      11568      11579      11578  
     11447      11448      11459      11458      11568      11569      11580      11579  
     11448      11449      11460      11459      11569      11570      11581      11580  
     11449      11450      11461      11460      11570      11571      11582      11581  
     11450      11451      11462      11461      11571      11572      11583      11582  
     11452      11453      11464      11463      11573      11574      11585      11584  
     11453      11454      11465      11464      11574      11575      11586      11585  
     11454      11455      11466      11465      11575      11576      11587      11586  
     11455      11456      11467      11466      11576      11577      11588      11587  
     11456      11457      11468      11467      11577      11578      11589      11588  
     11457      11458      11469      11468      11578      11579      11590      11589  
     11458      11459      11470      11469      11579      11580      11591      11590  
     11459      11460      11471      11470      11580      11581      11592      11591  
     11460      11461      11472      11471      11581      11582      11593      11592  
     11461      11462      11473      11472      11582      11583      11594      11593  
     11463      11464      11475      11474      11584      11585      11596      11595  
     11464      11465      11476      11475      11585      11586      11597      11596  
     11465      11466      11477      11476      11586      11587      11598      11597  
     11466      11467      11478      11477      11587      11588      11599      11598  
     11467      11468      11479      11478      11588      11589      11600      11599  
     11468      11469      11480      11479      11589      11590      11601      11600  
     11469      11470      11481      11480      11590      11591      11602      11601  
     11470      11471      11482      11481      11591      11592      11603      11602  
     11471      11472      11483      11482      11592      11593      11604      11603  
     11472      11473      11484      11483      11593      11594      11605      11604  
     11474      11475      11486      11485      11595      11596      11607      11606  
     11475      11476      11487      11486      11596      11597      11608      11607  
     11476      11477      11488      11487      11597      11598      11609      11608  
     11477      11478      11489      11488      11598      11599      11610      11609  
     11478      11479      11490      11489      11599      11600      11611      11610  
     11479      11480      11491      11490      11600      11601      11612      11611  
     11480      11481      11492      11491      11601      11602      11613      11612  
     11481      11482      11493      11492      11602      11603      11614      11613  
     11482      11483      11494      11493      11603      11604      11615      11614  
     11483      11484      11495      11494      11604      11605      11616      11615  
     11496      11497      11508      11507      11617      11618      11629      11628  
     11497      11498      11509      11508      11618      11619      11630      11629  
     11498      11499      11510      11509      11619      11620      11631      11630  
     11499      11500      11511      11510      11620      11621      11632      11631  
     11500      11501      11512      11511      11621      11622      11633      11632  
     11501      11502      11513      11512      11622      11623      11634      11633  
     11502      11503      11514      11513      11623      11624      11635      11634  
     11503      11504      11515      11514      11624      11625      11636      11635  
     11504      11505      11516      11515      11625      11626      11637      11636  
     11505      11506      11517      11516      11626      11627      11638      11637  
     11507      11508      11519      11518      11628      11629      11640      11639  
     11508      11509      11520      11519      11629      11630      11641      11640  
     11509      11510      11521      11520      11630      11631      11642      11641  
     11510      11511      11522      11521      11631      11632      11643      11642  
     11511      11512      11523      11522      11632      11633      11644      11643  
     11512      11513      11524      11523      11633      11634      11645      11644  
     11513      11514      11525      11524      11634      11635      11646      11645  
     11514      11515      11526      11525      11635      11636      11647      11646  
     11515      11516      11527      11526      11636      11637      11648      11647  
     11516      11517      11528      11527      11637      11638      11649      11648  
     11518      11519      11530      11529      11639      11640      11651      11650  
     11519      11520      11531      11530      11640      11641      11652      11651  
     11520      11521      11532      11531      11641      11642      11653      11652  
     11521      11522      11533      11532      11642      11643      11654      11653  
     11522      11523      11534      11533      11643      11644      11655      11654  
     11523      11524      11535      11534      11644      11645      11656      11655  
     11524      11525      11536      11535      11645      11646      11657      11656  
     11525      11526      11537      11536      11646      11647      11658      11657  
     11526      11527      11538      11537      11647      11648      11659      11658  
     11527      11528      11539      11538      11648      11649      11660      11659  
     11529      11530      11541      11540      11650      11651      11662      11661  
     11530      11531      11542      11541      11651      11652      11663      11662  
     11531      11532      11543      11542      11652      11653      11664      11663  
     11532      11533      11544      11543      11653      11654      11665      11664  
     11533      11534      11545      11544      11654      11655      11666      11665  
     11534      11535      11546      11545      11655      11656      11667      11666  
     11535      11536      11547      11546      11656      11657      11668      11667  
     11536      11537      11548      11547      11657      11658      11669      11668  
     11537      11538      11549      11548      11658      11659      11670      11669  
     11538      11539      11550      11549      11659      11660      11671      11670  
     11540      11541      11552      11551      11661      11662      11673      11672  
     11541      11542      11553      11552      11662      11663      11674      11673  
     11542      11543      11554      11553      11663      11664      11675      11674  
     11543      11544      11555      11554      11664      11665      11676      11675  
     11544      11545      11556      11555      11665      11666      11677      11676  
     11545      11546      11557      11556      11666      11667      11678      11677  
     11546      11547      11558      11557      11667      11668      11679      11678  
     11547      11548      11559      11558      11668      11669      11680      11679  
     11548      11549      11560      11559      11669      11670      11681      11680  
     11549      11550      11561      11560      11670      11671      11682      11681  
     11551      11552      11563      11562      11672      11673      11684      11683  
     11552      11553      11564      11563      11673      11674      11685      11684  
     11553      11554      11565      11564      11674      11675      11686      11685  
     11554      11555      11566      11565      11675      11676      11687      11686  
     11555      11556      11567      11566      11676      11677      11688      11687  
     11556      11557      11568      11567      11677      11678      11689      11688  
     11557      11558      11569      11568      11678      11679      11690      11689  
     11558      11559      11570      11569      11679      11680      11691      11690  
     11559      11560      11571      11570      11680      11681      11692      11691  
     11560      11561      11572      11571      11681      11682      11693      11692  
     11562      11563      11574      11573      11683      11684      11695      11694  
     11563      11564      11575      11574      11684      11685      11696      11695  
     11564      11565      11576      11575      11685      11686      11697      11696  
     11565      11566      11577      11576      11686      11687      11698      11697  
     11566      11567      11578      11577      11687      11688      11699      11698  
     11567      11568      11579      11578      11688      11689      11700      11699  
     11568      11569      11580      11579      11689      11690      11701      11700  
     11569      11570      11581      11580      11690      11691      11702      11701  
     11570      11571      11582      11581      11691      11692      11703      11702  
     11571      11572      11583      11582      11692      11693      11704      11703  
     11573      11574      11585      11584      11694      11695      11706      11705  
     11574      11575      11586      11585      11695      11696      11707      11706  
     11575      11576      11587      11586      11696      11697      11708      11707  
     11576      11577      11588      11587      11697      11698      11709      11708  
     11577      11578      11589      11588      11698      11699      11710      11709  
     11578      11579      11590      11589      11699      11700      11711      11710  
     11579      11580      11591      11590      11700      11701      11712      11711  
     11580      11581      11592      11591      11701      11702      11713      11712  
     11581      11582      11593      11592      11702      11703      11714      11713  
     11582      11583      11594      11593      11703      11704      11715      11714  
     11584      11585      11596      11595      11705      11706      11717      11716  
     11585      11586      11597      11596      11706      11707      11718      11717  
     11586      11587      11598      11597      11707      11708      11719      11718  
     11587      11588      11599      11598      11708      11709      11720      11719  
     11588      11589      11600      11599      11709      11710      11721      11720  
     11589      11590      11601      11600      11710      11711      11722      11721  
     11590      11591      11602      11601      11711      11712      11723      11722  
     11591      11592      11603      11602      11712      11713      11724      11723  
     11592      11593      11604      11603      11713      11714      11725      11724  
     11593      11594      11605      11604      11714      11715      11726      11725  
     11595      11596      11607      11606      11716      11717      11728      11727  
     11596      11597      11608      11607      11717      11718      11729      11728  
     11597      11598      11609      11608      11718      11719      11730      11729  
     11598      11599      11610      11609      11719      11720      11731      11730  
     11599      11600      11611      11610      11720      11721      11732      11731  
     11600      11601      11612      11611      11721      11722      11733      11732  
     11601      11602      11613      11612      11722      11723      11734      11733  
     11602      11603      11614      11613      11723      11724      11735      11734  
     11603      11604      11615      11614      11724      11725      11736      11735  
     11604      11605      11616      11615      11725      11726      11737      11736  
     11617      11618      11629      11628      11738      11739      11750      11749  
     11618      11619      11630      11629      11739      11740      11751      11750  
     11619      11620      11631      11630      11740      11741      11752      11751  
     11620      11621      11632      11631      11741      11742      11753      11752  
     11621      11622      11633      11632      11742      11743      11754      11753  
     11622      11623      11634      11633      11743      11744      11755      11754  
     11623      11624      11635      11634      11744      11745      11756      11755  
     11624      11625      11636      11635      11745      11746      11757      11756  
     11625      11626      11637      11636      11746      11747      11758      11757  
     11626      11627      11638      11637      11747      11748      11759      11758  
     11628      11629      11640      11639      11749      11750      11761      11760  
     11629      11630      11641      11640      11750      11751      11762      11761  
     11630      11631      11642      11641      11751      11752      11763      11762  
     11631      11632      11643      11642      11752      11753      11764      11763  
     11632      11633      11644      11643      11753      11754      11765      11764  
     11633      11634      11645      11644      11754      11755      11766      11765  
     11634      11635      11646      11645      11755      11756      11767      11766  
     11635      11636      11647      11646      11756      11757      11768      11767  
     11636      11637      11648      11647      11757      11758      11769      11768  
     11637      11638      11649      11648      11758      11759      11770      11769  
     11639      11640      11651      11650      11760      11761      11772      11771  
     11640      11641      11652      11651      11761      11762      11773      11772  
     11641      11642      11653      11652      11762      11763      11774      11773  
     11642      11643      11654      11653      11763      11764      11775      11774  
     11643      11644      11655      11654      11764      11765      11776      11775  
     11644      11645      11656      11655      11765      11766      11777      11776  
     11645      11646      11657      11656      11766      11767      11778      11777  
     11646      11647      11658      11657      11767      11768      11779      11778  
     11647      11648      11659      11658      11768      11769      11780      11779  
     11648      11649      11660      11659      11769      11770      11781      11780  
     11650      11651      11662      11661      11771      11772      11783      11782  
     11651      11652      11663      11662      11772      11773      11784      11783  
     11652      11653      11664      11663      11773      11774      11785      11784  
     11653      11654      11665      11664      11774      11775      11786      11785  
     11654      11655      11666      11665      11775      11776      11787      11786  
     11655      11656      11667      11666      11776      11777      11788      11787  
     11656      11657      11668      11667      11777      11778      11789      11788  
     11657      11658      11669      11668      11778      11779      11790      11789  
     11658      11659      11670      11669      11779      11780      11791      11790  
     11659      11660      11671      11670      11780      11781      11792      11791  
     11661      11662      11673      11672      11782      11783      11794      11793  
     11662      11663      11674      11673      11783      11784      11795      11794  
     11663      11664      11675      11674      11784      11785      11796      11795  
     11664      11665      11676      11675      11785      11786      11797      11796  
     11665      11666      11677      11676      11786      11787      11798      11797  
     11666      11667      11678      11677      11787      11788      11799      11798  
     11667      11668      11679      11678      11788      11789      11800      11799  
     11668      11669      11680      11679      11789      11790      11801      11800  
     11669      11670      11681      11680      11790      11791      11802      11801  
     11670      11671      11682      11681      11791      11792      11803      11802  
     11672      11673      11684      11683      11793      11794      11805      11804  
     11673      11674      11685      11684      11794      11795      11806      11805  
     11674      11675      11686      11685      11795      11796      11807      11806  
     11675      11676      11687      11686      11796      11797      11808      11807  
     11676      11677      11688      11687      11797      11798      11809      11808  
     11677      11678      11689      11688      11798      11799      11810      11809  
     11678      11679      11690      11689      11799      11800      11811      11810  
     11679      11680      11691      11690      11800      11801      11812      11811  
     11680      11681      11692      11691      11801      11802      11813      11812  
     11681      11682      11693      11692      11802      11803      11814      11813  
     11683      11684      11695      11694      11804      11805      11816      11815  
     11684      11685      11696      11695      11805      11806      11817      11816  
     11685      11686      11697      11696      11806      11807      11818      11817  
     11686      11687      11698      11697      11807      11808      11819      11818  
     11687      11688      11699      11698      11808      11809      11820      11819  
     11688      11689      11700      11699      11809      11810      11821      11820  
     11689      11690      11701      11700      11810      11811      11822      11821  
     11690      11691      11702      11701      11811      11812      11823      11822  
     11691      11692      11703      11702      11812      11813      11824      11823  
     11692      11693      11704      11703      11813      11814      11825      11824  
     11694      11695      11706      11705      11815      11816      11827      11826  
     11695      11696      11707      11706      11816      11817      11828      11827  
     11696      11697      11708      11707      11817      11818      11829      11828  
     11697      11698      11709      11708      11818      11819      11830      11829  
     11698      11699      11710      11709      11819      11820      11831      11830  
     11699      11700      11711      11710      11820      11821      11832      11831  
     11700      11701      11712      11711      11821      11822      11833      11832  
     11701      11702      11713      11712      11822      11823      11834      11833  
     11702      11703      11714      11713      11823      11824      11835      11834  
     11703      11704      11715      11714      11824      11825      11836      11835  
     11705      11706      11717      11716      11826      11827      11838      11837  
     11706      11707      11718      11717      11827      11828      11839      11838  
     11707      11708      11719      11718      11828      11829      11840      11839  
     11708      11709      11720      11719      11829      11830      11841      11840  
     11709      11710      11721      11720      11830      11831      11842      11841  
     11710      11711      11722      11721      11831      11832      11843      11842  
     11711      11712      11723      11722      11832      11833      11844      11843  
     11712      11713      11724      11723      11833      11834      11845      11844  
     11713      11714      11725      11724      11834      11835      11846      11845  
     11714      11715      11726      11725      11835      11836      11847      11846  
     11716      11717      11728      11727      11837      11838      11849      11848  
     11717      11718      11729      11728      11838      11839      11850      11849  
     11718      11719      11730      11729      11839      11840      11851      11850  
     11719      11720      11731      11730      11840      11841      11852      11851  
     11720      11721      11732      11731      11841      11842      11853      11852  
     11721      11722      11733      11732      11842      11843      11854      11853  
     11722      11723      11734      11733      11843      11844      11855      11854  
     11723      11724      11735      11734      11844      11845      11856      11855  
     11724      11725      11736      11735      11845      11846      11857      11856  
     11725      11726      11737      11736      11846      11847      11858      11857  
     11738      11739      11750      11749      11859      11860      11871      11870  
     11739      11740      11751      11750      11860      11861      11872      11871  
     11740      11741      11752      11751      11861      11862      11873      11872  
     11741      11742      11753      11752      11862      11863      11874      11873  
     11742      11743      11754      11753      11863      11864      11875      11874  
     11743      11744      11755      11754      11864      11865      11876      11875  
     11744      11745      11756      11755      11865      11866      11877      11876  
     11745      11746      11757      11756      11866      11867      11878      11877  
     11746      11747      11758      11757      11867      11868      11879      11878  
     11747      11748      11759      11758      11868      11869      11880      11879  
     11749      11750      11761      11760      11870      11871      11882      11881  
     11750      11751      11762      11761      11871      11872      11883      11882  
     11751      11752      11763      11762      11872      11873      11884      11883  
     11752      11753      11764      11763      11873      11874      11885      11884  
     11753      11754      11765      11764      11874      11875      11886      11885  
     11754      11755      11766      11765      11875      11876      11887      11886  
     11755      11756      11767      11766      11876      11877      11888      11887  
     11756      11757      11768      11767      11877      11878      11889      11888  
     11757      11758      11769      11768      11878      11879      11890      11889  
     11758      11759      11770      11769      11879      11880      11891      11890  
     11760      11761      11772      11771      11881      11882      11893      11892  
     11761      11762      11773      11772      11882      11883      11894      11893  
     11762      11763      11774      11773      11883      11884      11895      11894  
     11763      11764      11775      11774      11884      11885      11896      11895  
     11764      11765      11776      11775      11885      11886      11897      11896  
     11765      11766      11777      11776      11886      11887      11898      11897  
     11766      11767      11778      11777      11887      11888      11899      11898  
     11767      11768      11779      11778      11888      11889      11900      11899  
     11768      11769      11780      11779      11889      11890      11901      11900  
     11769      11770      11781      11780      11890      11891      11902      11901  
     11771      11772      11783      11782      11892      11893      11904      11903  
     11772      11773      11784      11783      11893      11894      11905      11904  
     11773      11774      11785      11784      11894      11895      11906      11905  
     11774      11775      11786      11785      11895      11896      11907      11906  
     11775      11776      11787      11786      11896      11897      11908      11907  
     11776      11777      11788      11787      11897      11898      11909      11908  
     11777      11778      11789      11788      11898      11899      11910      11909  
     11778      11779      11790      11789      11899      11900      11911      11910  
     11779      11780      11791      11790      11900      11901      11912      11911  
     11780      11781      11792      11791      11901      11902      11913      11912  
     11782      11783      11794      11793      11903      11904      11915      11914  
     11783      11784      11795      11794      11904      11905      11916      11915  
     11784      11785      11796      11795      11905      11906      11917      11916  
     11785      11786      11797      11796      11906      11907      11918      11917  
     11786      11787      11798      11797      11907      11908      11919      11918  
     11787      11788      11799      11798      11908      11909      11920      11919  
     11788      11789      11800      11799      11909      11910      11921      11920  
     11789      11790      11801      11800      11910      11911      11922      11921  
     11790      11791      11802      11801      11911      11912      11923      11922  
     11791      11792      11803      11802      11912      11913      11924      11923  
     11793      11794      11805      11804      11914      11915      11926      11925  
     11794      11795      11806      11805      11915      11916      11927      11926  
     11795      11796      11807      11806      11916      11917      11928      11927  
     11796      11797      11808      11807      11917      11918      11929      11928  
     11797      11798      11809      11808      11918      11919      11930      11929  
     11798      11799      11810      11809      11919      11920      11931      11930  
     11799      11800      11811      11810      11920      11921      11932      11931  
     11800      11801      11812      11811      11921      11922      11933      11932  
     11801      11802      11813      11812      11922      11923      11934      11933  
     11802      11803      11814      11813      11923      11924      11935      11934  
     11804      11805      11816      11815      11925      11926      11937      11936  
     11805      11806      11817      11816      11926      11927      11938      11937  
     11806      11807      11818      11817      11927      11928      11939      11938  
     11807      11808      11819      11818      11928      11929      11940      11939  
     11808      11809      11820      11819      11929      11930      11941      11940  
     11809      11810      11821      11820      11930      11931      11942      11941  
     11810      11811      11822      11821      11931      11932      11943      11942  
     11811      11812      11823      11822      11932      11933      11944      11943  
     11812      11813      11824      11823      11933      11934      11945      11944  
     11813      11814      11825      11824      11934      11935      11946      11945  
     11815      11816      11827      11826      11936      11937      11948      11947  
     11816      11817      11828      11827      11937      11938      11949      11948  
     11817      11818      11829      11828      11938      11939      11950      11949  
     11818      11819      11830      11829      11939      11940      11951      11950  
     11819      11820      11831      11830      11940      11941      11952      11951  
     11820      11821      11832      11831      11941      11942      11953      11952  
     11821      11822      11833      11832      11942      11943      11954      11953  
     11822      11823      11834      11833      11943      11944      11955      11954  
     11823      11824      11835      11834      11944      11945      11956      11955  
     11824      11825      11836      11835      11945      11946      11957      11956  
     11826      11827      11838      11837      11947      11948      11959      11958  
     11827      11828      11839      11838      11948      11949      11960      11959  
     11828      11829      11840      11839      11949      11950      11961      11960  
     11829      11830      11841      11840      11950      11951      11962      11961  
     11830      11831      11842      11841      11951      11952      11963      11962  
     11831      11832      11843      11842      11952      11953      11964      11963  
     11832      11833      11844      11843      11953      11954      11965      11964  
     11833      11834      11845      11844      11954      11955      11966      11965  
     11834      11835      11846      11845      11955      11956      11967      11966  
     11835      11836      11847      11846      11956      11957      11968      11967  
     11837      11838      11849      11848      11958      11959      11970      11969  
     11838      11839      11850      11849      11959      11960      11971      11970  
     11839      11840      11851      11850      11960      11961      11972      11971  
     11840      11841      11852      11851      11961      11962      11973      11972  
     11841      11842      11853      11852      11962      11963      11974      11973  
     11842      11843      11854      11853      11963      11964      11975      11974  
     11843      11844      11855      11854      11964      11965      11976      11975  
     11844      11845      11856      11855      11965      11966      11977      11976  
     11845      11846      11857      11856      11966      11967      11978      11977  
     11846      11847      11858      11857      11967      11968      11979      11978  
     11859      11860      11871      11870      11980      11981      11992      11991  
     11860      11861      11872      11871      11981      11982      11993      11992  
     11861      11862      11873      11872      11982      11983      11994      11993  
     11862      11863      11874      11873      11983      11984      11995      11994  
     11863      11864      11875      11874      11984      11985      11996      11995  
     11864      11865      11876      11875      11985      11986      11997      11996  
     11865      11866      11877      11876      11986      11987      11998      11997  
     11866      11867      11878      11877      11987      11988      11999      11998  
     11867      11868      11879      11878      11988      11989      12000      11999  
     11868      11869      11880      11879      11989      11990      12001      12000  
     11870      11871      11882      11881      11991      11992      12003      12002  
     11871      11872      11883      11882      11992      11993      12004      12003  
     11872      11873      11884      11883      11993      11994      12005      12004  
     11873      11874      11885      11884      11994      11995      12006      12005  
     11874      11875      11886      11885      11995      11996      12007      12006  
     11875      11876      11887      11886      11996      11997      12008      12007  
     11876      11877      11888      11887      11997      11998      12009      12008  
     11877      11878      11889      11888      11998      11999      12010      12009  
     11878      11879      11890      11889      11999      12000      12011      12010  
     11879      11880      11891      11890      12000      12001      12012      12011  
     11881      11882      11893      11892      12002      12003      12014      12013  
     11882      11883      11894      11893      12003      12004      12015      12014  
     11883      11884      11895      11894      12004      12005      12016      12015  
     11884      11885      11896      11895      12005      12006      12017      12016  
     11885      11886      11897      11896      12006      12007      12018      12017  
     11886      11887      11898      11897      12007      12008      12019      12018  
     11887      11888      11899      11898      12008      12009      12020      12019  
     11888      11889      11900      11899      12009      12010      12021      12020  
     11889      11890      11901      11900      12010      12011      12022      12021  
     11890      11891      11902      11901      12011      12012      12023      12022  
     11892      11893      11904      11903      12013      12014      12025      12024  
     11893      11894      11905      11904      12014      12015      12026      12025  
     11894      11895      11906      11905      12015      12016      12027      12026  
     11895      11896      11907      11906      12016      12017      12028      12027  
     11896      11897      11908      11907      12017      12018      12029      12028  
     11897      11898      11909      11908      12018      12019      12030      12029  
     11898      11899      11910      11909      12019      12020      12031      12030  
     11899      11900      11911      11910      12020      12021      12032      12031  
     11900      11901      11912      11911      12021      12022      12033      12032  
     11901      11902      11913      11912      12022      12023      12034      12033  
     11903      11904      11915      11914      12024      12025      12036      12035  
     11904      11905      11916      11915      12025      12026      12037      12036  
     11905      11906      11917      11916      12026      12027      12038      12037  
     11906      11907      11918      11917      12027      12028      12039      12038  
     11907      11908      11919      11918      12028      12029      12040      12039  
     11908      11909      11920      11919      12029      12030      12041      12040  
     11909      11910      11921      11920      12030      12031      12042      12041  
     11910      11911      11922      11921      12031      12032      12043      12042  
     11911      11912      11923      11922      12032      12033      12044      12043  
     11912      11913      11924      11923      12033      12034      12045      12044  
     11914      11915      11926      11925      12035      12036      12047      12046  
     11915      11916      11927      11926      12036      12037      12048      12047  
     11916      11917      11928      11927      12037      12038      12049      12048  
     11917      11918      11929      11928      12038      12039      12050      12049  
     11918      11919      11930      11929      12039      12040      12051      12050  
     11919      11920      11931      11930      12040      12041      12052      12051  
     11920      11921      11932      11931      12041      12042      12053      12052  
     11921      11922      11933      11932      12042      12043      12054      12053  
     11922      11923      11934      11933      12043      12044      12055      12054  
     11923      11924      11935      11934      12044      12045      12056      12055  
     11925      11926      11937      11936      12046      12047      12058      12057  
     11926      11927      11938      11937      12047      12048      12059      12058  
     11927      11928      11939      11938      12048      12049      12060      12059  
     11928      11929      11940      11939      12049      12050      12061      12060  
     11929      11930      11941      11940      12050      12051      12062      12061  
     11930      11931      11942      11941      12051      12052      12063      12062  
     11931      11932      11943      11942      12052      12053      12064      12063  
     11932      11933      11944      11943      12053      12054      12065      12064  
     11933      11934      11945      11944      12054      12055      12066      12065  
     11934      11935      11946      11945      12055      12056      12067      12066  
     11936      11937      11948      11947      12057      12058      12069      12068  
     11937      11938      11949      11948      12058      12059      12070      12069  
     11938      11939      11950      11949      12059      12060      12071      12070  
     11939      11940      11951      11950      12060      12061      12072      12071  
     11940      11941      11952      11951      12061      12062      12073      12072  
     11941      11942      11953      11952      12062      12063      12074      12073  
     11942      11943      11954      11953      12063      12064      12075      12074  
     11943      11944      11955      11954      12064      12065      12076      12075  
     11944      11945      11956      11955      12065      12066      12077      12076  
     11945      11946      11957      11956      12066      12067      12078      12077  
     11947      11948      11959      11958      12068      12069      12080      12079  
     11948      11949      11960      11959      12069      12070      12081      12080  
     11949      11950      11961      11960      12070      12071      12082      12081  
     11950      11951      11962      11961      12071      12072      12083      12082  
     11951      11952      11963      11962      12072      12073      12084      12083  
     11952      11953      11964      11963      12073      12074      12085      12084  
     11953      11954      11965      11964      12074      12075      12086      12085  
     11954      11955      11966      11965      12075      12076      12087      12086  
     11955      11956      11967      11966      12076      12077      12088      12087  
     11956      11957      11968      11967      12077      12078      12089      12088  
     11958      11959      11970      11969      12079      12080      12091      12090  
     11959      11960      11971      11970      12080      12081      12092      12091  
     11960      11961      11972      11971      12081      12082      12093      12092  
     11961      11962      11973      11972      12082      12083      12094      12093  
     11962      11963      11974      11973      12083      12084      12095      12094  
     11963      11964      11975      11974      12084      12085      12096      12095  
     11964      11965      11976      11975      12085      12086      12097      12096  
     11965      11966      11977      11976      12086      12087      12098      12097  
     11966      11967      11978      11977      12087      12088      12099      12098  
     11967      11968      11979      11978      12088      12089      12100      12099  
     11980      11981      11992      11991      12101      12102      12113      12112  
     11981      11982      11993      11992      12102      12103      12114      12113  
     11982      11983      11994      11993      12103      12104      12115      12114  
     11983      11984      11995      11994      12104      12105      12116      12115  
     11984      11985      11996      11995      12105      12106      12117      12116  
     11985      11986      11997      11996      12106      12107      12118      12117  
     11986      11987      11998      11997      12107      12108      12119      12118  
     11987      11988      11999      11998      12108      12109      12120      12119  
     11988      11989      12000      11999      12109      12110      12121      12120  
     11989      11990      12001      12000      12110      12111      12122      12121  
     11991      11992      12003      12002      12112      12113      12124      12123  
     11992      11993      12004      12003      12113      12114      12125      12124  
     11993      11994      12005      12004      12114      12115      12126      12125  
     11994      11995      12006      12005      12115      12116      12127      12126  
     11995      11996      12007      12006      12116      12117      12128      12127  
     11996      11997      12008      12007      12117      12118      12129      12128  
     11997      11998      12009      12008      12118      12119      12130      12129  
     11998      11999      12010      12009      12119      12120      12131      12130  
     11999      12000      12011      12010      12120      12121      12132      12131  
     12000      12001      12012      12011      12121      12122      12133      12132  
     12002      12003      12014      12013      12123      12124      12135      12134  
     12003      12004      12015      12014      12124      12125      12136      12135  
     12004      12005      12016      12015      12125      12126      12137      12136  
     12005      12006      12017      12016      12126      12127      12138      12137  
     12006      12007      12018      12017      12127      12128      12139      12138  
     12007      12008      12019      12018      12128      12129      12140      12139  
     12008      12009      12020      12019      12129      12130      12141      12140  
     12009      12010      12021      12020      12130      12131      12142      12141  
     12010      12011      12022      12021      12131      12132      12143      12142  
     12011      12012      12023      12022      12132      12133      12144      12143  
     12013      12014      12025      12024      12134      12135      12146      12145  
     12014      12015      12026      12025      12135      12136      12147      12146  
     12015      12016      12027      12026      12136      12137      12148      12147  
     12016      12017      12028      12027      12137      12138      12149      12148  
     12017      12018      12029      12028      12138      12139      12150      12149  
     12018      12019      12030      12029      12139      12140      12151      12150  
     12019      12020      12031      12030      12140      12141      12152      12151  
     12020      12021      12032      12031      12141      12142      12153      12152  
     12021      12022      12033      12032      12142      12143      12154      12153  
     12022      12023      12034      12033      12143      12144      12155      12154  
     12024      12025      12036      12035      12145      12146      12157      12156  
     12025      12026      12037      12036      12146      12147      12158      12157  
     12026      12027      12038      12037      12147      12148      12159      12158  
     12027      12028      12039      12038      12148      12149      12160      12159  
     12028      12029      12040      12039      12149      12150      12161      12160  
     12029      12030      12041      12040      12150      12151      12162      12161  
     12030      12031      12042      12041      12151      12152      12163      12162  
     12031      12032      12043      12042      12152      12153      12164      12163  
     12032      12033      12044      12043      12153      12154      12165      12164  
     12033      12034      12045      12044      12154      12155      12166      12165  
     12035      12036      12047      12046      12156      12157      12168      12167  
     12036      12037      12048      12047      12157      12158      12169      12168  
     12037      12038      12049      12048      12158      12159      12170      12169  
     12038      12039      12050      12049      12159      12160      12171      12170  
     12039      12040      12051      12050      12160      12161      12172      12171  
     12040      12041      12052      12051      12161      12162      12173      12172  
     12041      12042      12053      12052      12162      12163      12174      12173  
     12042      12043      12054      12053      12163      12164      12175      12174  
     12043      12044      12055      12054      12164      12165      12176      12175  
     12044      12045      12056      12055      12165      12166      12177      12176  
     12046      12047      12058      12057      12167      12168      12179      12178  
     12047      12048      12059      12058      12168      12169      12180      12179  
     12048      12049      12060      12059      12169      12170      12181      12180  
     12049      12050      12061      12060      12170      12171      12182      12181  
     12050      12051      12062      12061      12171      12172      12183      12182  
     12051      12052      12063      12062      12172      12173      12184      12183  
     12052      12053      12064      12063      12173      12174      12185      12184  
     12053      12054      12065      12064      12174      12175      12186      12185  
     12054      12055      12066      12065      12175      12176      12187      12186  
     12055      12056      12067      12066      12176      12177      12188      12187  
     12057      12058      12069      12068      12178      12179      12190      12189  
     12058      12059      12070      12069      12179      12180      12191      12190  
     12059      12060      12071      12070      12180      12181      12192      12191  
     12060      12061      12072      12071      12181      12182      12193      12192  
     12061      12062      12073      12072      12182      12183      12194      12193  
     12062      12063      12074      12073      12183      12184      12195      12194  
     12063      12064      12075      12074      12184      12185      12196      12195  
     12064      12065      12076      12075      12185      12186      12197      12196  
     12065      12066      12077      12076      12186      12187      12198      12197  
     12066      12067      12078      12077      12187      12188      12199      12198  
     12068      12069      12080      12079      12189      12190      12201      12200  
     12069      12070      12081      12080      12190      12191      12202      12201  
     12070      12071      12082      12081      12191      12192      12203      12202  
     12071      12072      12083      12082      12192      12193      12204      12203  
     12072      12073      12084      12083      12193      12194      12205      12204  
     12073      12074      12085      12084      12194      12195      12206      12205  
     12074      12075      12086      12085      12195      12196      12207      12206  
     12075      12076      12087      12086      12196      12197      12208      12207  
     12076      12077      12088      12087      12197      12198      12209      12208  
     12077      12078      12089      12088      12198      12199      12210      12209  
     12079      12080      12091      12090      12200      12201      12212      12211  
     12080      12081      12092      12091      12201      12202      12213      12212  
     12081      12082      12093      12092      12202      12203      12214      12213  
     12082      12083      12094      12093      12203      12204      12215      12214  
     12083      12084      12095      12094      12204      12205      12216      12215  
     12084      12085      12096      12095      12205      12206      12217      12216  
     12085      12086      12097      12096      12206      12207      12218      12217  
     12086      12087      12098      12097      12207      12208      12219      12218  
     12087      12088      12099      12098      12208      12209      12220      12219  
     12088      12089      12100      12099      12209      12210      12221      12220  
