TITLE="results for TO code"
VARIABLES = "x", "y", "z", "density", "sigmaxx", "sigmayy", "sigmazz", "sigmaxy", "sigmaxz", "sigmayz"
ZONE T="load step 0", NODES= 12221, ELEMENTS= 10000, DATAPACKING=POINT, ZONETYPE=FEBRICK
               0.00000000                0.00000000                0.00000000                1.00000000               -0.00000000               -0.00000000                0.14835642               -0.00000000                0.07267093                0.07267034
               1.00000000                0.00000000                0.00000000                1.00000000                0.00000000                0.00000000                0.07439575               -0.00000000                0.02163805                0.05505511
               2.00000000                0.00000000                0.00000000                1.00000000               -0.00000000               -0.00000000                0.03824323               -0.00000000                0.01031438                0.03053729
               3.00000000                0.00000000                0.00000000                1.00000000               -0.00000000               -0.00000000                0.04054056                0.00000000                0.00994889                0.02863066
               4.00000000                0.00000000                0.00000000                1.00000000               -0.00000000                0.00000000                0.04548792                0.00000000                0.01015974                0.03209157
               5.00000000                0.00000000                0.00000000                1.00000000               -0.00000000               -0.00000000                0.05447746                0.00000000                0.00992853                0.03840989
               6.00000000                0.00000000                0.00000000                1.00000000                0.00000000                0.00000000                0.06817471                0.00000000                0.00847209                0.04811641
               7.00000000                0.00000000                0.00000000                1.00000000                0.00000000                0.00000000                0.08854199               -0.00000000                0.00368730                0.06257757
               8.00000000                0.00000000                0.00000000                1.00000000               -0.00000000                0.00000000                0.11851717               -0.00000000               -0.00997720                0.08346633
               9.00000000                0.00000000                0.00000000                1.00000000               -0.00000000               -0.00000000                0.16261501                0.00000000               -0.04794776                0.10749751
              10.00000000                0.00000000                0.00000000                1.00000000                0.00000000                0.00000000                0.24924960               -0.00000000               -0.13630435                0.11127153
               0.00000000                1.00000000                0.00000000                1.00000000               -0.00000000                0.00000000                0.07439578               -0.00000000                0.05505525                0.02163756
               1.00000000                1.00000000                0.00000000                1.00000000               -0.00000000               -0.00000000                0.02448324                0.00000000                0.02248495                0.02248482
               2.00000000                1.00000000                0.00000000                1.00000000               -0.00000000                0.00000000                0.00957220                0.00000000                0.01199563                0.00903262
               3.00000000                1.00000000                0.00000000                1.00000000                0.00000000                0.00000000                0.01165340               -0.00000000                0.00711947                0.00521727
               4.00000000                1.00000000                0.00000000                1.00000000               -0.00000000               -0.00000000                0.01394883                0.00000000                0.00503346                0.00527430
               5.00000000                1.00000000                0.00000000                1.00000000               -0.00000000                0.00000000                0.01729878               -0.00000000                0.00338666                0.00639433
               6.00000000                1.00000000                0.00000000                1.00000000               -0.00000000               -0.00000000                0.02212585                0.00000000                0.00079537                0.00862268
               7.00000000                1.00000000                0.00000000                1.00000000               -0.00000000                0.00000000                0.02942705                0.00000000               -0.00429674                0.01277323
               8.00000000                1.00000000                0.00000000                1.00000000                0.00000000               -0.00000000                0.04142948               -0.00000000               -0.01470165                0.02018852
               9.00000000                1.00000000                0.00000000                1.00000000                0.00000000                0.00000000                0.06262067               -0.00000000               -0.03665749                0.03145070
              10.00000000                1.00000000                0.00000000                1.00000000               -0.00000000               -0.00000000                0.12126398               -0.00000000               -0.09045179                0.01400132
               0.00000000                2.00000000                0.00000000                1.00000000                0.00000000                0.00000000                0.03824290                0.00000000                0.03053710                0.01031405
               1.00000000                2.00000000                0.00000000                1.00000000               -0.00000000               -0.00000000                0.00957211               -0.00000000                0.00903259                0.01199553
               2.00000000                2.00000000                0.00000000                1.00000000               -0.00000000                0.00000000               -0.00098315                0.00000000                0.00465281                0.00465281
               3.00000000                2.00000000                0.00000000                1.00000000               -0.00000000                0.00000000               -0.00057411                0.00000000                0.00233099                0.00216657
               4.00000000                2.00000000                0.00000000                1.00000000                0.00000000                0.00000000               -0.00088618               -0.00000000                0.00084611                0.00166019
               5.00000000                2.00000000                0.00000000                1.00000000                0.00000000                0.00000000               -0.00112238               -0.00000000               -0.00012618                0.00201256
               6.00000000                2.00000000                0.00000000                1.00000000                0.00000000               -0.00000000               -0.00139803               -0.00000000               -0.00123206                0.00298642
               7.00000000                2.00000000                0.00000000                1.00000000                0.00000000                0.00000000               -0.00169186               -0.00000000               -0.00288393                0.00495423
               8.00000000                2.00000000                0.00000000                1.00000000                0.00000000               -0.00000000               -0.00190181                0.00000000               -0.00526374                0.00849890
               9.00000000                2.00000000                0.00000000                1.00000000                0.00000000                0.00000000               -0.00077890               -0.00000000               -0.00736001                0.01303336
              10.00000000                2.00000000                0.00000000                1.00000000               -0.00000000               -0.00000000                0.00622189                0.00000000               -0.01153787               -0.00363392
               0.00000000                3.00000000                0.00000000                1.00000000               -0.00000000               -0.00000000                0.04054003               -0.00000000                0.02863031                0.00994867
               1.00000000                3.00000000                0.00000000                1.00000000               -0.00000000                0.00000000                0.01165327                0.00000000                0.00521721                0.00711939
               2.00000000                3.00000000                0.00000000                1.00000000               -0.00000000               -0.00000000               -0.00057410               -0.00000000                0.00216654                0.00233099
               3.00000000                3.00000000                0.00000000                1.00000000                0.00000000                0.00000000                0.00028485               -0.00000000                0.00114162                0.00114163
               4.00000000                3.00000000                0.00000000                1.00000000               -0.00000000                0.00000000                0.00017904               -0.00000000                0.00037539                0.00084506
               5.00000000                3.00000000                0.00000000                1.00000000                0.00000000                0.00000000                0.00020382               -0.00000000               -0.00015741                0.00098379
               6.00000000                3.00000000                0.00000000                1.00000000               -0.00000000               -0.00000000                0.00026291                0.00000000               -0.00062054                0.00146932
               7.00000000                3.00000000                0.00000000                1.00000000                0.00000000               -0.00000000                0.00035817               -0.00000000               -0.00106523                0.00238457
               8.00000000                3.00000000                0.00000000                1.00000000                0.00000000                0.00000000                0.00045622               -0.00000000               -0.00110939                0.00381730
               9.00000000                3.00000000                0.00000000                1.00000000               -0.00000000                0.00000000                0.00074263                0.00000000                0.00045519                0.00404423
              10.00000000                3.00000000                0.00000000                1.00000000               -0.00000000               -0.00000000                0.00042720               -0.00000000                0.00090297                0.00049395
               0.00000000                4.00000000                0.00000000                1.00000000               -0.00000000               -0.00000000                0.04548724               -0.00000000                0.03209113                0.01015962
               1.00000000                4.00000000                0.00000000                1.00000000                0.00000000                0.00000000                0.01394866               -0.00000000                0.00527423                0.00503342
               2.00000000                4.00000000                0.00000000                1.00000000                0.00000000               -0.00000000               -0.00088617                0.00000000                0.00166017                0.00084611
               3.00000000                4.00000000                0.00000000                1.00000000                0.00000000                0.00000000                0.00017904                0.00000000                0.00084505                0.00037539
               4.00000000                4.00000000                0.00000000                1.00000000                0.00000000                0.00000000                0.00004950               -0.00000000                0.00032061                0.00032061
               5.00000000                4.00000000                0.00000000                1.00000000                0.00000000                0.00000000                0.00004557                0.00000000                0.00000001                0.00040278
               6.00000000                4.00000000                0.00000000                1.00000000                0.00000000               -0.00000000                0.00005213               -0.00000000               -0.00021384                0.00059761
               7.00000000                4.00000000                0.00000000                1.00000000                0.00000000                0.00000000                0.00006639               -0.00000000               -0.00029897                0.00091288
               8.00000000                4.00000000                0.00000000                1.00000000                0.00000000                0.00000000                0.00009577               -0.00000000               -0.00005590                0.00117047
               9.00000000                4.00000000                0.00000000                1.00000000                0.00000000               -0.00000000                0.00081786                0.00000000                0.00018385                0.00117359
              10.00000000                4.00000000                0.00000000                1.00000000                0.00000000                0.00000000                0.00224913                0.00000000               -0.00149728                0.00239925
               0.00000000                5.00000000                0.00000000                1.00000000                0.00000000                0.00000000                0.05447669                0.00000000                0.03840941                0.00992852
               1.00000000                5.00000000                0.00000000                1.00000000               -0.00000000               -0.00000000                0.01729859                0.00000000                0.00639427                0.00338667
               2.00000000                5.00000000                0.00000000                1.00000000                0.00000000                0.00000000               -0.00112236               -0.00000000                0.00201255               -0.00012618
               3.00000000                5.00000000                0.00000000                1.00000000               -0.00000000               -0.00000000                0.00020382                0.00000000                0.00098378               -0.00015741
               4.00000000                5.00000000                0.00000000                1.00000000               -0.00000000                0.00000000                0.00004557               -0.00000000                0.00040278                0.00000001
               5.00000000                5.00000000                0.00000000                1.00000000                0.00000000               -0.00000000                0.00003955               -0.00000000                0.00009849                0.00009849
               6.00000000                5.00000000                0.00000000                1.00000000               -0.00000000                0.00000000                0.00003715               -0.00000000               -0.00007261                0.00015807
               7.00000000                5.00000000                0.00000000                1.00000000                0.00000000               -0.00000000                0.00007505                0.00000000               -0.00014449                0.00018205
               8.00000000                5.00000000                0.00000000                1.00000000               -0.00000000                0.00000000                0.00028205               -0.00000000               -0.00021606                0.00018191
               9.00000000                5.00000000                0.00000000                1.00000000                0.00000000               -0.00000000                0.00227352               -0.00000000               -0.00101404                0.00063814
              10.00000000                5.00000000                0.00000000                1.00000000               -0.00000000                0.00000000                0.00697331                0.00000000               -0.00611049                0.00392534
               0.00000000                6.00000000                0.00000000                1.00000000               -0.00000000               -0.00000000                0.06817392                0.00000000                0.04811595                0.00847220
               1.00000000                6.00000000                0.00000000                1.00000000                0.00000000               -0.00000000                0.02212569                0.00000000                0.00862267                0.00079544
               2.00000000                6.00000000                0.00000000                1.00000000               -0.00000000               -0.00000000               -0.00139801               -0.00000000                0.00298641               -0.00123205
               3.00000000                6.00000000                0.00000000                1.00000000                0.00000000                0.00000000                0.00026291                0.00000000                0.00146931               -0.00062055
               4.00000000                6.00000000                0.00000000                1.00000000                0.00000000               -0.00000000                0.00005213               -0.00000000                0.00059761               -0.00021384
               5.00000000                6.00000000                0.00000000                1.00000000                0.00000000               -0.00000000                0.00003715               -0.00000000                0.00015807               -0.00007261
               6.00000000                6.00000000                0.00000000                1.00000000               -0.00000000                0.00000000                0.00005615                0.00000000               -0.00009773               -0.00009774
               7.00000000                6.00000000                0.00000000                1.00000000                0.00000000               -0.00000000                0.00027259               -0.00000000               -0.00033331               -0.00025657
               8.00000000                6.00000000                0.00000000                1.00000000               -0.00000000               -0.00000000                0.00106464               -0.00000000               -0.00085022               -0.00047703
               9.00000000                6.00000000                0.00000000                1.00000000               -0.00000000               -0.00000000                0.00566381                0.00000000               -0.00315048                0.00010248
              10.00000000                6.00000000                0.00000000                1.00000000                0.00000000               -0.00000000                0.01658877               -0.00000000               -0.01475931                0.00610713
               0.00000000                7.00000000                0.00000000                1.00000000                0.00000000                0.00000000                0.08854123               -0.00000000                0.06257720                0.00368753
               1.00000000                7.00000000                0.00000000                1.00000000               -0.00000000               -0.00000000                0.02942696                0.00000000                0.01277332               -0.00429659
               2.00000000                7.00000000                0.00000000                1.00000000               -0.00000000                0.00000000               -0.00169183                0.00000000                0.00495424               -0.00288392
               3.00000000                7.00000000                0.00000000                1.00000000               -0.00000000               -0.00000000                0.00035817                0.00000000                0.00238457               -0.00106524
               4.00000000                7.00000000                0.00000000                1.00000000               -0.00000000                0.00000000                0.00006640                0.00000000                0.00091288               -0.00029898
               5.00000000                7.00000000                0.00000000                1.00000000               -0.00000000                0.00000000                0.00007506               -0.00000000                0.00018205               -0.00014451
               6.00000000                7.00000000                0.00000000                1.00000000                0.00000000               -0.00000000                0.00027260               -0.00000000               -0.00025657               -0.00033332
               7.00000000                7.00000000                0.00000000                1.00000000               -0.00000000               -0.00000000                0.00108598                0.00000000               -0.00086123               -0.00086124
               8.00000000                7.00000000                0.00000000                1.00000000                0.00000000               -0.00000000                0.00331148               -0.00000000               -0.00243000               -0.00188968
               9.00000000                7.00000000                0.00000000                1.00000000               -0.00000000               -0.00000000                0.01295664                0.00000000               -0.00773197               -0.00219637
              10.00000000                7.00000000                0.00000000                1.00000000               -0.00000000                0.00000000                0.03538044               -0.00000000               -0.03104987                0.00770877
               0.00000000                8.00000000                0.00000000                1.00000000               -0.00000000               -0.00000000                0.11851637               -0.00000000                0.08346599               -0.00997684
               1.00000000                8.00000000                0.00000000                1.00000000                0.00000000               -0.00000000                0.04142956                0.00000000                0.02018871               -0.01470136
               2.00000000                8.00000000                0.00000000                1.00000000                0.00000000                0.00000000               -0.00190171               -0.00000000                0.00849890               -0.00526373
               3.00000000                8.00000000                0.00000000                1.00000000               -0.00000000                0.00000000                0.00045622                0.00000000                0.00381730               -0.00110943
               4.00000000                8.00000000                0.00000000                1.00000000                0.00000000                0.00000000                0.00009578               -0.00000000                0.00117048               -0.00005593
               5.00000000                8.00000000                0.00000000                1.00000000               -0.00000000               -0.00000000                0.00028209               -0.00000000                0.00018191               -0.00021611
               6.00000000                8.00000000                0.00000000                1.00000000               -0.00000000                0.00000000                0.00106471                0.00000000               -0.00047704               -0.00085029
               7.00000000                8.00000000                0.00000000                1.00000000                0.00000000                0.00000000                0.00331155               -0.00000000               -0.00188970               -0.00243006
               8.00000000                8.00000000                0.00000000                1.00000000                0.00000000                0.00000000                0.00875202               -0.00000000               -0.00569276               -0.00569272
               9.00000000                8.00000000                0.00000000                1.00000000                0.00000000               -0.00000000                0.02754154               -0.00000000               -0.01754562               -0.01000124
              10.00000000                8.00000000                0.00000000                1.00000000               -0.00000000                0.00000000                0.06970000               -0.00000000               -0.06021209                0.00276009
               0.00000000                9.00000000                0.00000000                1.00000000               -0.00000000               -0.00000000                0.16261392                0.00000000                0.10749681               -0.04794686
               1.00000000                9.00000000                0.00000000                1.00000000                0.00000000               -0.00000000                0.06262120                0.00000000                0.03145094               -0.03665708
               2.00000000                9.00000000                0.00000000                1.00000000               -0.00000000               -0.00000000               -0.00077849               -0.00000000                0.01303336               -0.00736017
               3.00000000                9.00000000                0.00000000                1.00000000                0.00000000               -0.00000000                0.00074268               -0.00000000                0.00404431                0.00045506
               4.00000000                9.00000000                0.00000000                1.00000000               -0.00000000               -0.00000000                0.00081800                0.00000000                0.00117362                0.00018376
               5.00000000                9.00000000                0.00000000                1.00000000               -0.00000000                0.00000000                0.00227375                0.00000000                0.00063813               -0.00101421
               6.00000000                9.00000000                0.00000000                1.00000000               -0.00000000                0.00000000                0.00566413               -0.00000000                0.00010242               -0.00315071
               7.00000000                9.00000000                0.00000000                1.00000000               -0.00000000               -0.00000000                0.01295700                0.00000000               -0.00219654               -0.00773219
               8.00000000                9.00000000                0.00000000                1.00000000                0.00000000               -0.00000000                0.02754179               -0.00000000               -0.01000160               -0.01754558
               9.00000000                9.00000000                0.00000000                1.00000000               -0.00000000                0.00000000                0.06916941                0.00000000               -0.03287278               -0.03287211
              10.00000000                9.00000000                0.00000000                1.00000000                0.00000000               -0.00000000                0.14181959               -0.00000000               -0.10603311               -0.02921753
               0.00000000               10.00000000                0.00000000                1.00000000                0.00000000                0.00000000                0.24924573               -0.00000000                0.11127083               -0.13630102
               1.00000000               10.00000000                0.00000000                1.00000000               -0.00000000               -0.00000000                0.12126392               -0.00000000                0.01400263               -0.09045122
               2.00000000               10.00000000                0.00000000                1.00000000                0.00000000               -0.00000000                0.00622319                0.00000000               -0.00363371               -0.01153882
               3.00000000               10.00000000                0.00000000                1.00000000               -0.00000000               -0.00000000                0.00042743               -0.00000000                0.00049402                0.00090267
               4.00000000               10.00000000                0.00000000                1.00000000               -0.00000000                0.00000000                0.00224958               -0.00000000                0.00239936               -0.00149768
               5.00000000               10.00000000                0.00000000                1.00000000                0.00000000               -0.00000000                0.00697403               -0.00000000                0.00392542               -0.00611113
               6.00000000               10.00000000                0.00000000                1.00000000                0.00000000               -0.00000000                0.01658972                0.00000000                0.00610702               -0.01476014
               7.00000000               10.00000000                0.00000000                1.00000000                0.00000000                0.00000000                0.03538132                0.00000000                0.00770825               -0.03105061
               8.00000000               10.00000000                0.00000000                1.00000000               -0.00000000                0.00000000                0.06970020                0.00000000                0.00275898               -0.06021210
               9.00000000               10.00000000                0.00000000                1.00000000                0.00000000               -0.00000000                0.14181825               -0.00000000               -0.02921904               -0.10603178
              10.00000000               10.00000000                0.00000000                1.00000000               -0.00000000                0.00000000                0.23276252                0.00000000               -0.12680692               -0.12680542
               0.00000000                0.00000000                1.00000000                0.74748847               -0.05103288               -0.05103278                0.18728126               -0.03523092                0.01577224                0.01577138
               1.00000000                0.00000000                1.00000000                0.48730483               -0.03117827               -0.03257029                0.15201269               -0.02021963                0.00228778                0.04179674
               2.00000000                0.00000000                1.00000000                0.48692967               -0.00584458               -0.02150467                0.14624434               -0.01153098                0.02131354                0.05220265
               3.00000000                0.00000000                1.00000000                0.49712074               -0.00007732               -0.02341339                0.14881711               -0.00205228                0.03621348                0.03790943
               4.00000000                0.00000000                1.00000000                0.51240528               -0.00001018               -0.02681727                0.15856653               -0.00023667                0.03417904                0.03229760
               5.00000000                0.00000000                1.00000000                0.53380759               -0.00084383               -0.03201557                0.17337367                0.00147054                0.03017208                0.02944237
               6.00000000                0.00000000                1.00000000                0.56270000               -0.00312062               -0.03949373                0.19263554                0.00440712                0.02277757                0.02760326
               7.00000000                0.00000000                1.00000000                0.60150912               -0.00922465               -0.04980434                0.21553339                0.00969092                0.01107091                0.02484757
               8.00000000                0.00000000                1.00000000                0.65543783               -0.02581753               -0.06327781                0.24126331                0.01773552               -0.00638261                0.01851465
               9.00000000                0.00000000                1.00000000                0.73886779               -0.06316357               -0.07604681                0.27078753                0.02519287               -0.01815417                0.00266424
              10.00000000                0.00000000                1.00000000                0.91056504               -0.08835659               -0.09727020                0.31316851                0.04962657               -0.04218494               -0.02047286
               0.00000000                1.00000000                1.00000000                0.48730500               -0.03257030               -0.03117815                0.15201222               -0.02021966                0.04179663                0.00228678
               1.00000000                1.00000000                1.00000000                0.01000001               -0.02152981               -0.02152979                0.11367487               -0.01260520                0.02338352                0.02338337
               2.00000000                1.00000000                1.00000000                0.01000001               -0.00768274               -0.01294224                0.10997072               -0.01146457                0.04592083                0.00514482
               3.00000000                1.00000000                1.00000000                0.01000001               -0.00348109               -0.01323205                0.11830377               -0.00568811                0.04389844               -0.00971195
               4.00000000                1.00000000                1.00000000                0.01000000               -0.00186640               -0.01521569                0.13230704               -0.00406829                0.03245678               -0.01873681
               5.00000000                1.00000000                1.00000000                0.01000000               -0.00211904               -0.01819866                0.14893860               -0.00335317                0.02039414               -0.02329973
               6.00000000                1.00000000                1.00000000                0.03819983               -0.00384170               -0.02256500                0.16877906               -0.00166262                0.00561746               -0.02530145
               7.00000000                1.00000000                1.00000000                0.08282375               -0.00774851               -0.02881167                0.19302087                0.00249731               -0.01287500               -0.02577707
               8.00000000                1.00000000                1.00000000                0.14728517               -0.01618037               -0.03748372                0.22271201                0.01169546               -0.03461070               -0.02731676
               9.00000000                1.00000000                1.00000000                0.25166685               -0.03787507               -0.04723207                0.25691431                0.01720028               -0.04909444               -0.03550750
              10.00000000                1.00000000                1.00000000                0.67977060               -0.05379430               -0.05745272                0.30076200                0.04493386               -0.08417920               -0.06472356
               0.00000000                2.00000000                1.00000000                0.48693033               -0.02150451               -0.00584445                0.14624245               -0.01153099                0.05220203                0.02131248
               1.00000000                2.00000000                1.00000000                0.01000001               -0.01294215               -0.00768272                0.10996977               -0.01146449                0.00514482                0.04592043
               2.00000000                2.00000000                1.00000000                0.01000001               -0.00335080               -0.00335081                0.13037687               -0.00982902                0.05144178                0.05144164
               3.00000000                2.00000000                1.00000000                0.01000001               -0.00190335               -0.00203782                0.13386941               -0.00448524                0.06926398                0.05420038
               4.00000000                2.00000000                1.00000000                0.01000001               -0.00122859               -0.00221462                0.29996770               -0.00240604                0.07332924                0.04033862
               5.00000000                2.00000000                1.00000000                0.01000000               -0.00103908               -0.00270527                0.35573314               -0.00110892                0.03110732                0.03895912
               6.00000000                2.00000000                1.00000000                0.01000000               -0.00137888               -0.00357668                0.36601086                0.00076288                0.00031436                0.03157956
               7.00000000                2.00000000                1.00000000                0.01000000               -0.00201584               -0.00519433                0.37157428                0.00437200               -0.03013342                0.02584820
               8.00000000                2.00000000                1.00000000                0.01906261               -0.00223804               -0.00818561                0.37421872                0.01083570               -0.06205443                0.01938844
               9.00000000                2.00000000                1.00000000                0.07149677               -0.00313706               -0.01370324                0.36963366                0.01248993               -0.09066400                0.00970077
              10.00000000                2.00000000                1.00000000                0.56844078               -0.00417787               -0.00675369                0.39269008                0.02901010               -0.13938047               -0.01905024
               0.00000000                3.00000000                1.00000000                0.49712208               -0.02341310               -0.00007721                0.14881405               -0.00205227                0.03790848                0.03621273
               1.00000000                3.00000000                1.00000000                0.01000001               -0.01323188               -0.00348105                0.11830194               -0.00568802               -0.00971190                0.04389808
               2.00000000                3.00000000                1.00000000                0.01000001               -0.00203779               -0.00190335                0.13386718               -0.00448520                0.05420046                0.06926363
               3.00000000                3.00000000                1.00000000                0.01000001               -0.00089558               -0.00089559                0.18097863               -0.00148594                0.08408117                0.08408181
               4.00000000                3.00000000                1.00000000                0.01000001               -0.00064951               -0.00066979                0.25690169               -0.00034167                0.08646955                0.08501730
               5.00000000                3.00000000                1.00000000                0.01000001               -0.00049796               -0.00080489                0.23708854                0.00037522                0.07501980                0.10033811
               6.00000000                3.00000000                1.00000000                0.01323360               -0.00045391               -0.00119441                0.77366004                0.00120950               -0.01783934                0.14420337
               7.00000000                3.00000000                1.00000000                0.01000001               -0.00024442               -0.00202068                0.79532708                0.00246648               -0.07171815                0.14647842
               8.00000000                3.00000000                1.00000000                0.03059372                0.00076021               -0.00366421                0.70771856                0.00343375               -0.08548709                0.15038798
               9.00000000                3.00000000                1.00000000                0.08551377                0.00100618               -0.00592989                0.59820624                0.00211025               -0.09399129                0.13329648
              10.00000000                3.00000000                1.00000000                0.57856779                0.00044778                0.00301658                0.57865926                0.00147002               -0.15217467                0.10974807
               0.00000000                4.00000000                1.00000000                0.51240755               -0.02681690               -0.00001007                0.15856234               -0.00023666                0.03229639                0.03417862
               1.00000000                4.00000000                1.00000000                0.01000000               -0.01521548               -0.00186636                0.13230432               -0.00406823               -0.01873658                0.03245663
               2.00000000                4.00000000                1.00000000                0.01000001               -0.00221459               -0.00122859                0.29997742               -0.00240601                0.04034031                0.07332717
               3.00000000                4.00000000                1.00000000                0.01000001               -0.00066978               -0.00064952                0.25690483               -0.00034167                0.08501867                0.08647535
               4.00000000                4.00000000                1.00000000                0.01258947               -0.00042252               -0.00042253                0.19250604                0.00002740                0.11418951                0.11418673
               5.00000000                4.00000000                1.00000000                0.01104595               -0.00026722               -0.00044265                0.80658126                0.00026645                0.02307322                0.09250573
               6.00000000                4.00000000                1.00000000                0.01321616               -0.00014949               -0.00065562                0.92163617                0.00052901               -0.03788706                0.07446277
               7.00000000                4.00000000                1.00000000                0.02186577                0.00007897               -0.00110126                0.86180934                0.00074680               -0.06398764                0.10011538
               8.00000000                4.00000000                1.00000000                0.05728575                0.00024141               -0.00181770                0.75211612                0.00057702               -0.06966946                0.12110264
               9.00000000                4.00000000                1.00000000                0.12679191               -0.00072069               -0.00170305                0.63080347               -0.00012023               -0.07566008                0.12172506
              10.00000000                4.00000000                1.00000000                0.60735885               -0.00168113                0.00171569                0.59255594               -0.00228106               -0.12764126                0.10830331
               0.00000000                5.00000000                1.00000000                0.53381107               -0.03201513               -0.00084371                0.17336833                0.00147055                0.02944094                0.03017207
               1.00000000                5.00000000                1.00000000                0.01000000               -0.01819843               -0.00211899                0.14893500               -0.00335313               -0.02329928                0.02039434
               2.00000000                5.00000000                1.00000000                0.01000000               -0.00270525               -0.00103908                0.35572731               -0.00110892                0.03895904                0.03110796
               3.00000000                5.00000000                1.00000000                0.01000001               -0.00080488               -0.00049797                0.23709652                0.00037523                0.10033751                0.07501497
               4.00000000                5.00000000                1.00000000                0.01104662               -0.00044264               -0.00026723                0.80658381                0.00026645                0.09251693                0.02306082
               5.00000000                5.00000000                1.00000000                0.01215251               -0.00023769               -0.00023770                0.95078608                0.00015806                0.01146678                0.01145235
               6.00000000                5.00000000                1.00000000                0.01876440               -0.00012149               -0.00034767                0.91448152                0.00009983               -0.02022723                0.03332148
               7.00000000                5.00000000                1.00000000                0.04905791               -0.00007173               -0.00058472                0.82026871               -0.00000525               -0.03541437                0.06329714
               8.00000000                5.00000000                1.00000000                0.09392737               -0.00043478               -0.00082375                0.70393853               -0.00016912               -0.04641676                0.08499463
               9.00000000                5.00000000                1.00000000                0.18080661               -0.00294721               -0.00053555                0.58415604                0.00020455               -0.05865882                0.09104381
              10.00000000                5.00000000                1.00000000                0.64342173               -0.00509644                0.00185394                0.53856989               -0.00334381               -0.11791532                0.08918021
               0.00000000                6.00000000                1.00000000                0.56270497               -0.03949328               -0.00312050                0.19262896                0.00440714                0.02760162                0.02277808
               1.00000000                6.00000000                1.00000000                0.03820530               -0.02256477               -0.00384163                0.16877462               -0.00166260               -0.02530074                0.00561821
               2.00000000                6.00000000                1.00000000                0.01000000               -0.00357668               -0.00137887                0.36600078                0.00076285                0.03157850                0.00031702
               3.00000000                6.00000000                1.00000000                0.01323571               -0.00119440               -0.00045391                0.77364073                0.00120950                0.14421517               -0.01784575
               4.00000000                6.00000000                1.00000000                0.01321774               -0.00065562               -0.00014949                0.92160867                0.00052902                0.07447721               -0.03789620
               5.00000000                6.00000000                1.00000000                0.01876534               -0.00034767               -0.00012150                0.91447060                0.00009983                0.03333328               -0.02023848
               6.00000000                6.00000000                1.00000000                0.04682761               -0.00024569               -0.00024570                0.84142124               -0.00018396                0.00878840                0.00878027
               7.00000000                6.00000000                1.00000000                0.08560477               -0.00037624               -0.00052164                0.74015010               -0.00054802               -0.01164468                0.03406733
               8.00000000                6.00000000                1.00000000                0.14172965               -0.00140858               -0.00103579                0.63182699               -0.00092744               -0.03109603                0.05177584
               9.00000000                6.00000000                1.00000000                0.24807827               -0.00695454               -0.00141725                0.52436848               -0.00006688               -0.04923523                0.06179810
              10.00000000                6.00000000                1.00000000                0.68671316               -0.01160883                0.00189172                0.48100324               -0.00646505               -0.10804410                0.06846276
               0.00000000                7.00000000                1.00000000                0.60151589               -0.04980388               -0.00922452                0.21552538                0.00969091                0.02484571                0.01107204
               1.00000000                7.00000000                1.00000000                0.08283146               -0.02881148               -0.00774840                0.19301558                0.00249730               -0.02577613               -0.01287340
               2.00000000                7.00000000                1.00000000                0.01000000               -0.00519438               -0.00201584                0.37156298                0.00437192                0.02584745               -0.03013011
               3.00000000                7.00000000                1.00000000                0.01000001               -0.00202068               -0.00024444                0.79528835                0.00246646                0.14647908               -0.07172027
               4.00000000                7.00000000                1.00000000                0.02186866               -0.00110126                0.00007896                0.86177952                0.00074680                0.10012218               -0.06399515
               5.00000000                7.00000000                1.00000000                0.04906016               -0.00058472               -0.00007175                0.82025094               -0.00000525                0.06330262               -0.03542186
               6.00000000                7.00000000                1.00000000                0.08560606               -0.00052164               -0.00037627                0.74014268               -0.00054802                0.03407033               -0.01164944
               7.00000000                7.00000000                1.00000000                0.13485054               -0.00108672               -0.00108674                0.64935276               -0.00155637                0.00598243                0.00598145
               8.00000000                7.00000000                1.00000000                0.20446039               -0.00343537               -0.00260784                0.55839893               -0.00308883               -0.01936665                0.02004112
               9.00000000                7.00000000                1.00000000                0.33277130               -0.01430993               -0.00505186                0.47004561               -0.00239834               -0.03901847                0.03337720
              10.00000000                7.00000000                1.00000000                0.73925365               -0.02331790               -0.00167352                0.43391210               -0.01282124               -0.09221897                0.04759762
               0.00000000                8.00000000                1.00000000                0.65544680               -0.06327728               -0.02581719                0.24125366                0.01773528                0.01851259               -0.00638064
               1.00000000                8.00000000                1.00000000                0.14729580               -0.03748355               -0.01618025                0.22270569                0.01169536               -0.02731571               -0.03460781
               2.00000000                8.00000000                1.00000000                0.01906862               -0.00818570               -0.00223813                0.37420658                0.01083552                0.01938798               -0.06205042
               3.00000000                8.00000000                1.00000000                0.03059897               -0.00366421                0.00076015                0.70767919                0.00343377                0.15038062               -0.08548712
               4.00000000                8.00000000                1.00000000                0.05729052               -0.00181770                0.00024137                0.75208416                0.00057703                0.12110028               -0.06967436
               5.00000000                8.00000000                1.00000000                0.09393142               -0.00082376               -0.00043485                0.70391788               -0.00016913                0.08499289               -0.04642171
               6.00000000                8.00000000                1.00000000                0.14173266               -0.00103580               -0.00140869                0.63181576               -0.00092748                0.05177348               -0.03109854
               7.00000000                8.00000000                1.00000000                0.20446205               -0.00260786               -0.00343547                0.55839441               -0.00308887                0.02003821               -0.01936623
               8.00000000                8.00000000                1.00000000                0.29091395               -0.00782796               -0.00782795                0.48907352               -0.00757139               -0.00666160               -0.00665835
               9.00000000                8.00000000                1.00000000                0.44447497               -0.02725966               -0.01533787                0.42419543               -0.00834400               -0.02266998                0.01408320
              10.00000000                8.00000000                1.00000000                0.80580148               -0.04266647               -0.01846315                0.39698627               -0.02473029               -0.06642405                0.03661143
               0.00000000                9.00000000                1.00000000                0.73887969               -0.07604587               -0.06316209                0.27077589                0.02519220                0.00266245               -0.01815172
               1.00000000                9.00000000                1.00000000                0.25168155               -0.04723172               -0.03787493                0.25690634                0.01720030               -0.03550642               -0.04909031
               2.00000000                9.00000000                1.00000000                0.07150603               -0.01370332               -0.00313755                0.36962048                0.01248977                0.00970013               -0.09065910
               3.00000000                9.00000000                1.00000000                0.08552209               -0.00592987                0.00100605                0.59817047                0.00211032                0.13328492               -0.09399203
               4.00000000                9.00000000                1.00000000                0.12679964               -0.00170309               -0.00072087                0.63077343               -0.00012020                0.12171667               -0.07566492
               5.00000000                9.00000000                1.00000000                0.18081344               -0.00053560               -0.00294751                0.58413613                0.00020452                0.09103670               -0.05866267
               6.00000000                9.00000000                1.00000000                0.24808384               -0.00141734               -0.00695493                0.52435638               -0.00006696                0.06179132               -0.04923640
               7.00000000                9.00000000                1.00000000                0.33277520               -0.00505201               -0.01431027                0.47003881               -0.00239846                0.03337077               -0.03901718
               8.00000000                9.00000000                1.00000000                0.44447688               -0.01533812               -0.02725969                0.42419231               -0.00834410                0.01407729               -0.02266677
               9.00000000                9.00000000                1.00000000                0.63140309               -0.04801576               -0.04801527                0.38584314               -0.01167269                0.00619989                0.00620443
              10.00000000                9.00000000                1.00000000                0.91243997               -0.07316033               -0.06478275                0.36940287               -0.02964284               -0.02598725                0.02798294
               0.00000000               10.00000000                1.00000000                0.91057241               -0.09726820               -0.08835416                0.31315352                0.04962382               -0.02047267               -0.04218065
               1.00000000               10.00000000                1.00000000                0.67977994               -0.05745227               -0.05379414                0.30075057                0.04493279               -0.06472070               -0.08417282
               2.00000000               10.00000000                1.00000000                0.56844725               -0.00675430               -0.00417865                0.39267393                0.02900988               -0.01904973               -0.13937359
               3.00000000               10.00000000                1.00000000                0.57857382                0.00301653                0.00044761                0.57862317                0.00147028                0.10973959               -0.15217495
               4.00000000               10.00000000                1.00000000                0.60736451                0.00171570               -0.00168143                0.59252648               -0.00228116                0.10829414               -0.12764493
               5.00000000               10.00000000                1.00000000                0.64342683                0.00185383               -0.00509692                0.53855052               -0.00334395                0.08917035               -0.11791713
               6.00000000               10.00000000                1.00000000                0.68671743                0.00189142               -0.01160944                0.48099040               -0.00646514                0.06845299               -0.10804343
               7.00000000               10.00000000                1.00000000                0.73925677               -0.00167402               -0.02331842                0.43390310               -0.01282118                0.04758828               -0.09221638
               8.00000000               10.00000000                1.00000000                0.80580319               -0.01846365               -0.04266652                0.39697977               -0.02473001                0.03660247               -0.06642040
               9.00000000               10.00000000                1.00000000                0.91244032               -0.06478295               -0.07315967                0.36939870               -0.02964292                0.02797604               -0.02598350
              10.00000000               10.00000000                1.00000000                0.99940351               -0.09758788               -0.09758789                0.35749944               -0.04154744               -0.00187293               -0.00186792
               0.00000000                0.00000000                2.00000000                0.74945770               -0.06477708               -0.06477697                0.20866532                0.00790691                0.01612780                0.01612669
               1.00000000                0.00000000                2.00000000                0.49638850               -0.05149179               -0.07182812                0.22373242               -0.01195647                0.04114718                0.02131350
               2.00000000                0.00000000                2.00000000                0.49958426               -0.02475324               -0.11223134                0.24145439                0.00327659                0.05292640                0.02470332
               3.00000000                0.00000000                2.00000000                0.51718617               -0.01103053               -0.11190242                0.24945565                0.00120099                0.05038815                0.01915697
               4.00000000                0.00000000                2.00000000                0.54243095               -0.01376245               -0.11877289                0.26260862                0.00467144                0.04635384                0.01637665
               5.00000000                0.00000000                2.00000000                0.57706239               -0.02146530               -0.12424172                0.27846560                0.00476931                0.03698054                0.01522905
               6.00000000                0.00000000                2.00000000                0.62305020               -0.03292900               -0.12833439                0.29550323                0.00495751                0.02147347                0.01519333
               7.00000000                0.00000000                2.00000000                0.68337835               -0.04916442               -0.12924531                0.31143060                0.00509725               -0.00055602                0.01694970
               8.00000000                0.00000000                2.00000000                0.76326528               -0.06942006               -0.12541924                0.32342424                0.00311929               -0.02459377                0.02042925
               9.00000000                0.00000000                2.00000000                0.86481089               -0.08540041               -0.11293825                0.32836340                0.00092779               -0.03078927                0.02244381
              10.00000000                0.00000000                2.00000000                0.96417924               -0.09059829               -0.10144491                0.31777294               -0.01829761               -0.01432404                0.02717493
               0.00000000                1.00000000                2.00000000                0.49638875               -0.07182769               -0.05149168                0.22373090               -0.01195682                0.02131332                0.04114520
               1.00000000                1.00000000                2.00000000                0.01000001               -0.03937341               -0.03937383                0.22501798               -0.06517206                0.03916059                0.03916003
               2.00000000                1.00000000                2.00000000                0.01000000               -0.01408519               -0.02435889                0.22752669               -0.02667604                0.07446040                0.05045972
               3.00000000                1.00000000                2.00000000                0.01000000               -0.02270166               -0.00691194                0.23678726                0.01631659                0.07410041                0.03373401
               4.00000000                1.00000000                2.00000000                0.03043771               -0.02540450               -0.01661317                0.25359788                0.04004758                0.06010968                0.17922428
               5.00000000                1.00000000                2.00000000                0.07568977               -0.03008076               -0.01911445                0.27475419                0.01756924                0.04158055                0.21743142
               6.00000000                1.00000000                2.00000000                0.13597332               -0.03883244               -0.03114108                0.29893925                0.00969346                0.02214220                0.21122467
               7.00000000                1.00000000                2.00000000                0.21600035               -0.05076084               -0.04357987                0.32527370                0.00762659                0.00196964                0.19911208
               8.00000000                1.00000000                2.00000000                0.32426818               -0.06648489               -0.05572728                0.35095566                0.00775782               -0.01996941                0.18006838
               9.00000000                1.00000000                2.00000000                0.46867974               -0.09161500               -0.06201879                0.37189238                0.01269211               -0.03578342                0.14611022
              10.00000000                1.00000000                2.00000000                0.78387559               -0.10762163               -0.06614461                0.37616040                0.00363996               -0.03792725                0.14010894
               0.00000000                2.00000000                2.00000000                0.49958516               -0.11222994               -0.02475299                0.24145066                0.00327622                0.02470311                0.05292387
               1.00000000                2.00000000                2.00000000                0.01000000               -0.02435793               -0.01408537                0.22752476               -0.02667570                0.05046005                0.07445932
               2.00000000                2.00000000                2.00000000                0.01000001                0.04445765                0.04445713                0.24380430                0.01509815                0.09852856                0.09852677
               3.00000000                2.00000000                2.00000000                0.01000000                0.01708848                0.07285986                0.27960865                0.03270320                0.22878089                0.14627291
               4.00000000                2.00000000                2.00000000                0.01000001               -0.03785225                0.08009922                0.37342050                0.04449793                0.25469139                0.14417731
               5.00000000                2.00000000                2.00000000                0.01000000               -0.07300427                0.09525394                0.38097331                0.05395975                0.06368855                0.08825881
               6.00000000                2.00000000                2.00000000                0.01681507               -0.06124478                0.13399337                0.39494268               -0.02459380               -0.01706293                0.60340172
               7.00000000                2.00000000                2.00000000                0.05029427               -0.06311000                0.12625945                0.41321200               -0.05192396               -0.05582418                0.60604896
               8.00000000                2.00000000                2.00000000                0.09807285               -0.06484432                0.11649647                0.42825757               -0.03421466               -0.09837719                0.49548622
               9.00000000                2.00000000                2.00000000                0.17227855               -0.08387035                0.08630864                0.44027133               -0.00347199               -0.11352712                0.35703620
              10.00000000                2.00000000                2.00000000                0.61834420               -0.10331081                0.05494414                0.46346164               -0.00758001               -0.10795050                0.30214091
               0.00000000                3.00000000                2.00000000                0.51718799               -0.11190015               -0.01103005                0.24944974                0.00120066                0.01915662                0.05038622
               1.00000000                3.00000000                2.00000000                0.01000000               -0.00691058               -0.02270145                0.23678344                0.01631686                0.03373283                0.07409949
               2.00000000                3.00000000                2.00000000                0.01000000                0.07285943                0.01708651                0.27960889                0.03270566                0.14627385                0.22879109
               3.00000000                3.00000000                2.00000000                0.01000001                0.02662540                0.02663121                0.35230820                0.03066966                0.21572202                0.21572608
               4.00000000                3.00000000                2.00000000                0.01000001               -0.00872674                0.06702994                0.44584093                0.05670176                0.14818808               -0.00383826
               5.00000000                3.00000000                2.00000000                0.01000000               -0.10442658                0.04508127                0.68005588                0.05063749                0.55421580                0.53355387
               6.00000000                3.00000000                2.00000000                0.03513394               -0.14679266                0.03206462                0.90131798                0.00734860                0.56640002                0.67865438
               7.00000000                3.00000000                2.00000000                0.07044498               -0.06776281                0.05987431                0.82083387               -0.02821702               -0.06565549                0.60519973
               8.00000000                3.00000000                2.00000000                0.12006041               -0.02216197                0.08131467                0.72748832               -0.02063549               -0.22554127                0.48421614
               9.00000000                3.00000000                2.00000000                0.19685337               -0.06617992                0.08031983                0.64881647               -0.01966566               -0.21278333                0.35062203
              10.00000000                3.00000000                2.00000000                0.63278284               -0.11576492                0.06366210                0.63282750               -0.02421858               -0.17927955                0.26150887
               0.00000000                4.00000000                2.00000000                0.54243412               -0.11876969               -0.01376182                0.26260056                0.00467112                0.01637622                0.04635233
               1.00000000                4.00000000                2.00000000                0.03044193               -0.01660985               -0.02540398                0.25359220                0.04004609                0.17923592                0.06010911
               2.00000000                4.00000000                2.00000000                0.01000000                0.08010071               -0.03785126                0.37341319                0.04450367                0.14417729                0.25468943
               3.00000000                4.00000000                2.00000000                0.01000001                0.06703112               -0.00873220                0.44583781                0.05670111               -0.00385108                0.14819872
               4.00000000                4.00000000                2.00000000                0.01000000               -0.06147893               -0.06148995                0.65358310                0.01216100                0.60733837                0.60733972
               5.00000000                4.00000000                2.00000000                0.03129151               -0.15215371               -0.08829757                0.98611404               -0.10318467                0.76635014                0.79162484
               6.00000000                4.00000000                2.00000000                0.06312983               -0.08708137               -0.11015882                0.96252647                0.00534061                0.07944088                0.24464483
               7.00000000                4.00000000                2.00000000                0.10549955               -0.03214772               -0.08240526                0.89025234                0.08289205               -0.15418390                0.14906505
               8.00000000                4.00000000                2.00000000                0.16556954               -0.01272730               -0.06487899                0.79848361                0.05886600               -0.23544622                0.12999905
               9.00000000                4.00000000                2.00000000                0.25955227               -0.05902734               -0.04387726                0.71281710                0.01581286               -0.20555116                0.11895728
              10.00000000                4.00000000                2.00000000                0.67121885               -0.10467154               -0.02972406                0.67393895               -0.00261460               -0.16204399                0.07253250
               0.00000000                5.00000000                2.00000000                0.57706732               -0.12423757               -0.02146449                0.27845532                0.00476908                0.01522862                0.03697948
               1.00000000                5.00000000                2.00000000                0.07569650               -0.01911260               -0.03007993                0.27474666                0.01757025                0.21742844                0.04158062
               2.00000000                5.00000000                2.00000000                0.01000000                0.09525330               -0.07299955                0.38096511                0.05395198                0.08826884                0.06367287
               3.00000000                5.00000000                2.00000000                0.01000000                0.04509264               -0.10443880                0.68010849                0.05063489                0.53358493                0.55421236
               4.00000000                5.00000000                2.00000000                0.03129284               -0.08828255               -0.15216007                0.98610434               -0.10318263                0.79162695                0.76631323
               5.00000000                5.00000000                2.00000000                0.06115279               -0.11284404               -0.11284410                0.99136691                0.02051933                0.16787245                0.16785587
               6.00000000                5.00000000                2.00000000                0.10012925               -0.04700782               -0.06591312                0.93994968                0.09830563               -0.08286265                0.00546783
               7.00000000                5.00000000                2.00000000                0.15226428               -0.02727102               -0.06669508                0.86329357                0.10305126               -0.17746986               -0.01589889
               8.00000000                5.00000000                2.00000000                0.22578468               -0.02646762               -0.07092861                0.77168729                0.06168036               -0.22556693               -0.00273053
               9.00000000                5.00000000                2.00000000                0.34083006               -0.07509912               -0.06450308                0.68341348                0.01723966               -0.19406246                0.01569593
              10.00000000                5.00000000                2.00000000                0.71984232               -0.12122134               -0.05077106                0.63417083               -0.00311744               -0.15148059                0.00368114
               0.00000000                6.00000000                2.00000000                0.62305733               -0.12832926               -0.03292792                0.29549058                0.00495741                0.01519306                0.02147291
               1.00000000                6.00000000                2.00000000                0.13598327               -0.03113996               -0.03883117                0.29892987                0.00969609                0.21121836                0.02214321
               2.00000000                6.00000000                2.00000000                0.01682027                0.13400488               -0.06124214                0.39493317               -0.02460155                0.60338578               -0.01706346
               3.00000000                6.00000000                2.00000000                0.03513808                0.03208019               -0.14678997                0.90127589                0.00733807                0.67863214                0.56635233
               4.00000000                6.00000000                2.00000000                0.06313292               -0.11015882               -0.08707648                0.96250253                0.00533137                0.24465632                0.07940069
               5.00000000                6.00000000                2.00000000                0.10013104               -0.06591941               -0.04700089                0.93993932                0.09829767                0.00549841               -0.08288682
               6.00000000                6.00000000                2.00000000                0.14864216               -0.04548020               -0.04547319                0.88168909                0.10762794               -0.10754450               -0.10756499
               7.00000000                6.00000000                2.00000000                0.21296675               -0.04246232               -0.05873208                0.80526336                0.08159839               -0.16491870               -0.09083491
               8.00000000                6.00000000                2.00000000                0.30254960               -0.04484837               -0.06831276                0.71780643                0.04510869               -0.19960381               -0.05781531
               9.00000000                6.00000000                2.00000000                0.44183546               -0.08517742               -0.06618251                0.63172108                0.01094957               -0.17575831               -0.02260351
              10.00000000                6.00000000                2.00000000                0.77900991               -0.12394354               -0.06096838                0.57985299                0.00357766               -0.13929268               -0.01533665
               0.00000000                7.00000000                2.00000000                0.68338815               -0.12923919               -0.04916279                0.31141543                0.00509723                0.01694981               -0.00055581
               1.00000000                7.00000000                2.00000000                0.21601432               -0.04357815               -0.05075897                0.32526236                0.00762902                0.19910547                0.00197174
               2.00000000                7.00000000                2.00000000                0.05030199                0.12625958               -0.06310884                0.41320109               -0.05192683                0.60601443               -0.05582040
               3.00000000                7.00000000                2.00000000                0.07045150                0.05988190               -0.06775644                0.82079045               -0.02824694                0.60517029               -0.06567986
               4.00000000                7.00000000                2.00000000                0.10550507               -0.08240046               -0.03214355                0.89022284                0.08286985                0.14908122               -0.15419524
               5.00000000                7.00000000                2.00000000                0.15226851               -0.06669887               -0.02726482                0.86327628                0.10304041               -0.01587957               -0.17748480
               6.00000000                7.00000000                2.00000000                0.21296916               -0.05873653               -0.04245685                0.80525590                0.08159437               -0.09082010               -0.16493121
               7.00000000                7.00000000                2.00000000                0.29223556               -0.05886685               -0.05886361                0.73467425                0.05669464               -0.13122522               -0.13123400
               8.00000000                7.00000000                2.00000000                0.40096577               -0.05951593               -0.06903462                0.65687827                0.03299142               -0.16288175               -0.08969389
               9.00000000                7.00000000                2.00000000                0.56810984               -0.08934078               -0.07047972                0.57816303                0.00869790               -0.14984670               -0.04595581
              10.00000000                7.00000000                2.00000000                0.85153362               -0.11917961               -0.07086734                0.52634833                0.00759390               -0.11984430               -0.03345394
               0.00000000                8.00000000                2.00000000                0.76327832               -0.12541214               -0.06941722                0.32340640                0.00311927                0.02042976               -0.02459240
               1.00000000                8.00000000                2.00000000                0.32428712               -0.05572475               -0.06648215                0.35094203                0.00775928                0.18006191               -0.01996639
               2.00000000                8.00000000                2.00000000                0.09808395                0.11648855               -0.06484328                0.42824495               -0.03421689                0.49545174               -0.09837211
               3.00000000                8.00000000                2.00000000                0.12007021                0.08131269               -0.02216071                0.72744929               -0.02065637                0.48418306               -0.22554318
               4.00000000                8.00000000                2.00000000                0.16557841               -0.06487345               -0.01272485                0.79845193                0.05884572                0.13000638               -0.23545307
               5.00000000                8.00000000                2.00000000                0.22579220               -0.07092859               -0.02646431                0.77166629                0.06166998               -0.00271886               -0.22557360
               6.00000000                8.00000000                2.00000000                0.30255524               -0.06831388               -0.04484518                0.71779434                0.04510414               -0.05780708               -0.19960913
               7.00000000                8.00000000                2.00000000                0.40096894               -0.06903535               -0.05951402                0.65687305                0.03298976               -0.08968992               -0.16288516
               8.00000000                8.00000000                2.00000000                0.53324961               -0.06933852               -0.06933829                0.59288616                0.02255162               -0.11854711               -0.11854783
               9.00000000                8.00000000                2.00000000                0.73242688               -0.08980592               -0.07337226                0.52464784                0.00627929               -0.11557609               -0.06837363
              10.00000000                8.00000000                2.00000000                0.94358438               -0.11087708               -0.07459033                0.47136688                0.01083541               -0.09052355               -0.05504532
               0.00000000                9.00000000                2.00000000                0.86482738               -0.11293077               -0.08539548                0.32834272                0.00092758                0.02244453               -0.03078733
               1.00000000                9.00000000                2.00000000                0.46870427               -0.06201578               -0.09161060                0.37187575                0.01269211                0.14610418               -0.03578056
               2.00000000                9.00000000                2.00000000                0.17229427                0.08629690               -0.08386818                0.44025655               -0.00347628                0.35700657               -0.11352265
               3.00000000                9.00000000                2.00000000                0.19686774                0.08031174               -0.06618033                0.64878215               -0.01967576                0.35059221               -0.21278222
               4.00000000                9.00000000                2.00000000                0.25956572               -0.04387304               -0.05902635                0.71278568                0.01580250                0.11895734               -0.20555451
               5.00000000                9.00000000                2.00000000                0.34084202               -0.06450144               -0.07509636                0.68339146                0.01723477                0.01569998               -0.19406491
               6.00000000                9.00000000                2.00000000                0.44184538               -0.06618169               -0.08517472                0.63170673                0.01094718               -0.02260243               -0.17575972
               7.00000000                9.00000000                2.00000000                0.56811702               -0.07047861               -0.08933896                0.57815431                0.00869654               -0.04595742               -0.14984720
               8.00000000                9.00000000                2.00000000                0.73243066               -0.07337096               -0.08980532                0.52464356                0.00627874               -0.06837649               -0.11557554
               9.00000000                9.00000000                2.00000000                0.97012095               -0.08460850               -0.08460915                0.46056556               -0.00081862               -0.07231558               -0.07231355
              10.00000000                9.00000000                2.00000000                1.00000000               -0.09539681               -0.07620270                0.39980156                0.01053651               -0.04855083               -0.05895460
               0.00000000               10.00000000                2.00000000                0.96418837               -0.10143715               -0.09059212                0.31775007               -0.01829818                0.02717516               -0.01432179
               1.00000000               10.00000000                2.00000000                0.78388948               -0.06614063               -0.10761609                0.37614044                0.00363878                0.14010252               -0.03792380
               2.00000000               10.00000000                2.00000000                0.61835389                0.05493582               -0.10330745                0.46344272               -0.00758591                0.30211491               -0.10794691
               3.00000000               10.00000000                2.00000000                0.63279193                0.06365232               -0.11576413                0.63279245               -0.02422180                0.26148707               -0.17927783
               4.00000000               10.00000000                2.00000000                0.67122747               -0.02972611               -0.10466937                0.67390737               -0.00261830                0.07253243               -0.16204716
               5.00000000               10.00000000                2.00000000                0.71985014               -0.05077149               -0.12121756                0.63414802               -0.00311922                0.00368034               -0.15148235
               6.00000000               10.00000000                2.00000000                0.77901658               -0.06096724               -0.12394024                0.57983660                0.00357604               -0.01534186               -0.13929310
               7.00000000               10.00000000                2.00000000                0.85153872               -0.07086535               -0.11917729                0.52633632                0.00759241               -0.03346106               -0.11984401
               8.00000000               10.00000000                2.00000000                0.94358755               -0.07458816               -0.11087592                0.47135849                0.01083422               -0.05505228               -0.09052292
               9.00000000               10.00000000                2.00000000                1.00000000               -0.07620121               -0.09539682                0.39979738                0.01053576               -0.05895912               -0.04855004
              10.00000000               10.00000000                2.00000000                0.99999999               -0.07852416               -0.07852505                0.33343141                0.02328341               -0.03024970               -0.03024708
               0.00000000                0.00000000                3.00000000                0.74673583               -0.05999458               -0.05999427                0.18596607                0.01006396                0.00412269                0.00412189
               1.00000000                0.00000000                3.00000000                0.49318454               -0.06172125               -0.06614264                0.21598892               -0.01159786                0.02754343                0.00112364
               2.00000000                0.00000000                3.00000000                0.49683664               -0.04996272               -0.08335139                0.22735955               -0.00191740                0.04134910               -0.00501688
               3.00000000                0.00000000                3.00000000                0.51532690               -0.03440202               -0.08641729                0.24035568               -0.00301095                0.03458239               -0.00350246
               4.00000000                0.00000000                3.00000000                0.54158380               -0.03516462               -0.08896233                0.25283109               -0.00096597                0.02538255               -0.00591870
               5.00000000                0.00000000                3.00000000                0.57699370               -0.04332735               -0.09007007                0.26440010               -0.00012481                0.01465411               -0.00726366
               6.00000000                0.00000000                3.00000000                0.62313743               -0.05521592               -0.08960761                0.27419652               -0.00022498                0.00229939               -0.00750410
               7.00000000                0.00000000                3.00000000                0.68167181               -0.06838631               -0.08761143                0.28157689               -0.00124258               -0.01026436               -0.00639315
               8.00000000                0.00000000                3.00000000                0.75298063               -0.07932822               -0.08411553                0.28588727               -0.00207884               -0.01921614               -0.00447724
               9.00000000                0.00000000                3.00000000                0.82578127               -0.08240166               -0.08189912                0.28611427               -0.00262888               -0.01562449                0.00142235
              10.00000000                0.00000000                3.00000000                0.92861707               -0.08113964               -0.08007137                0.27543387                0.00014871               -0.00932276                0.00111896
               0.00000000                1.00000000                3.00000000                0.49318469               -0.06614217               -0.06172086                0.21598664               -0.01159827                0.00112355                0.02754186
               1.00000000                1.00000000                3.00000000                0.01000001               -0.04968633               -0.04968666                0.24811311               -0.04432050                0.02209803                0.02209764
               2.00000000                1.00000000                3.00000000                0.01000000               -0.03712074               -0.03556247                0.25210063               -0.02547888                0.03551181                0.04952411
               3.00000000                1.00000000                3.00000000                0.01000000               -0.04383774               -0.00981764                0.25583837               -0.01306811                0.04061954                0.07367453
               4.00000000                1.00000000                3.00000000                0.04096360               -0.04852197               -0.06452867                0.26254047               -0.00664766                0.03405182                0.14638735
               5.00000000                1.00000000                3.00000000                0.09088504               -0.05353397               -0.08218899                0.27258236               -0.00859307                0.02306943                0.12898279
               6.00000000                1.00000000                3.00000000                0.15587324               -0.06091353               -0.08695053                0.28326577               -0.00588119                0.01213428                0.11492089
               7.00000000                1.00000000                3.00000000                0.23859934               -0.06967129               -0.08704365                0.29139472               -0.00308731                0.00228677                0.10081294
               8.00000000                1.00000000                3.00000000                0.34099633               -0.07805047               -0.08453588                0.29357888               -0.00070029               -0.00669576                0.07958769
               9.00000000                1.00000000                3.00000000                0.45043116               -0.07963485               -0.08167806                0.28982443                0.00137065               -0.00823283                0.05581324
              10.00000000                1.00000000                3.00000000                0.74951227               -0.07737275               -0.08519704                0.27794819                0.01660306                0.00416208                0.04178947
               0.00000000                2.00000000                3.00000000                0.49683738               -0.08335020               -0.04996214                0.22735539               -0.00191775               -0.00501681                0.04134706
               1.00000000                2.00000000                3.00000000                0.01000000               -0.03556170               -0.03712073                0.25209860               -0.02547860                0.04952411                0.03551123
               2.00000000                2.00000000                3.00000000                0.01000001               -0.01048637               -0.01048748                0.25240640                0.01770242                0.07393103                0.07393368
               3.00000000                2.00000000                3.00000000                0.01000000               -0.04370460                0.04197114                0.29183615               -0.01860950                0.11570643                0.14087219
               4.00000000                2.00000000                3.00000000                0.01000000               -0.06277326                0.06358567                0.16020723               -0.02329190                0.04781123                0.16374438
               5.00000000                2.00000000                3.00000000                0.01166226               -0.06677081                0.04492853                0.11453125                0.01017811               -0.02555361                0.36606097
               6.00000000                2.00000000                3.00000000                0.02327225               -0.06305629                0.08160305                0.12455169                0.03449832               -0.01842586                0.56732980
               7.00000000                2.00000000                3.00000000                0.05804271               -0.06554835                0.06669914                0.14243621                0.06858021               -0.02170930                0.46480774
               8.00000000                2.00000000                3.00000000                0.10329996               -0.07020450                0.05102015                0.16147012                0.07827962               -0.03132139                0.34642869
               9.00000000                2.00000000                3.00000000                0.15401198               -0.06076383                0.02848489                0.18631073                0.05636327               -0.02665377                0.23988956
              10.00000000                2.00000000                3.00000000                0.58664828               -0.04830757               -0.00569804                0.19397824                0.03144587               -0.00363553                0.18787881
               0.00000000                3.00000000                3.00000000                0.51532856               -0.08641538               -0.03440121                0.24034939               -0.00301125               -0.00350234                0.03458080
               1.00000000                3.00000000                3.00000000                0.01000000               -0.00981557               -0.04383727                0.25583427               -0.01306858                0.07367628                0.04061932
               2.00000000                3.00000000                3.00000000                0.01000000                0.04197001               -0.04370437                0.29183679               -0.01861159                0.14087130                0.11570462
               3.00000000                3.00000000                3.00000000                0.01000000                0.00758544                0.00758719                0.33047759                0.08737717                0.17001626                0.17001851
               4.00000000                3.00000000                3.00000000                0.01000000               -0.05587956                0.03740516                0.37006490                0.01450769                0.31440731                0.27045479
               5.00000000                3.00000000                3.00000000                0.01406943               -0.08441465                0.07701353                0.66714263                0.05935553                0.44370424                0.61890949
               6.00000000                3.00000000                3.00000000                0.04265292               -0.03762537                0.10410820                0.16209162                0.09058528                0.20629335                0.57233148
               7.00000000                3.00000000                3.00000000                0.07885672               -0.03682634                0.11835999                0.06108387                0.06512431               -0.07454801                0.47126599
               8.00000000                3.00000000                3.00000000                0.12466195               -0.08324981                0.11963519                0.08237461                0.06991754               -0.10185342                0.35029162
               9.00000000                3.00000000                3.00000000                0.17269689               -0.11075899                0.11133333                0.14686681                0.04344204               -0.07977564                0.25458326
              10.00000000                3.00000000                3.00000000                0.59295345               -0.11247535                0.09139482                0.16374081                0.01436601               -0.03912160                0.16662427
               0.00000000                4.00000000                3.00000000                0.54158681               -0.08895972               -0.03516353                0.25282263               -0.00096624               -0.00591851                0.02538132
               1.00000000                4.00000000                3.00000000                0.04096813               -0.06453095               -0.04852097                0.26253434               -0.00664721                0.14638306                0.03405204
               2.00000000                4.00000000                3.00000000                0.01000000                0.06358486               -0.06276962                0.16018945               -0.02329106                0.16374069                0.04781088
               3.00000000                4.00000000                3.00000000                0.01000000                0.03741536               -0.05586373                0.37007164                0.01452756                0.27046328                0.31446551
               4.00000000                4.00000000                3.00000000                0.01246003               -0.06682280               -0.06683533                0.75074180               -0.02826692                0.52013260                0.52011577
               5.00000000                4.00000000                3.00000000                0.03892143               -0.03371635               -0.02318187                0.22475040                0.06894949                0.36455879                0.33501307
               6.00000000                4.00000000                3.00000000                0.07210871               -0.02203335               -0.03800193                0.06711852                0.08621838                0.00981661                0.10136934
               7.00000000                4.00000000                3.00000000                0.11382378               -0.02857417               -0.01030558                0.06815884                0.06348966               -0.04723425                0.09237380
               8.00000000                4.00000000                3.00000000                0.16659619               -0.06108573                0.00942216                0.11640657                0.04842726               -0.08120216                0.08016711
               9.00000000                4.00000000                3.00000000                0.22161374               -0.08182928                0.03097566                0.18620394                0.03375279               -0.06376335                0.06903572
              10.00000000                4.00000000                3.00000000                0.61766116               -0.08079702                0.05530651                0.20625133                0.03682503               -0.02829232                0.02649379
               0.00000000                5.00000000                3.00000000                0.57699851               -0.09006677               -0.04332590                0.26438941               -0.00012504               -0.00726335                0.01465323
               1.00000000                5.00000000                3.00000000                0.09089240               -0.08218639               -0.05353240                0.27257417               -0.00859080                0.12897903                0.02307025
               2.00000000                5.00000000                3.00000000                0.01166585                0.04495373               -0.06676751                0.11452702                0.01020009                0.36611641               -0.02554958
               3.00000000                5.00000000                3.00000000                0.01407206                0.07702518               -0.08441829                0.66711737                0.05934027                0.61889581                0.44367286
               4.00000000                5.00000000                3.00000000                0.03892290               -0.02319634               -0.03371985                0.22473567                0.06892106                0.33495287                0.36454026
               5.00000000                5.00000000                3.00000000                0.07023841               -0.03052035               -0.03051667                0.06511822                0.09709605                0.04293474                0.04292547
               6.00000000                5.00000000                3.00000000                0.10925880               -0.02702311               -0.03739718                0.06159826                0.08845683               -0.02195448                0.00494188
               7.00000000                5.00000000                3.00000000                0.15810110               -0.03718071               -0.04462711                0.10252457                0.06120997               -0.06403666               -0.01464782
               8.00000000                5.00000000                3.00000000                0.21986833               -0.06220171               -0.04687855                0.16053977                0.03681963               -0.08752261               -0.02073232
               9.00000000                5.00000000                3.00000000                0.28436381               -0.07380125               -0.04203612                0.22763425                0.01893621               -0.06534152               -0.01861798
              10.00000000                5.00000000                3.00000000                0.64983387               -0.06832540               -0.02144680                0.24862319                0.01584873               -0.02198620               -0.02532287
               0.00000000                6.00000000                3.00000000                0.62314450               -0.08960369               -0.05521387                0.27418356               -0.00022518               -0.00750361                0.00229896
               1.00000000                6.00000000                3.00000000                0.15588416               -0.08694684               -0.06091127                0.28325543               -0.00587918                0.11491719                0.01213580
               2.00000000                6.00000000                3.00000000                0.02327789                0.08160103               -0.06305457                0.12454993                0.03449506                0.56729321               -0.01842326
               3.00000000                6.00000000                3.00000000                0.04265747                0.10411239               -0.03764869                0.16206740                0.09053891                0.57229164                0.20620195
               4.00000000                6.00000000                3.00000000                0.07211210               -0.03799403               -0.02203082                0.06712290                0.08619809                0.10138246                0.00980035
               5.00000000                6.00000000                3.00000000                0.10926071               -0.03739814               -0.02702012                0.06159909                0.08845123                0.00495152               -0.02196328
               6.00000000                6.00000000                3.00000000                0.15535129               -0.04125599               -0.04125420                0.09713346                0.06467211               -0.04419234               -0.04419961
               7.00000000                6.00000000                3.00000000                0.21290357               -0.05097442               -0.05576030                0.14797995                0.03784783               -0.07504689               -0.05348371
               8.00000000                6.00000000                3.00000000                0.28584107               -0.07101869               -0.06553481                0.20057094                0.01637808               -0.08965973               -0.04830697
               9.00000000                6.00000000                3.00000000                0.36285954               -0.07569457               -0.06933094                0.25643268                0.00486392               -0.06495343               -0.03515202
              10.00000000                6.00000000                3.00000000                0.69072169               -0.06686412               -0.06277909                0.27466735                0.00189442               -0.02270196               -0.02115308
               0.00000000                7.00000000                3.00000000                0.68168161               -0.08760697               -0.06838329                0.28156169               -0.00124275               -0.00639246               -0.01026413
               1.00000000                7.00000000                3.00000000                0.23861454               -0.08703924               -0.06966819                0.29138205               -0.00308593                0.10080922                0.00228884
               2.00000000                7.00000000                3.00000000                0.05805089                0.06669150               -0.06554633                0.14243319                0.06857149                0.46477075               -0.02170657
               3.00000000                7.00000000                3.00000000                0.07886371                0.11835630               -0.03683026                0.06108098                0.06510316                0.47122906               -0.07454792
               4.00000000                7.00000000                3.00000000                0.11382964               -0.01029774               -0.02857299                0.06815931                0.06347427                0.09238113               -0.04723997
               5.00000000                7.00000000                3.00000000                0.15810549               -0.04462528               -0.03717887                0.10252479                0.06120343               -0.01464039               -0.06404217
               6.00000000                7.00000000                3.00000000                0.21290607               -0.05576038               -0.05097294                0.14797949                0.03784615               -0.05347755               -0.07505160
               7.00000000                7.00000000                3.00000000                0.28116500               -0.06473940               -0.06473899                0.19257171                0.01520571               -0.07252165               -0.07252550
               8.00000000                7.00000000                3.00000000                0.36776309               -0.07931377               -0.07467334                0.23307514                0.00008077               -0.08098070               -0.05699022
               9.00000000                7.00000000                3.00000000                0.46068171               -0.07831261               -0.08072995                0.27467726               -0.00344917               -0.05835817               -0.03505573
              10.00000000                7.00000000                3.00000000                0.74246588               -0.06775273               -0.08153075                0.28892490               -0.00367270               -0.02401270               -0.01202665
               0.00000000                8.00000000                3.00000000                0.75299352               -0.08411072               -0.07932387                0.28586984               -0.00207900               -0.00447638               -0.01921522
               1.00000000                8.00000000                3.00000000                0.34101641               -0.08453102               -0.07804636                0.29356376               -0.00069962                0.07958402               -0.00669361
               2.00000000                8.00000000                3.00000000                0.10331122                0.05101079               -0.07020194                0.16146498                0.07826816                0.34639708               -0.03131842
               3.00000000                8.00000000                3.00000000                0.12467199                0.11962524               -0.08324773                0.08237521                0.06990192                0.35025993               -0.10184882
               4.00000000                8.00000000                3.00000000                0.16660523                0.00942635               -0.06108473                0.11640577                0.04841658                0.08016915               -0.08120476
               5.00000000                8.00000000                3.00000000                0.21987595               -0.04687506               -0.06220031                0.16053772                0.03681478               -0.02072630               -0.08752454
               6.00000000                8.00000000                3.00000000                0.28584682               -0.06553302               -0.07101732                0.20056837                0.01637693               -0.04830242               -0.08966111
               7.00000000                8.00000000                3.00000000                0.36776635               -0.07467238               -0.07931304                0.23307329                0.00008086               -0.05698795               -0.08098175
               8.00000000                8.00000000                3.00000000                0.47140904               -0.08436912               -0.08436931                0.25956281               -0.00877758               -0.06092075               -0.06092096
               9.00000000                8.00000000                3.00000000                0.58433187               -0.07901677               -0.08707193                0.28538263               -0.00670516               -0.04489297               -0.03590746
              10.00000000                8.00000000                3.00000000                0.80860126               -0.06789926               -0.08849395                0.29569124               -0.00555314               -0.02349689               -0.01189174
               0.00000000                9.00000000                3.00000000                0.82579687               -0.08189394               -0.08239624                0.28609474               -0.00262893                0.00142306               -0.01562361
               1.00000000                9.00000000                3.00000000                0.45045576               -0.08167291               -0.07963004                0.28980715                0.00137061                0.05581010               -0.00823129
               2.00000000                9.00000000                3.00000000                0.15402646                0.02847635               -0.06076174                0.18630339                0.05635308                0.23986479               -0.02665149
               3.00000000                9.00000000                3.00000000                0.17271021                0.11131936               -0.11075187                0.14686547                0.04343254                0.25455757               -0.07977141
               4.00000000                9.00000000                3.00000000                0.22162630                0.03097468               -0.08182715                0.18619935                0.03374585                0.06903381               -0.06376314
               5.00000000                9.00000000                3.00000000                0.28437507               -0.04203238               -0.07379983                0.22762812                0.01893386               -0.01861438               -0.06534085
               6.00000000                9.00000000                3.00000000                0.36286902               -0.06932772               -0.07569326                0.25642666                0.00486388               -0.03515044               -0.06495258
               7.00000000                9.00000000                3.00000000                0.46068883               -0.08072774               -0.07831165                0.27467251               -0.00344862               -0.03505641               -0.05835740
               8.00000000                9.00000000                3.00000000                0.58433588               -0.08707091               -0.07901632                0.28538000               -0.00670478               -0.03590936               -0.04489213
               9.00000000                9.00000000                3.00000000                0.72097221               -0.07950521               -0.07950525                0.29313180               -0.00364863               -0.02850169               -0.02850000
              10.00000000                9.00000000                3.00000000                0.88238172               -0.06944862               -0.08068688                0.29758361               -0.00389068               -0.02559719               -0.01324270
               0.00000000               10.00000000                3.00000000                0.92862544               -0.08006612               -0.08113389                0.27541342                0.00014829                0.00111914               -0.00932244
               1.00000000               10.00000000                3.00000000                0.74952551               -0.08519102               -0.07736778                0.27793019                0.01660106                0.04178585                0.00416277
               2.00000000               10.00000000                3.00000000                0.58665620               -0.00570189               -0.04830627                0.19396935                0.03143865                0.18785639               -0.00363436
               3.00000000               10.00000000                3.00000000                0.59296080                0.09137930               -0.11246644                0.16373756                0.01436136                0.16660391               -0.03911662
               4.00000000               10.00000000                3.00000000                0.61766819                0.05529759               -0.08079429                0.20624374                0.03681775                0.02649154               -0.02829068
               5.00000000               10.00000000                3.00000000                0.64984035               -0.02144568               -0.06832407                0.24861343                0.01584691               -0.02532273               -0.02198538
               6.00000000               10.00000000                3.00000000                0.69072738               -0.06277541               -0.06686301                0.27465811                0.00189473               -0.02115588               -0.02270108
               7.00000000               10.00000000                3.00000000                0.74247051               -0.08152747               -0.06775182                0.28891747               -0.00367201               -0.01203139               -0.02401183
               8.00000000               10.00000000                3.00000000                0.80860452               -0.08849202               -0.06789862                0.29568631               -0.00555268               -0.01189693               -0.02349603
               9.00000000               10.00000000                3.00000000                0.88238314               -0.08068624               -0.06944834                0.29758144               -0.00389061               -0.01324648               -0.02559605
              10.00000000               10.00000000                3.00000000                0.95378633               -0.07153264               -0.07153278                0.29947398               -0.00466736               -0.02652184               -0.02651937
               0.00000000                0.00000000                4.00000000                0.74627661               -0.06105353               -0.06105316                0.18314423                0.00995970                0.00113119                0.00113070
               1.00000000                0.00000000                4.00000000                0.49176571               -0.06688749               -0.06732394                0.21447016               -0.00659213                0.01101004               -0.00130889
               2.00000000                0.00000000                4.00000000                0.49619428               -0.06475836               -0.08167565                0.22799340                0.00074102                0.02615513               -0.00243483
               3.00000000                0.00000000                4.00000000                0.51585028               -0.05417983               -0.08518768                0.24029102               -0.00155826                0.02694632                0.00009677
               4.00000000                0.00000000                4.00000000                0.54346448               -0.05315217               -0.08853158                0.25261377               -0.00099611                0.02149419                0.00010973
               5.00000000                0.00000000                4.00000000                0.58013120               -0.05856733               -0.09036742                0.26402710               -0.00075295                0.01431411                0.00002614
               6.00000000                0.00000000                4.00000000                0.62691210               -0.06670171               -0.09114421                0.27388269               -0.00084772                0.00742814                0.00067659
               7.00000000                0.00000000                4.00000000                0.68424840               -0.07465199               -0.09101956                0.28202665               -0.00107757                0.00163456                0.00213828
               8.00000000                0.00000000                4.00000000                0.75012990               -0.08140287               -0.09058676                0.28901359               -0.00100920               -0.00168719                0.00433759
               9.00000000                0.00000000                4.00000000                0.81593795               -0.08699140               -0.09045116                0.29656398               -0.00032101               -0.00117074                0.00583055
              10.00000000                0.00000000                4.00000000                0.92615209               -0.08947235               -0.09087496                0.29697169                0.00116257               -0.00315051                0.00708542
               0.00000000                1.00000000                4.00000000                0.49176578               -0.06732348               -0.06688697                0.21446765               -0.00659255               -0.00130898                0.01100900
               1.00000000                1.00000000                4.00000000                0.01000001               -0.05767789               -0.05767808                0.24703732               -0.03122539                0.00459391                0.00459379
               2.00000000                1.00000000                4.00000000                0.01000000               -0.05243917               -0.04894380                0.26035250               -0.01894751                0.00957589                0.03325866
               3.00000000                1.00000000                4.00000000                0.01000000               -0.05959690               -0.02659789                0.26605849               -0.01547236                0.01714438                0.06974062
               4.00000000                1.00000000                4.00000000                0.04636847               -0.06412499               -0.08186882                0.27160660               -0.01243974                0.01934625                0.08481969
               5.00000000                1.00000000                4.00000000                0.09834313               -0.06779233               -0.08714553                0.27796164               -0.00816145                0.01730588                0.06747403
               6.00000000                1.00000000                4.00000000                0.16449633               -0.07185344               -0.08693126                0.28389562               -0.00311500                0.01332710                0.05566617
               7.00000000                1.00000000                4.00000000                0.24608366               -0.07622273               -0.08483344                0.28755275                0.00090693                0.00818646                0.04481273
               8.00000000                1.00000000                4.00000000                0.34177369               -0.08045826               -0.08289224                0.28911191                0.00355987                0.00278357                0.03293560
               9.00000000                1.00000000                4.00000000                0.44085826               -0.08472102               -0.08247301                0.29104966                0.00476262                0.00094443                0.02183022
              10.00000000                1.00000000                4.00000000                0.74798855               -0.08694653               -0.08684415                0.29028286                0.00542419               -0.00325104                0.02007356
               0.00000000                2.00000000                4.00000000                0.49619495               -0.08167449               -0.06475754                0.22798899                0.00074069               -0.00243478                0.02615372
               1.00000000                2.00000000                4.00000000                0.01000000               -0.04894346               -0.05243887                0.26035046               -0.01894697                0.03325857                0.00957577
               2.00000000                2.00000000                4.00000000                0.01000001               -0.03628411               -0.03628303                0.28083285                0.01684623                0.06726370                0.06726590
               3.00000000                2.00000000                4.00000000                0.01000000               -0.06311106                0.01219378                0.28782125               -0.02478763                0.06197072                0.14212331
               4.00000000                2.00000000                4.00000000                0.01130218               -0.07071386                0.01116103                0.19310650               -0.02379291                0.01332862                0.24639650
               5.00000000                2.00000000                4.00000000                0.01000000               -0.07010478                0.05416374                0.20300727                0.06600179               -0.00185762                0.51144567
               6.00000000                2.00000000                4.00000000                0.03234452               -0.06919721                0.08774816                0.21443426                0.09976901                0.00657361                0.51599271
               7.00000000                2.00000000                4.00000000                0.06883444               -0.07156739                0.07545751                0.22358283                0.12114259                0.00260594                0.40326917
               8.00000000                2.00000000                4.00000000                0.11323091               -0.07599170                0.06059942                0.23554200                0.11579083               -0.00703987                0.30184062
               9.00000000                2.00000000                4.00000000                0.15942048               -0.08205010                0.04194548                0.25353463                0.08602999               -0.00602176                0.22250109
              10.00000000                2.00000000                4.00000000                0.59150597               -0.08550533               -0.00453715                0.26059013                0.04406025               -0.01722823                0.18712670
               0.00000000                3.00000000                4.00000000                0.51585192               -0.08518581               -0.05417872                0.24028456               -0.00155857                0.00009683                0.02694516
               1.00000000                3.00000000                4.00000000                0.01000000               -0.02659687               -0.05959607                0.26605434               -0.01547099                0.06974155                0.01714464
               2.00000000                3.00000000                4.00000000                0.01000000                0.01219286               -0.06310934                0.28782434               -0.02478552                0.14212392                0.06196989
               3.00000000                3.00000000                4.00000000                0.01000000               -0.01770520               -0.01769859                0.32836338                0.03823055                0.19982872                0.19983699
               4.00000000                3.00000000                4.00000000                0.01000001               -0.02394911                0.06856283                0.31163541                0.09967616                0.36750663                0.45131640
               5.00000000                3.00000000                4.00000000                0.02299953               -0.02568854                0.09955868                0.31213526                0.16726973                0.34558993                0.61869676
               6.00000000                3.00000000                4.00000000                0.05348672               -0.03579294                0.11903260                0.06118432                0.14355803                0.00813531                0.52469361
               7.00000000                3.00000000                4.00000000                0.09064987               -0.06322925                0.12614795                0.08243046                0.11838625               -0.11481764                0.44173461
               8.00000000                3.00000000                4.00000000                0.13361062               -0.10644727                0.12698725                0.13551293                0.12195163               -0.10589225                0.35752797
               9.00000000                3.00000000                4.00000000                0.17397332               -0.14297991                0.12008860                0.20095002                0.08502519               -0.06002209                0.28969585
              10.00000000                3.00000000                4.00000000                0.59590105               -0.15922080                0.09390940                0.22982900                0.03461951               -0.04044347                0.21848924
               0.00000000                4.00000000                4.00000000                0.54346754               -0.08852899               -0.05315069                0.25260515               -0.00099641                0.00010981                0.02149323
               1.00000000                4.00000000                4.00000000                0.04637309               -0.08186675               -0.06412352                0.27160028               -0.01243799                0.08481670                0.01934692
               2.00000000                4.00000000                4.00000000                0.01130433                0.01116911               -0.07071214                0.19310447               -0.02378552                0.24641171                0.01332854
               3.00000000                4.00000000                4.00000000                0.01000001                0.06857433               -0.02395215                0.31161626                0.09965639                0.45130175                0.36748821
               4.00000000                4.00000000                4.00000000                0.02152780                0.00430964                0.00430522                0.38009370                0.08631587                0.45608105                0.45608236
               5.00000000                4.00000000                4.00000000                0.05026162               -0.02640892               -0.01237795                0.06658339                0.08065510                0.10764137                0.16696495
               6.00000000                4.00000000                4.00000000                0.08543768               -0.02590869               -0.02840418                0.05779907                0.07227503               -0.03973448                0.08645123
               7.00000000                4.00000000                4.00000000                0.12786689               -0.04195827               -0.00551372                0.09069755                0.06101505               -0.07123834                0.10201388
               8.00000000                4.00000000                4.00000000                0.17663555               -0.06980945                0.01551465                0.14693967                0.06377010               -0.07834340                0.10567873
               9.00000000                4.00000000                4.00000000                0.22191542               -0.10685198                0.03493870                0.21487327                0.05556464               -0.04256499                0.09517188
              10.00000000                4.00000000                4.00000000                0.62067885               -0.12801540                0.07373588                0.25718509                0.05242122               -0.03286880                0.05896961
               0.00000000                5.00000000                4.00000000                0.58013612               -0.09036413               -0.05856533                0.26401625               -0.00075324                0.00002625                0.01431337
               1.00000000                5.00000000                4.00000000                0.09835064               -0.08714268               -0.06779015                0.27795309               -0.00815982                0.06747155                0.01730695
               2.00000000                5.00000000                4.00000000                0.01000000                0.05415714               -0.07010286                0.20300336                0.06599942                0.51143194               -0.00185448
               3.00000000                5.00000000                4.00000000                0.02300237                0.09956724               -0.02570171                0.31206037                0.16723972                0.61866856                0.34551509
               4.00000000                5.00000000                4.00000000                0.05026323               -0.01236155               -0.02640775                0.06658005                0.08063777                0.16696940                0.10762573
               5.00000000                5.00000000                4.00000000                0.08401664               -0.03051951               -0.03051867                0.05381825                0.08082589                0.00336759                0.00335570
               6.00000000                5.00000000                4.00000000                0.12504671               -0.03199815               -0.03838719                0.08075354                0.06413728               -0.03916717               -0.00243437
               7.00000000                5.00000000                4.00000000                0.17433096               -0.04211389               -0.04212060                0.12543031                0.04827920               -0.06438434               -0.00274965
               8.00000000                5.00000000                4.00000000                0.23104347               -0.06174159               -0.04199652                0.18534990                0.03682694               -0.07010594               -0.00037433
               9.00000000                5.00000000                4.00000000                0.28399625               -0.09455806               -0.03341948                0.25491667                0.02490580               -0.03777702               -0.00196396
              10.00000000                5.00000000                4.00000000                0.65331172               -0.11528135               -0.00018262                0.30154047                0.02203555               -0.03047098               -0.01147324
               0.00000000                6.00000000                4.00000000                0.62691932               -0.09114023               -0.06669895                0.27386955               -0.00084801                0.00067677                0.00742765
               1.00000000                6.00000000                4.00000000                0.16450742               -0.08692745               -0.07185050                0.28388470               -0.00311369                0.05566451                0.01332850
               2.00000000                6.00000000                4.00000000                0.03235050                0.08774152               -0.06919500                0.21442863                0.09976043                0.51595478                0.00657679
               3.00000000                6.00000000                4.00000000                0.05349162                0.11903355               -0.03580076                0.06118644                0.14353959                0.52466942                0.00811102
               4.00000000                6.00000000                4.00000000                0.08544134               -0.02839309               -0.02590720                0.05780010                0.07225841                0.08647047               -0.03974546
               5.00000000                6.00000000                4.00000000                0.12504876               -0.03838544               -0.03199691                0.08075372                0.06413253               -0.00242312               -0.03917601
               6.00000000                6.00000000                4.00000000                0.17306465               -0.04291162               -0.04291156                0.11926333                0.04466640               -0.04256681               -0.04257453
               7.00000000                6.00000000                4.00000000                0.23077611               -0.05164128               -0.05462481                0.16718818                0.02644252               -0.06392979               -0.04163377
               8.00000000                6.00000000                4.00000000                0.29780919               -0.06794196               -0.06368684                0.22493088                0.01357236               -0.06797289               -0.03562839
               9.00000000                6.00000000                4.00000000                0.36189174               -0.09625510               -0.06515893                0.29140857                0.00573608               -0.03757560               -0.02836877
              10.00000000                6.00000000                4.00000000                0.69499386               -0.11420090               -0.05265780                0.33584629                0.00438922               -0.03075741               -0.02119819
               0.00000000                7.00000000                4.00000000                0.68425826               -0.09101491               -0.07464823                0.28201119               -0.00107784                0.00213853                0.00163433
               1.00000000                7.00000000                4.00000000                0.24609890               -0.08482903               -0.07621901                0.28753936                0.00090762                0.04481141                0.00818794
               2.00000000                7.00000000                4.00000000                0.06884300                0.07544770               -0.07156488                0.22357482                0.12112839                0.40323520                0.00260836
               3.00000000                7.00000000                4.00000000                0.09065727                0.12614168               -0.06323204                0.08243396                0.11836535                0.44170724               -0.11481156
               4.00000000                7.00000000                4.00000000                0.12787311               -0.00550520               -0.04195837                0.09069748                0.06100350                0.10202399               -0.07124306
               5.00000000                7.00000000                4.00000000                0.17433559               -0.04211670               -0.04211348                0.12542937                0.04827437               -0.00274076               -0.06438952
               6.00000000                7.00000000                4.00000000                0.23077871               -0.05462345               -0.05164100                0.16718721                0.02644151               -0.04162752               -0.06393441
               7.00000000                7.00000000                4.00000000                0.29890766               -0.06389068               -0.06389106                0.21205487                0.00818718               -0.05854487               -0.05854856
               8.00000000                7.00000000                4.00000000                0.37914811               -0.07771517               -0.07482334                0.26240526               -0.00227275               -0.06125868               -0.04691061
               9.00000000                7.00000000                4.00000000                0.45857683               -0.10174307               -0.08165297                0.32101956               -0.00457023               -0.03484592               -0.03204889
              10.00000000                7.00000000                4.00000000                0.74755647               -0.11706841               -0.08189774                0.35989343               -0.00395836               -0.03032624               -0.01679626
               0.00000000                8.00000000                4.00000000                0.75014249               -0.09058147               -0.08139802                0.28899579               -0.00100944                0.00433780               -0.00168737
               1.00000000                8.00000000                4.00000000                0.34179333               -0.08288742               -0.08045377                0.28909611                0.00355998                0.03293452                0.00278483
               2.00000000                8.00000000                4.00000000                0.11324234                0.06058825               -0.07598850                0.23553152                0.11577503                0.30181208               -0.00703772
               3.00000000                8.00000000                4.00000000                0.13362090                0.12697542               -0.10644292                0.13551290                0.12193280                0.35750022               -0.10588411
               4.00000000                8.00000000                4.00000000                0.17664481                0.01551918               -0.06980912                0.14693716                0.06376155                0.10568121               -0.07834421
               5.00000000                8.00000000                4.00000000                0.23105122               -0.04199171               -0.06174124                0.18534634                0.03682371               -0.00036834               -0.07010778
               6.00000000                8.00000000                4.00000000                0.29781496               -0.06368413               -0.06794140                0.22492749                0.01357193               -0.03562433               -0.06797455
               7.00000000                8.00000000                4.00000000                0.37915134               -0.07482198               -0.07771490                0.26240310               -0.00227253               -0.04690871               -0.06126000
               8.00000000                8.00000000                4.00000000                0.47667889               -0.08726278               -0.08726320                0.30129650               -0.00948945               -0.04814136               -0.04814167
               9.00000000                8.00000000                4.00000000                0.57734103               -0.10808880               -0.09523879                0.34840494               -0.00841975               -0.02836711               -0.03087534
              10.00000000                8.00000000                4.00000000                0.81305757               -0.12136856               -0.10133267                0.38018523               -0.00737317               -0.02901727               -0.01500965
               0.00000000                9.00000000                4.00000000                0.81595283               -0.09044530               -0.08698556                0.29654395               -0.00032121                0.00583063               -0.00117109
               1.00000000                9.00000000                4.00000000                0.44088180               -0.08246787               -0.08471582                0.29103186                0.00476232                0.02182936                0.00094515
               2.00000000                9.00000000                4.00000000                0.15943466                0.04193463               -0.08204599                0.25352146                0.08601656                0.22247738               -0.00602051
               3.00000000                9.00000000                4.00000000                0.17398644                0.12007307               -0.14296952                0.20094400                0.08501233                0.28966829               -0.06001703
               4.00000000                9.00000000                4.00000000                0.22192776                0.03493826               -0.10684861                0.21486632                0.05555757                0.09516917               -0.04256474
               5.00000000                9.00000000                4.00000000                0.28400725               -0.03341533               -0.09455609                0.25490862                0.02490407               -0.00196131               -0.03777725
               6.00000000                9.00000000                4.00000000                0.36190095               -0.06515527               -0.09625342                0.29140120                0.00573626               -0.02836800               -0.03757569
               7.00000000                9.00000000                4.00000000                0.45858369               -0.08165051               -0.10174180                0.32101408               -0.00456977               -0.03205014               -0.03484597
               8.00000000                9.00000000                4.00000000                0.57734489               -0.09523748               -0.10808822                0.34840209               -0.00841953               -0.03087734               -0.02836686
               9.00000000                9.00000000                4.00000000                0.70584673               -0.11490103               -0.11490128                0.38354622               -0.00682144               -0.01829589               -0.01829459
              10.00000000                9.00000000                4.00000000                0.88551739               -0.12723832               -0.12236016                0.40881509               -0.00720545               -0.02554240               -0.00966925
               0.00000000               10.00000000                4.00000000                0.92616018               -0.09086863               -0.08946607                0.29695015                0.00116197                0.00708485               -0.00315076
               1.00000000               10.00000000                4.00000000                0.74800140               -0.08683821               -0.08694100                0.29026375                0.00542335                0.02007183               -0.00325042
               2.00000000               10.00000000                4.00000000                0.59151381               -0.00454259               -0.08550075                0.26057534                0.04405141                0.18710400               -0.01722647
               3.00000000               10.00000000                4.00000000                0.59590838                0.09389236               -0.15920772                0.22981956                0.03461261                0.21846446               -0.04044012
               4.00000000               10.00000000                4.00000000                0.62068584                0.07372581               -0.12800972                0.25717347                0.05241227                0.05896543               -0.03286765
               5.00000000               10.00000000                4.00000000                0.65331814               -0.00018198               -0.11527804                0.30152777                0.02203299               -0.01147379               -0.03047033
               6.00000000               10.00000000                4.00000000                0.69499946               -0.05265375               -0.11419837                0.33583490                0.00438886               -0.02120115               -0.03075688
               7.00000000               10.00000000                4.00000000                0.74756101               -0.08189398               -0.11706651                0.35988462               -0.00395839               -0.01680114               -0.03032585
               8.00000000               10.00000000                4.00000000                0.81306072               -0.10133020               -0.12136743                0.38017954               -0.00737340               -0.01501494               -0.02901691
               9.00000000               10.00000000                4.00000000                0.88551867               -0.12235893               -0.12723805                0.40881239               -0.00720588               -0.00967295               -0.02554175
              10.00000000               10.00000000                4.00000000                0.96152799               -0.13429140               -0.13429208                0.43097643               -0.00877325               -0.02263203               -0.02262972
               0.00000000                0.00000000                5.00000000                0.74658819               -0.06193291               -0.06193253                0.18953333                0.00802566               -0.00083110               -0.00083140
               1.00000000                0.00000000                5.00000000                0.49161055               -0.06835994               -0.06732529                0.21562393               -0.00285933                0.00198619               -0.00279828
               2.00000000                0.00000000                5.00000000                0.49644620               -0.07146359               -0.07645333                0.23078878                0.00159792                0.01386871               -0.00421122
               3.00000000                0.00000000                5.00000000                0.51731818               -0.06649277               -0.08031775                0.24204803                0.00000003                0.02055563               -0.00176006
               4.00000000                0.00000000                5.00000000                0.54617194               -0.06543754               -0.08329750                0.25234445               -0.00044383                0.02057504               -0.00119911
               5.00000000                0.00000000                5.00000000                0.58372453               -0.06812893               -0.08516679                0.26197745               -0.00062599                0.01734024               -0.00105644
               6.00000000                0.00000000                5.00000000                0.63057757               -0.07277955               -0.08623836                0.27056449               -0.00054743                0.01347985               -0.00069974
               7.00000000                0.00000000                5.00000000                0.68663396               -0.07795665               -0.08684170                0.27835283               -0.00018796                0.00994614                0.00008970
               8.00000000                0.00000000                5.00000000                0.75032622               -0.08326681               -0.08743475                0.28650679                0.00042847                0.00809672                0.00083365
               9.00000000                0.00000000                5.00000000                0.81802692               -0.08747461               -0.08863722                0.29525608                0.00047934                0.00657756                0.00128032
              10.00000000                0.00000000                5.00000000                0.93057661               -0.08899788               -0.08979576                0.29876727                0.00029046                0.00620149                0.00493286
               0.00000000                1.00000000                5.00000000                0.49161059               -0.06732487               -0.06835935                0.21562143               -0.00285973               -0.00279839                0.00198560
               1.00000000                1.00000000                5.00000000                0.01000001               -0.06357736               -0.06357745                0.24241790               -0.01748005               -0.00353659               -0.00353646
               2.00000000                1.00000000                5.00000000                0.01000000               -0.06327393               -0.05255945                0.25889534               -0.00415549               -0.00646017                0.02732260
               3.00000000                1.00000000                5.00000000                0.01000000               -0.06909205               -0.03516650                0.26781153               -0.00567854                0.00065480                0.06209849
               4.00000000                1.00000000                5.00000000                0.04903661               -0.07278166               -0.08346123                0.27378898               -0.00899552                0.00696736                0.04280011
               5.00000000                1.00000000                5.00000000                0.10166223               -0.07506893               -0.08598531                0.27853025               -0.00382472                0.01005585                0.03355500
               6.00000000                1.00000000                5.00000000                0.16727195               -0.07708167               -0.08491569                0.28234375                0.00178381                0.00993217                0.02744880
               7.00000000                1.00000000                5.00000000                0.24655088               -0.07964332               -0.08329750                0.28558651                0.00553798                0.00750134                0.02176081
               8.00000000                1.00000000                5.00000000                0.33856137               -0.08346574               -0.08255449                0.28989439                0.00667977                0.00497485                0.01599672
               9.00000000                1.00000000                5.00000000                0.43910052               -0.08728920               -0.08366796                0.29597066                0.00460222                0.00234644                0.01385929
              10.00000000                1.00000000                5.00000000                0.75130888               -0.08881087               -0.08863005                0.29856423                0.00291860                0.00031133                0.01801114
               0.00000000                2.00000000                5.00000000                0.49644685               -0.07645222               -0.07146263                0.23078424                0.00159760               -0.00421116                0.01386789
               1.00000000                2.00000000                5.00000000                0.01000000               -0.05255933               -0.06327340                0.25889324               -0.00415486                0.02732233               -0.00645991
               2.00000000                2.00000000                5.00000000                0.01066089               -0.04998043               -0.04998048                0.27122017                0.03286626                0.05436477                0.05437224
               3.00000000                2.00000000                5.00000000                0.01086123               -0.07856133                0.00732938                0.27369687                0.00623251                0.01577503                0.15494519
               4.00000000                2.00000000                5.00000000                0.01000001               -0.07959759               -0.00421323                0.22305416                0.00339859               -0.02692702                0.23692665
               5.00000000                2.00000000                5.00000000                0.01000000               -0.07271308                0.06757462                0.23799080                0.10488291               -0.00310965                0.45027418
               6.00000000                2.00000000                5.00000000                0.03637905               -0.07333135                0.07616885                0.24805914                0.14255974                0.00369359                0.39107933
               7.00000000                2.00000000                5.00000000                0.07229918               -0.07734963                0.06456354                0.25648725                0.15123310                0.00087903                0.29878465
               8.00000000                2.00000000                5.00000000                0.11513360               -0.08468542                0.05131693                0.26812849                0.13615781               -0.00203404                0.22526548
               9.00000000                2.00000000                5.00000000                0.16255800               -0.09046616                0.03433009                0.28392306                0.10090760               -0.00225631                0.17946744
              10.00000000                2.00000000                5.00000000                0.59548296               -0.09165725               -0.02135537                0.28950874                0.06208231               -0.00378021                0.16189673
               0.00000000                3.00000000                5.00000000                0.51731986               -0.08031594               -0.06649143                0.24204141               -0.00000028               -0.00175999                0.02055488
               1.00000000                3.00000000                5.00000000                0.01000000               -0.03516296               -0.06909088                0.26780724               -0.00567865                0.06210530                0.00065532
               2.00000000                3.00000000                5.00000000                0.01086212                0.00733508               -0.07855947                0.27369645                0.00622753                0.15494688                0.01577417
               3.00000000                3.00000000                5.00000000                0.01277731               -0.02248680               -0.02249149                0.25836276                0.05467608                0.16769272                0.16768384
               4.00000000                3.00000000                5.00000000                0.01000000               -0.01764079                0.07485722                0.21915628                0.15652715                0.28371911                0.45163559
               5.00000000                3.00000000                5.00000000                0.02897610               -0.00319079                0.10356990                0.13393163                0.21199330                0.21994675                0.50463523
               6.00000000                3.00000000                5.00000000                0.05973929               -0.04358940                0.11794541                0.06781637                0.15753420               -0.07706612                0.41424697
               7.00000000                3.00000000                5.00000000                0.09599498               -0.08733622                0.12271773                0.11316288                0.15483096               -0.11124500                0.35000665
               8.00000000                3.00000000                5.00000000                0.13669342               -0.12641965                0.12289046                0.16568002                0.15636459               -0.08470357                0.29035179
               9.00000000                3.00000000                5.00000000                0.17820425               -0.15130217                0.11562119                0.21855461                0.10924988               -0.04410998                0.24442304
              10.00000000                3.00000000                5.00000000                0.60112786               -0.15801242                0.08213462                0.24595548                0.05200849               -0.01666886                0.20092631
               0.00000000                4.00000000                5.00000000                0.54617508               -0.08329499               -0.06543573                0.25233564               -0.00044412               -0.00119902                0.02057432
               1.00000000                4.00000000                5.00000000                0.04904123               -0.08345948               -0.07277977                0.27378244               -0.00899402                0.04279793                0.00696816
               2.00000000                4.00000000                5.00000000                0.01000001               -0.00422916               -0.07959422                0.22305215                0.00338885                0.23690636               -0.02693333
               3.00000000                4.00000000                5.00000000                0.01000000                0.07486731               -0.01764639                0.21913178                0.15651617                0.45162754                0.28369631
               4.00000000                4.00000000                5.00000000                0.02809224                0.02709093                0.02706320                0.12683067                0.13284166                0.31274548                0.31272226
               5.00000000                4.00000000                5.00000000                0.05781137               -0.02381319               -0.02219368                0.04893980                0.08514555                0.01024846                0.07344017
               6.00000000                4.00000000                5.00000000                0.09321979               -0.03517420               -0.01673778                0.07440248                0.06454644               -0.05639159                0.07122405
               7.00000000                4.00000000                5.00000000                0.13448786               -0.05558580                0.00300596                0.11475102                0.06503646               -0.07350188                0.09414840
               8.00000000                4.00000000                5.00000000                0.18043846               -0.08292898                0.02047847                0.16629560                0.07670174               -0.06569410                0.10036999
               9.00000000                4.00000000                5.00000000                0.22699845               -0.11291519                0.03658513                0.22413169                0.06847300               -0.03461064                0.09237874
              10.00000000                4.00000000                5.00000000                0.62700936               -0.12803494                0.08061966                0.26335852                0.06208996               -0.01255079                0.06818570
               0.00000000                5.00000000                5.00000000                0.58372959               -0.08516360               -0.06812650                0.26196640               -0.00062628               -0.00105632                0.01733956
               1.00000000                5.00000000                5.00000000                0.10166973               -0.08598254               -0.07506629                0.27852138               -0.00382341                0.03355374                0.01005684
               2.00000000                5.00000000                5.00000000                0.01000000                0.06758218               -0.07271072                0.23798648                0.10487075                0.45025735               -0.00310576
               3.00000000                5.00000000                5.00000000                0.02897900                0.10357694               -0.00319324                0.13392830                0.21198837                0.50463933                0.21992962
               4.00000000                5.00000000                5.00000000                0.05781302               -0.02219246               -0.02381413                0.04893925                0.08513838                0.07344956                0.01023628
               5.00000000                5.00000000                5.00000000                0.09247522               -0.03185548               -0.03185592                0.06839811                0.06833893               -0.01292289               -0.01293373
               6.00000000                5.00000000                5.00000000                0.13351660               -0.03841327               -0.03813720                0.10058932                0.05267143               -0.04384955               -0.00572312
               7.00000000                5.00000000                5.00000000                0.18122861               -0.05022752               -0.04102362                0.14284336                0.04242806               -0.06043893                0.00072998
               8.00000000                5.00000000                5.00000000                0.23449818               -0.06991065               -0.04079632                0.19515333                0.03671210               -0.05571285                0.00318365
               9.00000000                5.00000000                5.00000000                0.28877040               -0.09597485               -0.03179211                0.25440686                0.02685054               -0.03014149               -0.00075563
              10.00000000                5.00000000                5.00000000                0.66001957               -0.10989491                0.00753448                0.29757356                0.02666324               -0.00940447               -0.01286308
               0.00000000                6.00000000                5.00000000                0.63058491               -0.08623448               -0.07277635                0.27055114               -0.00054768               -0.00069956                0.01347920
               1.00000000                6.00000000                5.00000000                0.16728294               -0.08491187               -0.07707830                0.28233250                0.00178483                0.02744834                0.00993325
               2.00000000                6.00000000                5.00000000                0.03638504                0.07616327               -0.07332873                0.24805204                0.14254688                0.39104825                0.00369691
               3.00000000                6.00000000                5.00000000                0.05974426                0.11794461               -0.04358995                0.06782279                0.15750030                0.41422907               -0.07707948
               4.00000000                6.00000000                5.00000000                0.09322353               -0.01672882               -0.03517423                0.07440298                0.06453367                0.07123998               -0.05639879
               5.00000000                6.00000000                5.00000000                0.13351869               -0.03813424               -0.03841324                0.10058903                0.05266772               -0.00571340               -0.04385652
               6.00000000                6.00000000                5.00000000                0.18122073               -0.04678278               -0.04678367                0.13579424                0.03523446               -0.03887902               -0.03888528
               7.00000000                6.00000000                5.00000000                0.23693991               -0.05699121               -0.05673497                0.17882336                0.02072668               -0.05516552               -0.03516041
               8.00000000                6.00000000                5.00000000                0.29999520               -0.07409392               -0.06443424                0.23051807                0.01088754               -0.05130072               -0.03243230
               9.00000000                6.00000000                5.00000000                0.36543611               -0.09554688               -0.06439904                0.28859423                0.00492893               -0.02818829               -0.03241250
              10.00000000                6.00000000                5.00000000                0.70151908               -0.10616019               -0.04824570                0.33033367                0.00553498               -0.00808160               -0.03592109
               0.00000000                7.00000000                5.00000000                0.68664387               -0.08683717               -0.07795253                0.27833717               -0.00018818                0.00008993                0.00994542
               1.00000000                7.00000000                5.00000000                0.24656583               -0.08329316               -0.07963927                0.28557291                0.00553838                0.02176060                0.00750235
               2.00000000                7.00000000                5.00000000                0.07230765                0.06455375               -0.07734673                0.25647757                0.15121556                0.29875708                0.00088153
               3.00000000                7.00000000                5.00000000                0.09600240                0.12271039               -0.08733658                0.11316562                0.15480755                0.34998411               -0.11123753
               4.00000000                7.00000000                5.00000000                0.13449414                0.00301359               -0.05558635                0.11475039                0.06502776                0.09415642               -0.07350435
               5.00000000                7.00000000                5.00000000                0.18123328               -0.04101913               -0.05022776                0.14284186                0.04242469                0.00073752               -0.06044268
               6.00000000                7.00000000                5.00000000                0.23694250               -0.05673304               -0.05699144                0.17882221                0.02072615               -0.03515537               -0.05516909
               7.00000000                7.00000000                5.00000000                0.30275176               -0.06802023               -0.06802089                0.22008684                0.00443266               -0.05013407               -0.05013694
               8.00000000                7.00000000                5.00000000                0.37882801               -0.08362584               -0.07828907                0.26811382               -0.00446657               -0.04611932               -0.04411308
               9.00000000                7.00000000                5.00000000                0.46000859               -0.10081000               -0.08455600                0.32157085               -0.00566337               -0.02534809               -0.03931083
              10.00000000                7.00000000                5.00000000                0.75338090               -0.10844401               -0.08384777                0.35869320               -0.00434733               -0.00679562               -0.03773655
               0.00000000                8.00000000                5.00000000                0.75033872               -0.08742960               -0.08326175                0.28648886                0.00042826                0.00083388                0.00809582
               1.00000000                8.00000000                5.00000000                0.33858043               -0.08254979               -0.08346106                0.28987860                0.00667965                0.01599653                0.00497567
               2.00000000                8.00000000                5.00000000                0.11514477                0.05130619               -0.08468168                0.26811637                0.13613988                0.22524251               -0.00203208
               3.00000000                8.00000000                5.00000000                0.13670359                0.12287813               -0.12641325                0.16567830                0.15634401                0.29032831               -0.08469541
               4.00000000                8.00000000                5.00000000                0.18044765                0.02048194               -0.08292836                0.16629244                0.07669426                0.10037093               -0.06569381
               5.00000000                8.00000000                5.00000000                0.23450585               -0.04079150               -0.06991046                0.19514949                0.03671006                0.00318843               -0.05571413
               6.00000000                8.00000000                5.00000000                0.30000088               -0.06443139               -0.07409355                0.23051478                0.01088759               -0.03242908               -0.05130215
               7.00000000                8.00000000                5.00000000                0.37883118               -0.07828766               -0.08362569                0.26811189               -0.00446626               -0.04411160               -0.04612050
               8.00000000                8.00000000                5.00000000                0.47257492               -0.09361649               -0.09361690                0.30992821               -0.01094202               -0.03865771               -0.03865807
               9.00000000                8.00000000                5.00000000                0.57612325               -0.10798123               -0.10194279                0.35608720               -0.00912561               -0.02039512               -0.03132667
              10.00000000                8.00000000                5.00000000                0.81793952               -0.11351504               -0.10865592                0.38725117               -0.00862755               -0.00474626               -0.02833540
               0.00000000                9.00000000                5.00000000                0.81804178               -0.08863153               -0.08746871                0.29523603                0.00047912                0.00128052                0.00657665
               1.00000000                9.00000000                5.00000000                0.43912346               -0.08366289               -0.08728395                0.29595295                0.00460193                0.01385874                0.00234700
               2.00000000                9.00000000                5.00000000                0.16257187                0.03431963               -0.09046159                0.28390845                0.10089278                0.17944720               -0.00225516
               3.00000000                9.00000000                5.00000000                0.17821727                0.11560529               -0.15129082                0.21854788                0.10923539                0.24439920               -0.04410552
               4.00000000                9.00000000                5.00000000                0.22701073                0.03658372               -0.11291151                0.22412457                0.06846582                0.09237509               -0.03460991
               5.00000000                9.00000000                5.00000000                0.28878135               -0.03178829               -0.09597322                0.25439942                0.02684929               -0.00075345               -0.03014159
               6.00000000                9.00000000                5.00000000                0.36544526               -0.06439555               -0.09554567                0.28858777                0.00492929               -0.03241146               -0.02818854
               7.00000000                9.00000000                5.00000000                0.46001543               -0.08455365               -0.10080913                0.32156624               -0.00566292               -0.03931140               -0.02534832
               8.00000000                9.00000000                5.00000000                0.57612712               -0.10194157               -0.10798087                0.35608485               -0.00912541               -0.03132792               -0.02039507
               9.00000000                9.00000000                5.00000000                0.70931948               -0.11592970               -0.11592997                0.39364200               -0.00678918               -0.01499628               -0.01499545
              10.00000000                9.00000000                5.00000000                0.89322763               -0.12115942               -0.12413134                0.41901827               -0.00783004               -0.00183574               -0.01286395
               0.00000000               10.00000000                5.00000000                0.93058486               -0.08978959               -0.08899162                0.29874549                0.00028981                0.00493246                0.00620068
               1.00000000               10.00000000                5.00000000                0.75132162               -0.08862422               -0.08880537                0.29854490                0.00291793                0.01800947                0.00031174
               2.00000000               10.00000000                5.00000000                0.59549075               -0.02135986               -0.09165237                0.28949245                0.06207211                0.16187644               -0.00377948
               3.00000000               10.00000000                5.00000000                0.60113528                0.08211749               -0.15799911                0.24594542                0.05200039                0.20090327               -0.01666711
               4.00000000               10.00000000                5.00000000                0.62701645                0.08060798               -0.12802927                0.26334753                0.06208045                0.06818053               -0.01255059
               5.00000000               10.00000000                5.00000000                0.66002608                0.00753434               -0.10989231                0.29756246                0.02666058               -0.01286280               -0.00940477
               6.00000000               10.00000000                5.00000000                0.70152477               -0.04824203               -0.10615851                0.33032404                0.00553469               -0.03592231               -0.00808199
               7.00000000               10.00000000                5.00000000                0.75338551               -0.08384422               -0.10844282                0.35868591               -0.00434723               -0.03773960               -0.00679597
               8.00000000               10.00000000                5.00000000                0.81794272               -0.10865361               -0.11351433                0.38724651               -0.00862755               -0.02833921               -0.00474641
               9.00000000               10.00000000                5.00000000                0.89322891               -0.12413031               -0.12115926                0.41901619               -0.00783021               -0.01286685               -0.00183552
              10.00000000               10.00000000                5.00000000                0.96843261               -0.12880922               -0.12880968                0.44204035               -0.00887653               -0.00098368               -0.00098175
               0.00000000                0.00000000                6.00000000                0.74709346               -0.06293150               -0.06293111                0.19748288                0.00618901               -0.00143326               -0.00143345
               1.00000000                0.00000000                6.00000000                0.49192058               -0.06797881               -0.06773605                0.21749957                0.00023369               -0.00237054               -0.00274780
               2.00000000                0.00000000                6.00000000                0.49668772               -0.07300420               -0.07337680                0.23205998                0.00208535                0.00611978               -0.00370038
               3.00000000                0.00000000                6.00000000                0.51822638               -0.07257148               -0.07710034                0.24238863                0.00118553                0.01501292               -0.00191483
               4.00000000                0.00000000                6.00000000                0.54782108               -0.07247756               -0.07991810                0.25080114                0.00057899                0.01890438               -0.00105897
               5.00000000                0.00000000                6.00000000                0.58576857               -0.07394485               -0.08198531                0.25851414                0.00032970                0.01873526               -0.00061485
               6.00000000                0.00000000                6.00000000                0.63244312               -0.07681203               -0.08355834                0.26584934                0.00049127                0.01669230               -0.00022558
               7.00000000                0.00000000                6.00000000                0.68784620               -0.08054496               -0.08487172                0.27330951                0.00092076                0.01439666                0.00015803
               8.00000000                0.00000000                6.00000000                0.75135819               -0.08422133               -0.08622154                0.28134577                0.00111464                0.01324140                0.00037087
               9.00000000                0.00000000                6.00000000                0.82198764               -0.08664909               -0.08758648                0.28860382                0.00083628                0.01052061                0.00037616
              10.00000000                0.00000000                6.00000000                0.93500717               -0.08741665               -0.08948167                0.29324716               -0.00081924                0.00876917                0.00476717
               0.00000000                1.00000000                6.00000000                0.49192061               -0.06773566               -0.06797820                0.21749712                0.00023330               -0.00274794               -0.00237083
               1.00000000                1.00000000                6.00000000                0.01000001               -0.06791424               -0.06791426                0.23788599               -0.00655789               -0.00703560               -0.00703527
               2.00000000                1.00000000                6.00000000                0.01000000               -0.07049253               -0.05664947                0.25405152                0.00745337               -0.01364512                0.01526621
               3.00000000                1.00000000                6.00000000                0.01000000               -0.07448660               -0.04472318                0.26441783                0.01014174               -0.00866682                0.04746614
               4.00000000                1.00000000                6.00000000                0.04910757               -0.07692925               -0.08070496                0.27125852               -0.00160944               -0.00163685                0.01144361
               5.00000000                1.00000000                6.00000000                0.10159416               -0.07830951               -0.08347516                0.27619678                0.00186317                0.00348564                0.00991494
               6.00000000                1.00000000                6.00000000                0.16625262               -0.07957354               -0.08303910                0.28047414                0.00623916                0.00577045                0.00923077
               7.00000000                1.00000000                6.00000000                0.24389154               -0.08171770               -0.08241845                0.28527856                0.00849255                0.00607363                0.00778226
               8.00000000                1.00000000                6.00000000                0.33464692               -0.08502160               -0.08273568                0.29147270                0.00760567                0.00570067                0.00665712
               9.00000000                1.00000000                6.00000000                0.43770747               -0.08831788               -0.08413632                0.29744164                0.00466112                0.00337244                0.00799238
              10.00000000                1.00000000                6.00000000                0.75349742               -0.08972235               -0.09026349                0.30162680                0.00129958                0.00080252                0.01419073
               0.00000000                2.00000000                6.00000000                0.49668835               -0.07337573               -0.07300316                0.23205541                0.00208505               -0.00370033                0.00611939
               1.00000000                2.00000000                6.00000000                0.01000000               -0.05664874               -0.07049181                0.25404937                0.00745327                0.01526579               -0.01364457
               2.00000000                2.00000000                6.00000000                0.01069387               -0.05418527               -0.05418431                0.25520701                0.04411028                0.03761242                0.03761617
               3.00000000                2.00000000                6.00000000                0.01140559               -0.08619782               -0.01549571                0.25057543                0.02299251               -0.00929145                0.09949354
               4.00000000                2.00000000                6.00000000                0.01000001               -0.09025422               -0.01950357                0.24383820                0.03071525               -0.04734187                0.17328925
               5.00000000                2.00000000                6.00000000                0.01000000               -0.07573713                0.06963112                0.25875366                0.14334740               -0.00427944                0.34161333
               6.00000000                2.00000000                6.00000000                0.03685891               -0.07678525                0.06807732                0.26880240                0.17132998               -0.00013659                0.27783633
               7.00000000                2.00000000                6.00000000                0.07191023               -0.08223312                0.05688983                0.27831782                0.16916019               -0.00053017                0.21159018
               8.00000000                2.00000000                6.00000000                0.11394733               -0.08927035                0.04348423                0.28965751                0.14683123               -0.00019042                0.16433788
               9.00000000                2.00000000                6.00000000                0.16245273               -0.09382107                0.02500806                0.29889200                0.10950925                0.00031451                0.13914751
              10.00000000                2.00000000                6.00000000                0.59696953               -0.09490986               -0.03891460                0.30415475                0.07230093               -0.00186369                0.13318760
               0.00000000                3.00000000                6.00000000                0.51822807               -0.07709858               -0.07256999                0.24238190                0.00118524               -0.00191476                0.01501249
               1.00000000                3.00000000                6.00000000                0.01000000               -0.04471941               -0.07448515                0.26441345                0.01014235                0.04746861               -0.00866614
               2.00000000                3.00000000                6.00000000                0.01140647               -0.01549756               -0.08619514                0.25056695                0.02299419                0.09949301               -0.00928875
               3.00000000                3.00000000                6.00000000                0.01000001               -0.02826243               -0.02826269                0.19094930                0.05856721                0.10375876                0.10375787
               4.00000000                3.00000000                6.00000000                0.01000000                0.01365672                0.07460412                0.18767416                0.21849990                0.23735202                0.36344501
               5.00000000                3.00000000                6.00000000                0.03137515                0.01385492                0.10074062                0.08608893                0.25512716                0.14641505                0.37121162
               6.00000000                3.00000000                6.00000000                0.06174483               -0.06251242                0.10982525                0.09958308                0.17737754               -0.09566829                0.31841802
               7.00000000                3.00000000                6.00000000                0.09707900               -0.10641072                0.11209715                0.15077705                0.17821250               -0.09277546                0.27173169
               8.00000000                3.00000000                6.00000000                0.13704149               -0.13835735                0.11058999                0.19943255                0.17341073               -0.06373523                0.23021097
               9.00000000                3.00000000                6.00000000                0.18018231               -0.15371540                0.09955622                0.23657220                0.11831859               -0.02982550                0.20109606
              10.00000000                3.00000000                6.00000000                0.60405366               -0.15598630                0.05966536                0.25802051                0.05724305               -0.00968942                0.17744923
               0.00000000                4.00000000                6.00000000                0.54782427               -0.07991566               -0.07247553                0.25079221                0.00057872               -0.00105889                0.01890383
               1.00000000                4.00000000                6.00000000                0.04911214               -0.08070317               -0.07692705                0.27125186               -0.00160824                0.01144289               -0.00163603
               2.00000000                4.00000000                6.00000000                0.01000001               -0.01950300               -0.09025127                0.24383630                0.03070884                0.17327791               -0.04734265
               3.00000000                4.00000000                6.00000000                0.01000000                0.07461360                0.01364416                0.18768290                0.21849821                0.36345632                0.23734401
               4.00000000                4.00000000                6.00000000                0.03125300                0.04390749                0.04389643                0.07343238                0.18287995                0.23013068                0.23011558
               5.00000000                4.00000000                6.00000000                0.06129086               -0.02863223               -0.02863749                0.06770459                0.08039378               -0.01768410                0.03932997
               6.00000000                4.00000000                6.00000000                0.09639803               -0.04812856               -0.01732949                0.10082919                0.06138762               -0.05834809                0.06236672
               7.00000000                4.00000000                6.00000000                0.13682166               -0.07011413               -0.00136095                0.14313377                0.06924547               -0.06506209                0.08347230
               8.00000000                4.00000000                6.00000000                0.18215494               -0.09257609                0.01317055                0.19025129                0.08296893               -0.05185801                0.08933176
               9.00000000                4.00000000                6.00000000                0.23086122               -0.11489108                0.02658056                0.23159745                0.07259080               -0.02486203                0.08385932
              10.00000000                4.00000000                6.00000000                0.63130452               -0.12693807                0.07328733                0.26094749                0.06330451               -0.00855939                0.07043079
               0.00000000                5.00000000                6.00000000                0.58577368               -0.08198218               -0.07394218                0.25850295                0.00032945               -0.00061475                0.01873456
               1.00000000                5.00000000                6.00000000                0.10160155               -0.08347244               -0.07830656                0.27618781                0.00186437                0.00991481                0.00348651
               2.00000000                5.00000000                6.00000000                0.01000000                0.06964022               -0.07573422                0.25874868                0.14333487                0.34160045               -0.00427621
               3.00000000                5.00000000                6.00000000                0.03137802                0.10074701                0.01384654                0.08609079                0.25510543                0.37120083                0.14640404
               4.00000000                5.00000000                6.00000000                0.06129251               -0.02863851               -0.02863385                0.06770542                0.08038654                0.03933675               -0.01769439
               5.00000000                5.00000000                6.00000000                0.09626187               -0.03844092               -0.03844172                0.09224461                0.06090112               -0.01693897               -0.01694826
               6.00000000                5.00000000                6.00000000                0.13694088               -0.04795598               -0.04226610                0.12623100                0.04808686               -0.04132355               -0.00460050
               7.00000000                5.00000000                6.00000000                0.18374873               -0.06112623               -0.04462214                0.16729748                0.04118319               -0.05054660                0.00399813
               8.00000000                5.00000000                6.00000000                0.23635858               -0.07700748               -0.04461105                0.21372788                0.03721969               -0.04220136                0.00671049
               9.00000000                5.00000000                6.00000000                0.29293926               -0.09700627               -0.03507562                0.25610978                0.02738823               -0.02078903                0.00217039
              10.00000000                5.00000000                6.00000000                0.66472415               -0.10869203                0.00730444                0.28898883                0.02675863               -0.00756835               -0.00800391
               0.00000000                6.00000000                6.00000000                0.63245051               -0.08355454               -0.07680861                0.26583589                0.00049104               -0.00022545                0.01669142
               1.00000000                6.00000000                6.00000000                0.16626341               -0.08303537               -0.07956991                0.28046286                0.00624007                0.00923108                0.00577129
               2.00000000                6.00000000                6.00000000                0.03686476                0.06807204               -0.07678232                0.26879441                0.17131426                0.27781150               -0.00013380
               3.00000000                6.00000000                6.00000000                0.06174972                0.10982384               -0.06251421                0.09958826                0.17734141                0.31840165               -0.09567737
               4.00000000                6.00000000                6.00000000                0.09640174               -0.01732146               -0.04812900                0.10082970                0.06137719                0.06237914               -0.05835342
               5.00000000                6.00000000                6.00000000                0.13694295               -0.04226284               -0.04795653                0.12623056                0.04808394               -0.00459231               -0.04132927
               6.00000000                6.00000000                6.00000000                0.18421884               -0.05400107               -0.05400234                0.16042948                0.03211175               -0.03284877               -0.03285401
               7.00000000                6.00000000                6.00000000                0.23903054               -0.06556048               -0.06223108                0.20102444                0.01939344               -0.04315897               -0.02779139
               8.00000000                6.00000000                6.00000000                0.30139567               -0.07939963               -0.06847415                0.24659586                0.01054722               -0.03663026               -0.02619755
               9.00000000                6.00000000                6.00000000                0.36906146               -0.09572649               -0.06671387                0.28833014                0.00509480               -0.01805471               -0.02936354
              10.00000000                6.00000000                6.00000000                0.70606558               -0.10466791               -0.04819465                0.32126436                0.00582085               -0.00658372               -0.03671308
               0.00000000                7.00000000                6.00000000                0.68785611               -0.08486725               -0.08054070                0.27329381                0.00092056                0.00015818                0.01439557
               1.00000000                7.00000000                6.00000000                0.24390616               -0.08241424               -0.08171346                0.28526505                0.00849285                0.00778261                0.00607437
               2.00000000                7.00000000                6.00000000                0.07191847                0.05688046               -0.08222992                0.27830726                0.16914077                0.21156823               -0.00052796
               3.00000000                7.00000000                6.00000000                0.09708628                0.11208964               -0.10640925                0.15077827                0.17818775                0.27171215               -0.09276802
               4.00000000                7.00000000                6.00000000                0.13682785               -0.00135415               -0.07011451                0.14313273                0.06923818                0.08347769               -0.06506341
               5.00000000                7.00000000                6.00000000                0.18375334               -0.04461773               -0.06112661                0.16729572                0.04118066                0.00400423               -0.05054957
               6.00000000                7.00000000                6.00000000                0.23903310               -0.06222903               -0.06556085                0.20102319                0.01939314               -0.02778720               -0.04316200
               7.00000000                7.00000000                6.00000000                0.30406912               -0.07471450               -0.07471522                0.24012147                0.00426641               -0.03813238               -0.03813486
               8.00000000                7.00000000                6.00000000                0.37950750               -0.08756201               -0.08316531                0.28309210               -0.00383945               -0.03200210               -0.03509602
               9.00000000                7.00000000                6.00000000                0.46262508               -0.10057269               -0.08740871                0.32198378               -0.00463932               -0.01535873               -0.03572500
              10.00000000                7.00000000                6.00000000                0.75743793               -0.10706233               -0.08517250                0.35279102               -0.00366021               -0.00546649               -0.04048916
               0.00000000                8.00000000                6.00000000                0.75137069               -0.08621646               -0.08421622                0.28132790                0.00111441                0.00037099                0.01324010
               1.00000000                8.00000000                6.00000000                0.33466556               -0.08273108               -0.08501684                0.29145707                0.00760550                0.00665727                0.00570128
               2.00000000                8.00000000                6.00000000                0.11395820                0.04347388               -0.08926641                0.28964460                0.14681210                0.16431910               -0.00018868
               3.00000000                8.00000000                6.00000000                0.13705145                0.11057784               -0.13834983                0.19942905                0.17338875                0.23018993               -0.06372825
               4.00000000                8.00000000                6.00000000                0.18216398                0.01317348               -0.09257503                0.19024763                0.08296197                0.08933096               -0.05185731
               5.00000000                8.00000000                6.00000000                0.23636615               -0.04460660               -0.07700723                0.21372390                0.03721816                0.00671404               -0.04220247
               6.00000000                8.00000000                6.00000000                0.30140128               -0.06847144               -0.07939931                0.24659260                0.01054744               -0.02619487               -0.03663171
               7.00000000                8.00000000                6.00000000                0.37951061               -0.08316399               -0.08756188                0.28309026               -0.00383913               -0.03509463               -0.03200336
               8.00000000                8.00000000                6.00000000                0.47233382               -0.09608525               -0.09608561                0.32162118               -0.00922582               -0.02827206               -0.02827265
               9.00000000                8.00000000                6.00000000                0.57673263               -0.10744282               -0.10275675                0.35569378               -0.00717967               -0.01277441               -0.02724638
              10.00000000                8.00000000                6.00000000                0.82083013               -0.11269818               -0.10843862                0.38343349               -0.00666631               -0.00423410               -0.03011398
               0.00000000                9.00000000                6.00000000                0.82200272               -0.08758085               -0.08664320                0.28858393                0.00083600                0.00037628                0.01051943
               1.00000000                9.00000000                6.00000000                0.43773010               -0.08413133               -0.08831262                0.29742407                0.00466080                0.00799204                0.00337293
               2.00000000                9.00000000                6.00000000                0.16246632                0.02499801               -0.09381638                0.29887704                0.10949357                0.13913013                0.00031551
               3.00000000                9.00000000                6.00000000                0.18019518                0.09954079               -0.15370370                0.23656470                0.11830333                0.20107395               -0.02982198
               4.00000000                9.00000000                6.00000000                0.23087339                0.02657882               -0.11488720                0.23159065                0.07258370                0.08385449               -0.02486137
               5.00000000                9.00000000                6.00000000                0.29295015               -0.03507238               -0.09700468                0.25610301                0.02738717                0.00217178               -0.02078933
               6.00000000                9.00000000                6.00000000                0.36907054               -0.06671076               -0.09572540                0.28832437                0.00509520               -0.02936251               -0.01805526
               7.00000000                9.00000000                6.00000000                0.46263182               -0.08740662               -0.10057192                0.32197973               -0.00463889               -0.03572514               -0.01535926
               8.00000000                9.00000000                6.00000000                0.57673643               -0.10275570               -0.10744248                0.35569176               -0.00717947               -0.02724706               -0.01277466
               9.00000000                9.00000000                6.00000000                0.70833678               -0.11401915               -0.11401935                0.38449107               -0.00487711               -0.01189790               -0.01189748
              10.00000000                9.00000000                6.00000000                0.89487183               -0.11881726               -0.12193736                0.40970246               -0.00594648               -0.00339385               -0.01305004
               0.00000000               10.00000000                6.00000000                0.93501564               -0.08947549               -0.08741041                0.29322541               -0.00081992                0.00476667                0.00876821
               1.00000000               10.00000000                6.00000000                0.75351014               -0.09025769               -0.08971684                0.30160742                0.00129898                0.01418920                0.00080297
               2.00000000               10.00000000                6.00000000                0.59697725               -0.03891822               -0.09490481                0.30413797                0.07228987                0.13316951               -0.00186302
               3.00000000               10.00000000                6.00000000                0.60406107                0.05964896               -0.15597300                0.25801017                0.05723457                0.17742683               -0.00968819
               4.00000000               10.00000000                6.00000000                0.63131163                0.07327501               -0.12693236                0.26093775                0.06329503                0.07042432               -0.00855918
               5.00000000               10.00000000                6.00000000                0.66473070                0.00730345               -0.10868955                0.28897925                0.02675601               -0.00800389               -0.00756853
               6.00000000               10.00000000                6.00000000                0.70607129               -0.04819160               -0.10466640                0.32125605                0.00582054               -0.03671359               -0.00658404
               7.00000000               10.00000000                6.00000000                0.75744253               -0.08516937               -0.10706129                0.35278476               -0.00366012               -0.04049110               -0.00546683
               8.00000000               10.00000000                6.00000000                0.82083331               -0.10843664               -0.11269756                0.38342956               -0.00666630               -0.03011662               -0.00423430
               9.00000000               10.00000000                6.00000000                0.89487311               -0.12193652               -0.11881712                0.40970084               -0.00594663               -0.01305211               -0.00339377
              10.00000000               10.00000000                6.00000000                0.97032114               -0.12680397               -0.12680434                0.43396956               -0.00888365               -0.00394949               -0.00394811
               0.00000000                0.00000000                7.00000000                0.74763501               -0.06365199               -0.06365161                0.20437519                0.00484184               -0.00145581               -0.00145594
               1.00000000                0.00000000                7.00000000                0.49241811               -0.06671243               -0.06825099                0.21948542                0.00260604               -0.00373629               -0.00228183
               2.00000000                0.00000000                7.00000000                0.49684510               -0.07181751               -0.07144560                0.23256643                0.00229111                0.00196220               -0.00299814
               3.00000000                0.00000000                7.00000000                0.51858531               -0.07464328               -0.07498764                0.24209397                0.00200038                0.01066553               -0.00177324
               4.00000000                0.00000000                7.00000000                0.54852675               -0.07602029               -0.07768872                0.24941173                0.00150512                0.01624002               -0.00095807
               5.00000000                0.00000000                7.00000000                0.58669962               -0.07752249               -0.07991520                0.25595065                0.00131768                0.01801876               -0.00045504
               6.00000000                0.00000000                7.00000000                0.63339210               -0.07972448               -0.08180780                0.26249056                0.00142571                0.01747636               -0.00017028
               7.00000000                0.00000000                7.00000000                0.68881920               -0.08239044               -0.08350653                0.26944234                0.00161889                0.01630299               -0.00008221
               8.00000000                0.00000000                7.00000000                0.75305534               -0.08459435               -0.08507049                0.27655640                0.00151504                0.01545095               -0.00014892
               9.00000000                0.00000000                7.00000000                0.82670530               -0.08567561               -0.08661781                0.28274215                0.00107196                0.01170370               -0.00014956
              10.00000000                0.00000000                7.00000000                0.93918218               -0.08592326               -0.08894443                0.28814829               -0.00168669                0.00900976                0.00411562
               0.00000000                1.00000000                7.00000000                0.49241815               -0.06825062               -0.06671181                0.21948304                0.00260568               -0.00228200               -0.00373641
               1.00000000                1.00000000                7.00000000                0.01000001               -0.07105113               -0.07105109                0.23476984                0.00177461               -0.00756321               -0.00756274
               2.00000000                1.00000000                7.00000000                0.01000000               -0.07522853               -0.05652858                0.24941298                0.02014751               -0.01534894                0.00504314
               3.00000000                1.00000000                7.00000000                0.01000000               -0.07743354               -0.04015776                0.26024757                0.02644198               -0.01253816                0.02385202
               4.00000000                1.00000000                7.00000000                0.04799388               -0.07871151               -0.07681057                0.26801393                0.00656230               -0.00636612               -0.00735637
               5.00000000                1.00000000                7.00000000                0.10018209               -0.07951498               -0.08126875                0.27402361                0.00747149               -0.00076172               -0.00349238
               6.00000000                1.00000000                7.00000000                0.16422427               -0.08053827               -0.08204914                0.27957953                0.00976090                0.00300094               -0.00067960
               7.00000000                1.00000000                7.00000000                0.24113628               -0.08246951               -0.08235907                0.28561168                0.01016785                0.00518207                0.00075355
               8.00000000                1.00000000                7.00000000                0.33182390               -0.08545937               -0.08311954                0.29208106                0.00810821                0.00594862                0.00190576
               9.00000000                1.00000000                7.00000000                0.43773327               -0.08861007               -0.08471183                0.29788283                0.00463485                0.00350268                0.00448060
              10.00000000                1.00000000                7.00000000                0.75560168               -0.09003247               -0.09148125                0.30316810                0.00029108                0.00097555                0.01117880
               0.00000000                2.00000000                7.00000000                0.49684572               -0.07144457               -0.07181643                0.23256186                0.00229083               -0.00299808                0.00196208
               1.00000000                2.00000000                7.00000000                0.01000000               -0.05652833               -0.07522768                0.24941081                0.02014780                0.00504261               -0.01534820
               2.00000000                2.00000000                7.00000000                0.01019263               -0.05414195               -0.05414026                0.25013015                0.07888699                0.01967138                0.01967422
               3.00000000                2.00000000                7.00000000                0.01090200               -0.09392757               -0.01490310                0.23440484                0.05622583               -0.02454623                0.06286235
               4.00000000                2.00000000                7.00000000                0.01000001               -0.10075254               -0.01957424                0.26024759                0.06401469               -0.04476706                0.11832527
               5.00000000                2.00000000                7.00000000                0.01000000               -0.07889757                0.06535900                0.27371948                0.16897331               -0.00485994                0.22555847
               6.00000000                2.00000000                7.00000000                0.03550627               -0.07938511                0.06204576                0.28328890                0.18817759               -0.00237006                0.17908215
               7.00000000                2.00000000                7.00000000                0.06987147               -0.08453062                0.04932615                0.29251555                0.17806862               -0.00112146                0.13775390
               8.00000000                2.00000000                7.00000000                0.11140967               -0.09100485                0.03402978                0.30144445                0.15158616                0.00075600                0.11113931
               9.00000000                2.00000000                7.00000000                0.16093717               -0.09538895                0.01387168                0.30829124                0.11357290                0.00070369                0.10017421
              10.00000000                2.00000000                7.00000000                0.59722110               -0.09653263               -0.05527818                0.31372275                0.07901902               -0.00102601                0.10224175
               0.00000000                3.00000000                7.00000000                0.51858699               -0.07498593               -0.07464173                0.24208721                0.00200011               -0.00177317                0.01066530
               1.00000000                3.00000000                7.00000000                0.01000000               -0.04015352               -0.07743189                0.26024316                0.02644311                0.02385237               -0.01253740
               2.00000000                3.00000000                7.00000000                0.01090286               -0.01490166               -0.09392496                0.23439557                0.05622437                0.06285947               -0.02454301
               3.00000000                3.00000000                7.00000000                0.01000001               -0.02509608               -0.02509891                0.22715059                0.08488993                0.10290662                0.10290084
               4.00000000                3.00000000                7.00000000                0.01000000                0.01429280                0.07503409                0.21271962                0.25083256                0.17694603                0.28162055
               5.00000000                3.00000000                7.00000000                0.03121503                0.00072169                0.09325852                0.09297481                0.27818955                0.07268372                0.25144855
               6.00000000                3.00000000                7.00000000                0.06114199               -0.07753993                0.09855416                0.13502857                0.19543239               -0.08344460                0.22272441
               7.00000000                3.00000000                7.00000000                0.09588979               -0.11804597                0.09810876                0.18476381                0.18916104               -0.07027857                0.19132312
               8.00000000                3.00000000                7.00000000                0.13558831               -0.14384689                0.09361381                0.22572928                0.17996099               -0.04449354                0.16558104
               9.00000000                3.00000000                7.00000000                0.18016240               -0.15265830                0.07868177                0.25480496                0.12133607               -0.01944003                0.15116887
              10.00000000                3.00000000                7.00000000                0.60523794               -0.15148709                0.03404789                0.27184523                0.05915082               -0.00402677                0.14311111
               0.00000000                4.00000000                7.00000000                0.54852994               -0.07768633               -0.07601817                0.24940274                0.00150488               -0.00095799                0.01623956
               1.00000000                4.00000000                7.00000000                0.04799837               -0.07680887               -0.07870909                0.26800726                0.00656349               -0.00735605               -0.00636533
               2.00000000                4.00000000                7.00000000                0.01000001               -0.01957680               -0.10074981                0.26024488                0.06400414                0.11831582               -0.04476499
               3.00000000                4.00000000                7.00000000                0.01000000                0.07504401                0.01428292                0.21272102                0.25082555                0.28161672                0.17693834
               4.00000000                4.00000000                7.00000000                0.03164586                0.03973133                0.03971718                0.08296275                0.18117955                0.14502778                0.14501652
               5.00000000                4.00000000                7.00000000                0.06176550               -0.04257648               -0.03472455                0.09694722                0.07611223               -0.02772885                0.02620477
               6.00000000                4.00000000                7.00000000                0.09664452               -0.06113463               -0.02641258                0.13307445                0.06318712               -0.05061386                0.05123790
               7.00000000                4.00000000                7.00000000                0.13674961               -0.08106789               -0.01274036                0.17378841                0.07271565               -0.05103004                0.06756317
               8.00000000                4.00000000                7.00000000                0.18218315               -0.09841531               -0.00011877                0.21294674                0.08560928               -0.03716409                0.07223605
               9.00000000                4.00000000                7.00000000                0.23302514               -0.11525006                0.01067482                0.24422648                0.07350320               -0.01714098                0.07001166
              10.00000000                4.00000000                7.00000000                0.63388674               -0.12484142                0.05731676                0.26627886                0.06198759               -0.00532720                0.06548415
               0.00000000                5.00000000                7.00000000                0.58670473               -0.07991214               -0.07751972                0.25593943                0.00131746               -0.00045495                0.01801801
               1.00000000                5.00000000                7.00000000                0.10018934               -0.08126614               -0.07951183                0.27401467                0.00747265               -0.00349186               -0.00076096
               2.00000000                5.00000000                7.00000000                0.01000000                0.06536695               -0.07889439                0.27371377                0.16895943                0.22554797               -0.00485747
               3.00000000                5.00000000                7.00000000                0.03121783                0.09326465                0.00071583                0.09297549                0.27817088                0.25143773                0.07267572
               4.00000000                5.00000000                7.00000000                0.06176711               -0.03472470               -0.04257776                0.09694812                0.07610539                0.02620978               -0.02773692
               5.00000000                5.00000000                7.00000000                0.09695640               -0.04768978               -0.04769073                0.12279544                0.05825318               -0.01559667               -0.01560417
               6.00000000                5.00000000                7.00000000                0.13754819               -0.05857305               -0.05053214                0.15617265                0.04742321               -0.03388687               -0.00258462
               7.00000000                5.00000000                7.00000000                0.18420419               -0.07033161               -0.05259917                0.19381735                0.04183027               -0.03825345                0.00535243
               8.00000000                5.00000000                7.00000000                0.23708116               -0.08232557               -0.05242347                0.23136286                0.03806798               -0.02926613                0.00751189
               9.00000000                5.00000000                7.00000000                0.29620792               -0.09792031               -0.04254207                0.26320257                0.02746194               -0.01410697                0.00441900
              10.00000000                5.00000000                7.00000000                0.66808695               -0.10746147                0.00003813                0.28792538                0.02596154               -0.00512996               -0.00221929
               0.00000000                6.00000000                7.00000000                0.63339948               -0.08180407               -0.07972099                0.26247712                0.00142550               -0.00017019                0.01747532
               1.00000000                6.00000000                7.00000000                0.16423485               -0.08204552               -0.08053448                0.27956835                0.00976177               -0.00067900                0.00300161
               2.00000000                6.00000000                7.00000000                0.03551197                0.06204112               -0.07938194                0.28328031                0.18816043                0.17906300               -0.00236784
               3.00000000                6.00000000                7.00000000                0.06114675                0.09855282               -0.07754112                0.13503242                0.19539687                0.22271055               -0.08344965
               4.00000000                6.00000000                7.00000000                0.09664815               -0.02640535               -0.06113502                0.13307471                0.06317788                0.05124661               -0.05061792
               5.00000000                6.00000000                7.00000000                0.13755022               -0.05052905               -0.05857367                0.15617212                0.04742073               -0.00257806               -0.03389153
               6.00000000                6.00000000                7.00000000                0.18488127               -0.06270213               -0.06270339                0.18798087                0.03218971               -0.02499377               -0.02499811
               7.00000000                6.00000000                7.00000000                0.23967256               -0.07291997               -0.06925991                0.22407596                0.02043539               -0.03117375               -0.02035882
               8.00000000                6.00000000                7.00000000                0.30229985               -0.08351086               -0.07379157                0.26038598                0.01207084               -0.02421345               -0.01982509
               9.00000000                6.00000000                7.00000000                0.37261306               -0.09627615               -0.07030802                0.29199737                0.00622913               -0.01152102               -0.02340251
              10.00000000                6.00000000                7.00000000                0.70969666               -0.10347722               -0.05081689                0.31755505                0.00626983               -0.00409754               -0.03105097
               0.00000000                7.00000000                7.00000000                0.68882910               -0.08350213               -0.08238616                0.26942672                0.00161867               -0.00008212                0.01630169
               1.00000000                7.00000000                7.00000000                0.24115061               -0.08235495               -0.08246520                0.28559831                0.01016808                0.00075399                0.00518263
               2.00000000                7.00000000                7.00000000                0.06987950                0.04931730               -0.08452728                0.29250453                0.17804817                0.13773662               -0.00111956
               3.00000000                7.00000000                7.00000000                0.09589687                0.09810163               -0.11804357                0.18476345                0.18913511                0.19130639               -0.07027218
               4.00000000                7.00000000                7.00000000                0.13675565               -0.01273401               -0.08106790                0.17378693                0.07270886                0.06756613               -0.05103077
               5.00000000                7.00000000                7.00000000                0.18420870               -0.05259511               -0.07033187                0.19381543                0.04182810                0.00535708               -0.03825589
               6.00000000                7.00000000                7.00000000                0.23967506               -0.06925800               -0.07292028                0.22407465                0.02043516               -0.02035536               -0.03117638
               7.00000000                7.00000000                7.00000000                0.30473243               -0.08012382               -0.08012444                0.25833857                0.00636587               -0.02737842               -0.02738063
               8.00000000                7.00000000                7.00000000                0.38014805               -0.09015098               -0.08647715                0.29256609               -0.00098591               -0.02113894               -0.02678805
               9.00000000                7.00000000                7.00000000                0.46559782               -0.10046492               -0.08866549                0.32273185               -0.00232796               -0.00965158               -0.02961257
              10.00000000                7.00000000                7.00000000                0.76080411               -0.10572082               -0.08495967                0.34790945               -0.00214417               -0.00305235               -0.03636374
               0.00000000                8.00000000                7.00000000                0.75306788               -0.08506547               -0.08458925                0.27653868                0.00151477               -0.00014884                0.01544947
               1.00000000                8.00000000                7.00000000                0.33184226               -0.08311500               -0.08545460                0.29206557                0.00810795                0.00190593                0.00594910
               2.00000000                8.00000000                7.00000000                0.11142027                0.03401998               -0.09100083                0.30143120                0.15156631                0.11112394                0.00075756
               3.00000000                8.00000000                7.00000000                0.13559805                0.09360228               -0.14383886                0.22572455                0.17993808                0.16556266               -0.04448794
               4.00000000                8.00000000                7.00000000                0.18219201               -0.00011606               -0.09841388                0.21294271                0.08560241                0.07223386               -0.03716345
               5.00000000                8.00000000                7.00000000                0.23708860               -0.05241945               -0.08232515                0.23135888                0.03806662                0.00751433               -0.02926720
               6.00000000                8.00000000                7.00000000                0.30230536               -0.07378914               -0.08351047                0.26038283                0.01207107               -0.01982285               -0.02421492
               7.00000000                8.00000000                7.00000000                0.38015111               -0.08647601               -0.09015080                0.29256436               -0.00098562               -0.02678667               -0.02114026
               8.00000000                8.00000000                7.00000000                0.47203714               -0.09699478               -0.09699505                0.32403727               -0.00554395               -0.02042608               -0.02042686
               9.00000000                8.00000000                7.00000000                0.57766376               -0.10638445               -0.10217646                0.35203401               -0.00431671               -0.00907309               -0.02246245
              10.00000000                8.00000000                7.00000000                0.82304047               -0.11075981               -0.10637747                0.37647814               -0.00489544               -0.00244571               -0.02711684
               0.00000000                9.00000000                7.00000000                0.82672059               -0.08661222               -0.08566975                0.28272242                0.00107164               -0.00014947                0.01170244
               1.00000000                9.00000000                7.00000000                0.43775574               -0.08470686               -0.08860480                0.29786530                0.00463448                0.00448029                0.00350311
               2.00000000                9.00000000                7.00000000                0.16095054                0.01386218               -0.09538416                0.30827598                0.11355662                0.10015937                0.00070465
               3.00000000                9.00000000                7.00000000                0.18017509                0.07866719               -0.15264654                0.25479661                0.12132026                0.15114896               -0.01943730
               4.00000000                9.00000000                7.00000000                0.23303715                0.01067312               -0.11524604                0.24421972                0.07349610                0.07000599               -0.01714048
               5.00000000                9.00000000                7.00000000                0.29621869               -0.04253932               -0.09791864                0.26319622                0.02746093                0.00441962               -0.01410736
               6.00000000                9.00000000                7.00000000                0.37262200               -0.07030535               -0.09627506                0.29199209                0.00622949               -0.02340152               -0.01152170
               7.00000000                9.00000000                7.00000000                0.46560447               -0.08866370               -0.10046418                0.32272820               -0.00232759               -0.02961230               -0.00965224
               8.00000000                9.00000000                7.00000000                0.57766747               -0.10217558               -0.10638412                0.35203224               -0.00431655               -0.02246261               -0.00907350
               9.00000000                9.00000000                7.00000000                0.70911759               -0.11251271               -0.11251287                0.37834275               -0.00281636               -0.01017837               -0.01017826
              10.00000000                9.00000000                7.00000000                0.89686247               -0.11700734               -0.11950895                0.40245301               -0.00486666               -0.00287718               -0.01226992
               0.00000000               10.00000000                7.00000000                0.93919083               -0.08893825               -0.08591704                0.28812661               -0.00168737                0.00411509                0.00900875
               1.00000000               10.00000000                7.00000000                0.75561439               -0.09147545               -0.09002693                0.30314862                0.00029050                0.01117729                0.00097598
               2.00000000               10.00000000                7.00000000                0.59722874               -0.05528094               -0.09652746                0.31370559                0.07900726                0.10222580               -0.00102536
               3.00000000               10.00000000                7.00000000                0.60524530                0.03403256               -0.15147396                0.27183428                0.05914204                0.14309031               -0.00402596
               4.00000000               10.00000000                7.00000000                0.63389381                0.05730446               -0.12483572                0.26626961                0.06197820                0.06547684               -0.00532706
               5.00000000               10.00000000                7.00000000                0.66809347                0.00003660               -0.10745899                0.28791668                0.02595898               -0.00221974               -0.00513014
               6.00000000               10.00000000                7.00000000                0.70970232               -0.05081445               -0.10347577                0.31754761                0.00626946               -0.03105103               -0.00409790
               7.00000000               10.00000000                7.00000000                0.76080865               -0.08495702               -0.10571985                0.34790390               -0.00214414               -0.03636473               -0.00305273
               8.00000000               10.00000000                7.00000000                0.82304359               -0.10637578               -0.11075925                0.37647471               -0.00489546               -0.02711844               -0.00244597
               9.00000000               10.00000000                7.00000000                0.89686373               -0.11950822               -0.11700721                0.40245158               -0.00486680               -0.01227124               -0.00287720
              10.00000000               10.00000000                7.00000000                0.97214060               -0.12447138               -0.12447170                0.42646068               -0.00813363               -0.00341846               -0.00341756
               0.00000000                0.00000000                8.00000000                0.74811844               -0.06409247               -0.06409209                0.20942887                0.00400503               -0.00122585               -0.00122597
               1.00000000                0.00000000                8.00000000                0.49293486               -0.06520763               -0.06878754                0.22115740                0.00437963               -0.00367098               -0.00171693
               2.00000000                0.00000000                8.00000000                0.49692391               -0.06958173               -0.07039093                0.23262181                0.00236442               -0.00005380               -0.00224799
               3.00000000                0.00000000                8.00000000                0.51856958               -0.07462807               -0.07373639                0.24148880                0.00248824                0.00727435               -0.00146469
               4.00000000                0.00000000                8.00000000                0.54857595               -0.07754135               -0.07634427                0.24830943                0.00215798                0.01303841               -0.00081282
               5.00000000                0.00000000                8.00000000                0.58686837               -0.07966071               -0.07864921                0.25429919                0.00203889                0.01589010               -0.00039277
               6.00000000                0.00000000                8.00000000                0.63371068               -0.08169224               -0.08069511                0.26029947                0.00205582                0.01658942               -0.00022478
               7.00000000                0.00000000                8.00000000                0.68948517               -0.08357915               -0.08253498                0.26658683                0.00204630                0.01634135               -0.00028359
               8.00000000                0.00000000                8.00000000                0.75476559               -0.08467546               -0.08418888                0.27281580                0.00174457                0.01551739               -0.00039346
               9.00000000                0.00000000                8.00000000                0.83103597               -0.08484509               -0.08584451                0.27838489                0.00120823                0.01127852               -0.00037668
              10.00000000                0.00000000                8.00000000                0.94263527               -0.08476725               -0.08841521                0.28423831               -0.00219849                0.00814754                0.00334705
               0.00000000                1.00000000                8.00000000                0.49293490               -0.06878719               -0.06520700                0.22115509                0.00437928               -0.00171712               -0.00367102
               1.00000000                1.00000000                8.00000000                0.01000001               -0.07330987               -0.07330978                0.23297584                0.00784591               -0.00669273               -0.00669216
               2.00000000                1.00000000                8.00000000                0.01000000               -0.07836482               -0.05279857                0.24587249                0.03357317               -0.01410131               -0.00112270
               3.00000000                1.00000000                8.00000000                0.01000000               -0.07906811               -0.03739118                0.25664820                0.03766760               -0.01292671                0.00223018
               4.00000000                1.00000000                8.00000000                0.04653299               -0.07936675               -0.07388442                0.26513907                0.01280950               -0.00801138               -0.01641854
               5.00000000                1.00000000                8.00000000                0.09841264               -0.07972727               -0.07964874                0.27216615                0.01165504               -0.00265969               -0.00985308
               6.00000000                1.00000000                8.00000000                0.16213001               -0.08057829               -0.08153291                0.27867948                0.01203568                0.00170504               -0.00545467
               7.00000000                1.00000000                8.00000000                0.23885580               -0.08238896               -0.08242267                0.28519464                0.01104091                0.00470079               -0.00277911
               8.00000000                1.00000000                8.00000000                0.33010477               -0.08526497               -0.08342872                0.29155548                0.00815614                0.00570648               -0.00070221
               9.00000000                1.00000000                8.00000000                0.43865853               -0.08843154               -0.08511791                0.29735356                0.00446040                0.00325690                0.00215216
              10.00000000                1.00000000                8.00000000                0.75754026               -0.08991466               -0.09215499                0.30328561               -0.00026407                0.00100418                0.00834792
               0.00000000                2.00000000                8.00000000                0.49692453               -0.07038993               -0.06958064                0.23261727                0.00236415               -0.00224794               -0.00005378
               1.00000000                2.00000000                8.00000000                0.01000000               -0.05279862               -0.07836387                0.24587032                0.03357370               -0.00112333               -0.01410043
               2.00000000                2.00000000                8.00000000                0.01000001               -0.05560756               -0.05560558                0.24597805                0.10497313               -0.00100452               -0.00100678
               3.00000000                2.00000000                8.00000000                0.01000001               -0.10408341                0.00135759                0.24397033                0.09547570               -0.03326804                0.03628708
               4.00000000                2.00000000                8.00000000                0.01000001               -0.10755662               -0.00658386                0.27196411                0.09242961               -0.03221875                0.08027606
               5.00000000                2.00000000                8.00000000                0.01000000               -0.08097902                0.06024780                0.28281865                0.18546518               -0.00479794                0.12268197
               6.00000000                2.00000000                8.00000000                0.03356406               -0.08051441                0.05593858                0.29157666                0.19591597               -0.00325924                0.09708007
               7.00000000                2.00000000                8.00000000                0.06745334               -0.08505517                0.04083826                0.29972707                0.18063267               -0.00121313                0.07690052
               8.00000000                2.00000000                8.00000000                0.10876848               -0.09123063                0.02340723                0.30721015                0.15158125                0.00070293                0.06620858
               9.00000000                2.00000000                8.00000000                0.15913785               -0.09557921                0.00177788                0.31315871                0.11410571                0.00046363                0.06538809
              10.00000000                2.00000000                8.00000000                0.59695867               -0.09678250               -0.07016006                0.31868229                0.08274342               -0.00053462                0.07227273
               0.00000000                3.00000000                8.00000000                0.51857124               -0.07373472               -0.07462650                0.24148206                0.00248800               -0.00146463                0.00727422
               1.00000000                3.00000000                8.00000000                0.01000000               -0.03738892               -0.07906633                0.25664382                0.03766886                0.00222542               -0.01292589
               2.00000000                3.00000000                8.00000000                0.01000001                0.00135667               -0.10408089                0.24396683                0.09547650                0.03628175               -0.03326527
               3.00000000                3.00000000                8.00000000                0.01300311               -0.02210911               -0.02211196                0.22485054                0.13758667                0.08289406                0.08288676
               4.00000000                3.00000000                8.00000000                0.01000000               -0.00601607                0.06792543                0.21360816                0.25535538                0.07865055                0.17422386
               5.00000000                3.00000000                8.00000000                0.02975786               -0.01575552                0.08313931                0.12548575                0.28038483                0.00725820                0.14441918
               6.00000000                3.00000000                8.00000000                0.05934904               -0.08894298                0.08508994                0.16916902                0.20581154               -0.06049997                0.13365091
               7.00000000                3.00000000                8.00000000                0.09375048               -0.12411072                0.08146992                0.21336426                0.19212892               -0.04717283                0.11648393
               8.00000000                3.00000000                8.00000000                0.13343014               -0.14530242                0.07384947                0.24740449                0.18026016               -0.02831853                0.10461679
               9.00000000                3.00000000                8.00000000                0.17906908               -0.14912030                0.05554298                0.27063954                0.12067928               -0.01156889                0.10155159
              10.00000000                3.00000000                8.00000000                0.60538878               -0.14542483                0.00780013                0.28449673                0.05886477               -0.00011068                0.10454509
               0.00000000                4.00000000                8.00000000                0.54857911               -0.07634194               -0.07753923                0.24830047                0.00215775               -0.00081276                0.01303797
               1.00000000                4.00000000                8.00000000                0.04653740               -0.07388293               -0.07936419                0.26513246                0.01281058               -0.01641762               -0.00801061
               2.00000000                4.00000000                8.00000000                0.01000001               -0.00658394               -0.10755374                0.27196110                0.09242249                0.08026867               -0.03221079
               3.00000000                4.00000000                8.00000000                0.01000000                0.06793507               -0.00602830                0.21362516                0.25535142                0.17422424                0.07864995
               4.00000000                4.00000000                8.00000000                0.03046939                0.01773812                0.01772632                0.10467521                0.17647150                0.05898060                0.05897254
               5.00000000                4.00000000                8.00000000                0.06057802               -0.05276761               -0.04395583                0.13164980                0.07920798               -0.02466716                0.01973211
               6.00000000                4.00000000                8.00000000                0.09536727               -0.07192455               -0.03916723                0.16661041                0.06676207               -0.03760321                0.03839016
               7.00000000                4.00000000                8.00000000                0.13542729               -0.08855220               -0.02697694                0.20231976                0.07525231               -0.03551486                0.04873167
               8.00000000                4.00000000                8.00000000                0.18126026               -0.10161901               -0.01582535                0.23413709                0.08658832               -0.02453566                0.05193996
               9.00000000                4.00000000                8.00000000                0.23383371               -0.11447300               -0.00737600                0.25846003                0.07306795               -0.01108709                0.05196494
              10.00000000                4.00000000                8.00000000                0.63520772               -0.12236063                0.03777364                0.27574217                0.05942830               -0.00300152                0.05369884
               0.00000000                5.00000000                8.00000000                0.58687344               -0.07864621               -0.07965794                0.25428802                0.00203868               -0.00039270                0.01588932
               1.00000000                5.00000000                8.00000000                0.09841976               -0.07964622               -0.07972400                0.27215731                0.01165620               -0.00985229               -0.00265901
               2.00000000                5.00000000                8.00000000                0.01000000                0.06025629               -0.08097551                0.28281242                0.18545084                0.12267413               -0.00479610
               3.00000000                5.00000000                8.00000000                0.02976058                0.08314552               -0.01576339                0.12548741                0.28036354                0.14440877                0.00725374
               4.00000000                5.00000000                8.00000000                0.06057958               -0.04395649               -0.05276938                0.13165034                0.07920186                0.01973487               -0.02467302
               5.00000000                5.00000000                8.00000000                0.09597357               -0.05805891               -0.05805980                0.15622344                0.05879477               -0.01115784               -0.01116343
               6.00000000                5.00000000                8.00000000                0.13670040               -0.06802586               -0.06041595                0.18649917                0.04870744               -0.02413052               -0.00054172
               7.00000000                5.00000000                8.00000000                0.18353865               -0.07741397               -0.06204041                0.21842714                0.04330830               -0.02599631                0.00510299
               8.00000000                5.00000000                8.00000000                0.23707678               -0.08618840               -0.06155330                0.24824922                0.03903786               -0.01900904                0.00645235
               9.00000000                5.00000000                8.00000000                0.29843688               -0.09857251               -0.05169114                0.27259832                0.02743922               -0.00912016                0.00463019
              10.00000000                5.00000000                8.00000000                0.67033408               -0.10661704               -0.01047072                0.29177050                0.02484378               -0.00346772                0.00140049
               0.00000000                6.00000000                8.00000000                0.63371802               -0.08069145               -0.08168877                0.26028614                0.00205562               -0.00022472                0.01658832
               1.00000000                6.00000000                8.00000000                0.16214042               -0.08152938               -0.08057443                0.27866844                0.01203652               -0.00545408                0.00170559
               2.00000000                6.00000000                8.00000000                0.03356960                0.05593461               -0.08051111                0.29156777                0.19589800                0.09706571               -0.00325750
               3.00000000                6.00000000                8.00000000                0.05935366                0.08508910               -0.08894387                0.16917125                0.20577526                0.13363933               -0.06050285
               4.00000000                6.00000000                8.00000000                0.09537080               -0.03916045               -0.07192461                0.16661021                0.06675336                0.03839541               -0.03760615
               5.00000000                6.00000000                8.00000000                0.13670238               -0.06041321               -0.06802629                0.18649852                0.04870520               -0.00053691               -0.02413414
               6.00000000                6.00000000                8.00000000                0.18435832               -0.07080069               -0.07080175                0.21399893                0.03368526               -0.01705616               -0.01705960
               7.00000000                6.00000000                8.00000000                0.23943970               -0.07878947               -0.07587861                0.24383219                0.02249053               -0.02076909               -0.01399769
               8.00000000                6.00000000                8.00000000                0.30273923               -0.08668393               -0.07894543                0.27240241                0.01416410               -0.01545098               -0.01439336
               9.00000000                6.00000000                8.00000000                0.37546391               -0.09686383               -0.07437615                0.29669645                0.00750247               -0.00717537               -0.01776495
              10.00000000                6.00000000                8.00000000                0.71239341               -0.10290121               -0.05485475                0.31693500                0.00672876               -0.00266010               -0.02399105
               0.00000000                7.00000000                8.00000000                0.68949502               -0.08253065               -0.08357491                0.26657138                0.00204606               -0.00028354                0.01634000
               1.00000000                7.00000000                8.00000000                0.23886992               -0.08241861               -0.08238464                0.28518141                0.01104108               -0.00277876                0.00470122
               2.00000000                7.00000000                8.00000000                0.06746118                0.04083010               -0.08505178                0.29971584                0.18061173                0.07688707               -0.00121150
               3.00000000                7.00000000                8.00000000                0.09375738                0.08146353               -0.12410776                0.21336257                0.19210224                0.11646996               -0.04716771
               4.00000000                7.00000000                8.00000000                0.13543318               -0.02697082               -0.08855179                0.20231776                0.07524552                0.04873250               -0.03551527
               5.00000000                7.00000000                8.00000000                0.18354306               -0.06203676               -0.07741399                0.21842508                0.04330624                0.00510621               -0.02599830
               6.00000000                7.00000000                8.00000000                0.23944213               -0.07587696               -0.07878963                0.24383088                0.02249031               -0.01399495               -0.02077133
               7.00000000                7.00000000                8.00000000                0.30469822               -0.08439452               -0.08439500                0.27197468                0.00928673               -0.01878629               -0.01878824
               8.00000000                7.00000000                8.00000000                0.38045157               -0.09209801               -0.08911872                0.29930440                0.00208450               -0.01405895               -0.01980466
               9.00000000                7.00000000                8.00000000                0.46807761               -0.10039158               -0.08994350                0.32321970               -0.00029350               -0.00621370               -0.02353523
              10.00000000                7.00000000                8.00000000                0.76335173               -0.10479385               -0.08520807                0.34399395               -0.00091842               -0.00190831               -0.02987916
               0.00000000                8.00000000                8.00000000                0.75477816               -0.08418392               -0.08467040                0.27279829                0.00174427               -0.00039342                0.01551591
               1.00000000                8.00000000                8.00000000                0.33012292               -0.08342421               -0.08526022                0.29154012                0.00815583               -0.00070215                0.00570684
               2.00000000                8.00000000                8.00000000                0.10877887                0.02339815               -0.09122659                0.30719674                0.15156104                0.06619605                0.00070434
               3.00000000                8.00000000                8.00000000                0.13343968                0.07383889               -0.14529419                0.24739872                0.18023662                0.10460112               -0.02831416
               4.00000000                8.00000000                8.00000000                0.18126892               -0.01582263               -0.10161729                0.23413268                0.08658131                0.05193678               -0.02453515
               5.00000000                8.00000000                8.00000000                0.23708405               -0.06154970               -0.08618778                0.24824526                0.03903649                0.00645379               -0.01901005
               6.00000000                8.00000000                8.00000000                0.30274462               -0.07894332               -0.08668344                0.27239940                0.01416426               -0.01439154               -0.01545236
               7.00000000                8.00000000                8.00000000                0.38045456               -0.08911777               -0.09209776                0.29930278                0.00208473               -0.01980330               -0.01406024
               8.00000000                8.00000000                8.00000000                0.47194152               -0.09769436               -0.09769455                0.32559829               -0.00249132               -0.01509815               -0.01509907
               9.00000000                8.00000000                8.00000000                0.57901669               -0.10560380               -0.10179919                0.34912879               -0.00245441               -0.00669728               -0.01831856
              10.00000000                8.00000000                8.00000000                0.82493415               -0.10940495               -0.10469030                0.37024790               -0.00365209               -0.00177626               -0.02295515
               0.00000000                9.00000000                8.00000000                0.83105139               -0.08583896               -0.08483927                0.27836538                0.00120788               -0.00037661                0.01127729
               1.00000000                9.00000000                8.00000000                0.43868093               -0.08511296               -0.08842628                0.29733609                0.00446000                0.00215180                0.00325725
               2.00000000                9.00000000                8.00000000                0.15915103                0.00176910               -0.09557436                0.31314321                0.11408908                0.06537545                0.00046455
               3.00000000                9.00000000                8.00000000                0.17908156                0.05552955               -0.14910870                0.27063045                0.12066311                0.10153418               -0.01156676
               4.00000000                9.00000000                8.00000000                0.23384551               -0.00737741               -0.11446890                0.25845315                0.07306075                0.05195896               -0.01108673
               5.00000000                9.00000000                8.00000000                0.29844746               -0.05168878               -0.09857073                0.27259226                0.02743818                0.00463021               -0.00912059
               6.00000000                9.00000000                8.00000000                0.37547273               -0.07437389               -0.09686269                0.29669154                0.00750273               -0.01776400               -0.00717606
               7.00000000                9.00000000                8.00000000                0.46808413               -0.08994198               -0.10039082                0.32321634               -0.00029321               -0.02353463               -0.00621438
               8.00000000                9.00000000                8.00000000                0.57902034               -0.10179844               -0.10560345                0.34912715               -0.00245428               -0.01831829               -0.00669778
               9.00000000                9.00000000                8.00000000                0.71107188               -0.11095546               -0.11095558                0.37268336               -0.00184209               -0.00849255               -0.00849268
              10.00000000                9.00000000                8.00000000                0.89889480               -0.11493904               -0.11679168                0.39404539               -0.00398523               -0.00216676               -0.01066623
               0.00000000               10.00000000                8.00000000                0.94264403               -0.08840906               -0.08476109                0.28421681               -0.00219916                0.00334653                0.00814657
               1.00000000               10.00000000                8.00000000                0.75755296               -0.09214918               -0.08990912                0.30326610               -0.00026462                0.00834645                0.00100455
               2.00000000               10.00000000                8.00000000                0.59696623               -0.07016185               -0.09677725                0.31866485                0.08273113                0.07225877               -0.00053404
               3.00000000               10.00000000                8.00000000                0.60539607                0.00778618               -0.14541205                0.28448517                0.05885582                0.10452646               -0.00011018
               4.00000000               10.00000000                8.00000000                0.63521471                0.03776171               -0.12235496                0.27573298                0.05941902                0.05369141               -0.00300144
               5.00000000               10.00000000                8.00000000                0.67034051               -0.01047259               -0.10661450                0.29176230                0.02484125                0.00139974               -0.00346790
               6.00000000               10.00000000                8.00000000                0.71239899               -0.05485285               -0.10289973                0.31692812                0.00672832               -0.02399075               -0.00266042
               7.00000000               10.00000000                8.00000000                0.76335619               -0.08520583               -0.10479287                0.34398881               -0.00091846               -0.02987937               -0.00190866
               8.00000000               10.00000000                8.00000000                0.82493717               -0.10468882               -0.10940438                0.37024469               -0.00365215               -0.02295584               -0.00177652
               9.00000000               10.00000000                8.00000000                0.89889602               -0.11679103               -0.11493890                0.39404402               -0.00398538               -0.01066690               -0.00216686
              10.00000000               10.00000000                8.00000000                0.97365243               -0.12137220               -0.12137250                0.41549663               -0.00702759               -0.00256446               -0.00256395
               0.00000000                0.00000000                9.00000000                0.74850664               -0.06432837               -0.06432800                0.21281010                0.00353900               -0.00093886               -0.00093899
               1.00000000                0.00000000                9.00000000                0.49339479               -0.06383403               -0.06926530                0.22243114                0.00564813               -0.00308143               -0.00121137
               2.00000000                0.00000000                9.00000000                0.49696822               -0.06726362               -0.06986171                0.23251583                0.00236164               -0.00096883               -0.00159531
               3.00000000                0.00000000                9.00000000                0.51838494               -0.07373432               -0.07303709                0.24086594                0.00272926                0.00466536               -0.00113479
               4.00000000                0.00000000                9.00000000                0.54829315               -0.07794316               -0.07555948                0.24752683                0.00253143                0.00987029               -0.00068047
               5.00000000                0.00000000                9.00000000                0.58662322               -0.08078797               -0.07788962                0.25334677                0.00246853                0.01318222               -0.00038746
               6.00000000                0.00000000                9.00000000                0.63365722               -0.08286657               -0.07999048                0.25902086                0.00242459                0.01475067               -0.00031176
               7.00000000                0.00000000                9.00000000                0.68990834               -0.08425348               -0.08187993                0.26477838                0.00228283                0.01513910               -0.00041379
               8.00000000                0.00000000                9.00000000                0.75627531               -0.08463471               -0.08357372                0.27040657                0.00186469                0.01429541               -0.00050554
               9.00000000                0.00000000                9.00000000                0.83466783               -0.08428668               -0.08530866                0.27569705                0.00128125                0.01001879               -0.00046209
              10.00000000                0.00000000                9.00000000                0.94535573               -0.08404846               -0.08800816                0.28183463               -0.00238497                0.00681808                0.00253676
               0.00000000                1.00000000                9.00000000                0.49339484               -0.06926497               -0.06383340                0.22242889                0.00564779               -0.00121159               -0.00308146
               1.00000000                1.00000000                9.00000000                0.01000001               -0.07491605               -0.07491593                0.23211486                0.01209777               -0.00531982               -0.00531917
               2.00000000                1.00000000                9.00000000                0.01000000               -0.08045689               -0.05186254                0.24348787                0.04165711               -0.01154945               -0.00781109
               3.00000000                1.00000000                9.00000000                0.01000000               -0.07999169               -0.03940146                0.25392431                0.04430696               -0.01131526               -0.00449195
               4.00000000                1.00000000                9.00000000                0.04517234               -0.07949147               -0.07092056                0.26281248                0.01766123               -0.00756087               -0.01825066
               5.00000000                1.00000000                9.00000000                0.09676774               -0.07946393               -0.07851090                0.27048982                0.01434612               -0.00282764               -0.01169664
               6.00000000                1.00000000                9.00000000                0.16033936               -0.08015830               -0.08121073                0.27750608                0.01331612                0.00144504               -0.00715880
               7.00000000                1.00000000                9.00000000                0.23719835               -0.08190755               -0.08248215                0.28415829                0.01131677                0.00445174               -0.00427784
               8.00000000                1.00000000                9.00000000                0.32929105               -0.08478122               -0.08364849                0.29040265                0.00792341                0.00527296               -0.00204260
               9.00000000                1.00000000                9.00000000                0.44010689               -0.08803448               -0.08540308                0.29628580                0.00420238                0.00291057                0.00057194
              10.00000000                1.00000000                9.00000000                0.75931251               -0.08958667               -0.09246472                0.30261476               -0.00049247                0.00098891                0.00576055
               0.00000000                2.00000000                9.00000000                0.49696883               -0.06986074               -0.06726253                0.23251136                0.00236138               -0.00159527               -0.00096878
               1.00000000                2.00000000                9.00000000                0.01000000               -0.05186279               -0.08045588                0.24348571                0.04165778               -0.00781181               -0.01154846
               2.00000000                2.00000000                9.00000000                0.01000001               -0.05844009               -0.05843866                0.24433044                0.11654265               -0.01147333               -0.01147262
               3.00000000                2.00000000                9.00000000                0.01000000               -0.10987437                0.00122395                0.25179112                0.11577788               -0.02773054               -0.00800247
               4.00000000                2.00000000                9.00000000                0.01225167               -0.11137327               -0.00817354                0.27686102                0.11248261               -0.02631449                0.03126247
               5.00000000                2.00000000                9.00000000                0.01000000               -0.08280927                0.05066005                0.28695144                0.19082244               -0.00464418                0.04129318
               6.00000000                2.00000000                9.00000000                0.03169292               -0.08071757                0.04885379                0.29498160                0.19686902               -0.00308153                0.03175924
               7.00000000                2.00000000                9.00000000                0.06529697               -0.08467522                0.03120272                0.30232417                0.17810819               -0.00100911                0.02833675
               8.00000000                2.00000000                9.00000000                0.10657682               -0.09061494                0.01189356                0.30899773                0.14781562                0.00055602                0.02951165
               9.00000000                2.00000000                9.00000000                0.15762542               -0.09496338               -0.01067713                0.31469109                0.11176697                0.00023378                0.03573039
              10.00000000                2.00000000                9.00000000                0.59661801               -0.09621758               -0.08324398                0.32035857                0.08400191               -0.00017993                0.04529993
               0.00000000                3.00000000                9.00000000                0.51838657               -0.07303547               -0.07373277                0.24085926                0.00272903               -0.00113475                0.00466524
               1.00000000                3.00000000                9.00000000                0.01000000               -0.03940100               -0.07998982                0.25391998                0.04430754               -0.00449309               -0.01131441
               2.00000000                3.00000000                9.00000000                0.01000000                0.00122440               -0.10987126                0.25179341                0.11577807               -0.00800606               -0.02772783
               3.00000000                3.00000000                9.00000000                0.01169938               -0.02211235               -0.02211581                0.21834356                0.15940281                0.01691299                0.01692219
               4.00000000                3.00000000                9.00000000                0.01000001               -0.01605064                0.05755830                0.18864570                0.26312032                0.02777871                0.05851246
               5.00000000                3.00000000                9.00000000                0.02791001               -0.02746081                0.07141121                0.15880454                0.28823447               -0.02285307                0.05285717
               6.00000000                3.00000000                9.00000000                0.05726014               -0.09512273                0.07024757                0.20033910                0.21265255               -0.03794954                0.05677900
               7.00000000                3.00000000                9.00000000                0.09148640               -0.12675950                0.06354741                0.23719950                0.18946076               -0.02640014                0.05168942
               8.00000000                3.00000000                9.00000000                0.13127143               -0.14403540                0.05308932                0.26468026                0.17636492               -0.01507391                0.05092245
               9.00000000                3.00000000                9.00000000                0.17768832               -0.14389178                0.03213194                0.28334528                0.11763047               -0.00552241                0.05640722
              10.00000000                3.00000000                9.00000000                0.60511235               -0.13824668               -0.01725895                0.29491604                0.05731912                0.00268337                0.06747432
               0.00000000                4.00000000                9.00000000                0.54829626               -0.07555719               -0.07794107                0.24751796                0.00253121               -0.00068041                0.00986986
               1.00000000                4.00000000                9.00000000                0.04517666               -0.07091836               -0.07948882                0.26280596                0.01766287               -0.01824911               -0.00756012
               2.00000000                4.00000000                9.00000000                0.01225366               -0.00817174               -0.11136948                0.27685687                0.11247812                0.03127345               -0.02630950
               3.00000000                4.00000000                9.00000000                0.01000001                0.05756743               -0.01606217                0.18865062                0.26311207                0.05850442                0.02777819
               4.00000000                4.00000000                9.00000000                0.02869030                0.00722692                0.00721689                0.14076673                0.17972176                0.01496279                0.01497300
               5.00000000                4.00000000                9.00000000                0.05871266               -0.06205981               -0.05067531                0.16718570                0.08535221               -0.01269993                0.01269853
               6.00000000                4.00000000                9.00000000                0.09346746               -0.08032536               -0.05238235                0.19791820                0.07024391               -0.02340267                0.02533819
               7.00000000                4.00000000                9.00000000                0.13361190               -0.09356936               -0.04114875                0.22745810                0.07694826               -0.02158695                0.02969758
               8.00000000                4.00000000                9.00000000                0.17991922               -0.10313377               -0.03131692                0.25275907                0.08645058               -0.01446182                0.03116826
               9.00000000                4.00000000                9.00000000                0.23380593               -0.11301612               -0.02506688                0.27192536                0.07171237               -0.00662158                0.03253209
              10.00000000                4.00000000                9.00000000                0.63575463               -0.11962735                0.01760233                0.28598784                0.05600177               -0.00133968                0.03873341
               0.00000000                5.00000000                9.00000000                0.58662823               -0.07788668               -0.08078525                0.25333574                0.00246833               -0.00038741                0.01318145
               1.00000000                5.00000000                9.00000000                0.09677474               -0.07850842               -0.07946061                0.27048111                0.01434732               -0.01169587               -0.00282703
               2.00000000                5.00000000                9.00000000                0.01000000                0.05066675               -0.08280619                0.28694488                0.19080618                0.04128862               -0.00464319
               3.00000000                5.00000000                9.00000000                0.02791265                0.07141766               -0.02746959                0.15880323                0.28821137                0.05284484               -0.02287164
               4.00000000                5.00000000                9.00000000                0.05871417               -0.05067394               -0.06206139                0.16718583                0.08534684                0.01269807               -0.01270370
               5.00000000                5.00000000                9.00000000                0.09422659               -0.06793112               -0.06793191                0.18874693                0.06065438               -0.00584683               -0.00585059
               6.00000000                5.00000000                9.00000000                0.13513307               -0.07592935               -0.06991404                0.21418399                0.05041746               -0.01478432                0.00062659
               7.00000000                5.00000000                9.00000000                0.18227241               -0.08279973               -0.07110807                0.24005391                0.04469254               -0.01589890                0.00344638
               8.00000000                5.00000000                9.00000000                0.23655946               -0.08899423               -0.07042429                0.26342352                0.03966902               -0.01145261                0.00367997
               9.00000000                5.00000000                9.00000000                0.29971734               -0.09901787               -0.06093073                0.28238224                0.02716637               -0.00573770                0.00273218
              10.00000000                5.00000000                9.00000000                0.67172491               -0.10593073               -0.02190816                0.29780929                0.02349362               -0.00232785                0.00234104
               0.00000000                6.00000000                9.00000000                0.63366447               -0.07998687               -0.08286315                0.25900770                0.00242438               -0.00031172                0.01474960
               1.00000000                6.00000000                9.00000000                0.16034961               -0.08120728               -0.08015443                0.27749518                0.01331692               -0.00715838                0.00144549
               2.00000000                6.00000000                9.00000000                0.03169835                0.04885061               -0.08071425                0.29497256                0.19685070                0.03174877               -0.00308019
               3.00000000                6.00000000                9.00000000                0.05726464                0.07024745               -0.09512243                0.20033977                0.21261818                0.05676958               -0.03795197
               4.00000000                6.00000000                9.00000000                0.09347088               -0.05237592               -0.08032509                0.19791746                0.07023533                0.02534041               -0.02340456
               5.00000000                6.00000000                9.00000000                0.13513500               -0.06991165               -0.07592952                0.21418321                0.05041534                0.00062974               -0.01478692
               6.00000000                6.00000000                9.00000000                0.18314088               -0.07778596               -0.07778677                0.23658829                0.03534028               -0.01055430               -0.01055682
               7.00000000                6.00000000                9.00000000                0.23861626               -0.08347963               -0.08174394                0.26048157                0.02434722               -0.01299060               -0.00936570
               8.00000000                6.00000000                9.00000000                0.30271894               -0.08920229               -0.08381146                0.28288978                0.01579374               -0.00952147               -0.01056403
               9.00000000                6.00000000                9.00000000                0.37747194               -0.09745502               -0.07875277                0.30194626                0.00836165               -0.00453850               -0.01342023
              10.00000000                6.00000000                9.00000000                0.71428305               -0.10259827               -0.05982937                0.31840456                0.00688994               -0.00183958               -0.01775572
               0.00000000                7.00000000                9.00000000                0.68991812               -0.08187567               -0.08424928                0.26476315                0.00228259               -0.00041376                0.01513782
               1.00000000                7.00000000                9.00000000                0.23721228               -0.08247816               -0.08190324                0.28414522                0.01131689               -0.00427769                0.00445205
               2.00000000                7.00000000                9.00000000                0.06530464                0.03119542               -0.08467180                0.30231289                0.17808717                0.02832650               -0.00100774
               3.00000000                7.00000000                9.00000000                0.09149312                0.06354200               -0.12675619                0.23719663                0.18943365                0.05167806               -0.02639621
               4.00000000                7.00000000                9.00000000                0.13361764               -0.04114277               -0.09356853                0.22745558                0.07694122                0.02969663               -0.02158711
               5.00000000                7.00000000                9.00000000                0.18227671               -0.07110479               -0.08279948                0.24005169                0.04469048                0.00344830               -0.01590040
               6.00000000                7.00000000                9.00000000                0.23861863               -0.08174255               -0.08347962                0.26048026                0.02434697               -0.00936365               -0.01299238
               7.00000000                7.00000000                9.00000000                0.30418912               -0.08794665               -0.08794699                0.28321239                0.01160255               -0.01261524               -0.01261688
               8.00000000                7.00000000                9.00000000                0.38052678               -0.09372911               -0.09155876                0.30516672                0.00423606               -0.00934624               -0.01451436
               9.00000000                7.00000000                9.00000000                0.47008601               -0.10046674               -0.09152738                0.32447454                0.00098029               -0.00418803               -0.01813198
              10.00000000                7.00000000                9.00000000                0.76528475               -0.10419500               -0.08619426                0.34174847               -0.00011215               -0.00134240               -0.02329594
               0.00000000                8.00000000                9.00000000                0.75628786               -0.08356882               -0.08462970                0.27038930                0.00186438               -0.00050553                0.01429404
               1.00000000                8.00000000                9.00000000                0.32930903               -0.08364402               -0.08477650                0.29038741                0.00792307               -0.00204269                0.00527320
               2.00000000                8.00000000                9.00000000                0.10658702                0.01188540               -0.09061090                0.30898427                0.14779542                0.02950152                0.00055724
               3.00000000                8.00000000                9.00000000                0.13128076                0.05307992               -0.14402717                0.26467365                0.17634104                0.05090942               -0.01507060
               4.00000000                8.00000000                9.00000000                0.17992769               -0.03131411               -0.10313181                0.25275426                0.08644330                0.03116448               -0.01446137
               5.00000000                8.00000000                9.00000000                0.23656658               -0.07042103               -0.08899340                0.26341953                0.03966754                0.00368060               -0.01145342
               6.00000000                8.00000000                9.00000000                0.30272424               -0.08380963               -0.08920169                0.28288685                0.01579381               -0.01056260               -0.00952266
               7.00000000                8.00000000                9.00000000                0.38052970               -0.09155797               -0.09372879                0.30516517                0.00423625               -0.01451309               -0.00934742
               8.00000000                8.00000000                9.00000000                0.47212771               -0.09837369               -0.09837381                0.32711898               -0.00061809               -0.01111623               -0.01111719
               9.00000000                8.00000000                9.00000000                0.58067846               -0.10492235               -0.10157603                0.34684397               -0.00141706               -0.00504159               -0.01435638
              10.00000000                8.00000000                9.00000000                0.82661790               -0.10813798               -0.10338467                0.36472669               -0.00276303               -0.00126126               -0.01835705
               0.00000000                9.00000000                9.00000000                0.83468328               -0.08530318               -0.08428092                0.27567779                0.00128090               -0.00046206                0.01001767
               1.00000000                9.00000000                9.00000000                0.44012909               -0.08539816               -0.08802925                0.29626844                0.00420197                0.00057147                0.00291083
               2.00000000                9.00000000                9.00000000                0.15763843               -0.01068499               -0.09495854                0.31467555                0.11175027                0.03571974                0.00023456
               3.00000000                9.00000000                9.00000000                0.17770062                0.03211992               -0.14388053                0.28333558                0.11761413                0.05639246               -0.00552072
               4.00000000                9.00000000                9.00000000                0.23381752               -0.02506791               -0.11301198                0.27191827                0.07170506                0.03252624               -0.00662126
               5.00000000                9.00000000                9.00000000                0.29972772               -0.06092867               -0.09901597                0.28237630                0.02716527                0.00273179               -0.00573807
               6.00000000                9.00000000                9.00000000                0.37748060               -0.07875085               -0.09745379                0.30194154                0.00836183               -0.01341935               -0.00453913
               7.00000000                9.00000000                9.00000000                0.47009235               -0.09152607               -0.10046594                0.32447134                0.00098053               -0.01813114               -0.00418868
               8.00000000                9.00000000                9.00000000                0.58068198               -0.10157539               -0.10492197                0.34684241               -0.00141696               -0.01435580               -0.00504213
               9.00000000                9.00000000                9.00000000                0.71357698               -0.10940337               -0.10940345                0.36707599               -0.00131873               -0.00680913               -0.00680946
              10.00000000                9.00000000                9.00000000                0.90083719               -0.11281126               -0.11413300                0.38533548               -0.00327791               -0.00158111               -0.00873975
               0.00000000               10.00000000                9.00000000                0.94536454               -0.08800205               -0.08404237                0.28181337               -0.00238562                0.00253627                0.00681720
               1.00000000               10.00000000                9.00000000                0.75932517               -0.09245892               -0.08958116                0.30259533               -0.00049300                0.00575911                0.00098918
               2.00000000               10.00000000                9.00000000                0.59662549               -0.08324470               -0.09621234                0.32034109                0.08398929                0.04528790               -0.00017949
               3.00000000               10.00000000                9.00000000                0.60511956               -0.01727128               -0.13823443                0.29490396                0.05731012                0.06745813                0.00268366
               4.00000000               10.00000000                9.00000000                0.63576151                0.01759097               -0.11962173                0.28597854                0.05599267                0.03872641               -0.00133957
               5.00000000               10.00000000                9.00000000                0.67173122               -0.02191022               -0.10592811                0.29780132                0.02349113                0.00234020               -0.00232798
               6.00000000               10.00000000                9.00000000                0.71428853               -0.05982787               -0.10259671                0.31839795                0.00688945               -0.01775514               -0.00183986
               7.00000000               10.00000000                9.00000000                0.76528909               -0.08619234               -0.10419399                0.34174356               -0.00011226               -0.02329551               -0.00134271
               8.00000000               10.00000000                9.00000000                0.82662084               -0.10338335               -0.10813740                0.36472359               -0.00276313               -0.01835700               -0.00126152
               9.00000000               10.00000000                9.00000000                0.90083835               -0.11413240               -0.11281110                0.38533411               -0.00327808               -0.00873988               -0.00158128
              10.00000000               10.00000000                9.00000000                0.97492154               -0.11819837               -0.11819865                0.40372483               -0.00595109               -0.00188930               -0.00188914
               0.00000000                0.00000000               10.00000000                0.74879738               -0.06444939               -0.06444903                0.21495049                0.00329717               -0.00067890               -0.00067905
               1.00000000                0.00000000               10.00000000                0.49376859               -0.06275877               -0.06964487                0.22334673                0.00649065               -0.00241861               -0.00080642
               2.00000000                0.00000000               10.00000000                0.49700237               -0.06530896               -0.06962891                0.23239006                0.00230869               -0.00138076               -0.00106070
               3.00000000                0.00000000               10.00000000                0.51816081               -0.07260234               -0.07266273                0.24034319                0.00279603                0.00268540               -0.00083716
               4.00000000                0.00000000               10.00000000                0.54789685               -0.07774394               -0.07510505                0.24698952                0.00268580                0.00705530               -0.00056619
               5.00000000                0.00000000               10.00000000                0.58620532               -0.08120979               -0.07742787                0.25283258                0.00266877                0.01040619               -0.00039679
               6.00000000                0.00000000               10.00000000                0.63342081               -0.08342609               -0.07954168                0.25837391                0.00259744                0.01245072               -0.00038335
               7.00000000                0.00000000               10.00000000                0.69016210               -0.08455361               -0.08144713                0.26382686                0.00238510                0.01321754               -0.00048709
               8.00000000                0.00000000               10.00000000                0.75752293               -0.08455680               -0.08316966                0.26914736                0.00190986                0.01239156               -0.00054779
               9.00000000                0.00000000               10.00000000                0.83757646               -0.08398600               -0.08496776                0.27439208                0.00131309                0.00840287               -0.00048884
              10.00000000                0.00000000               10.00000000                0.94744151               -0.08370003               -0.08772628                0.28071740               -0.00232938                0.00539410                0.00174471
               0.00000000                1.00000000               10.00000000                0.49376863               -0.06964455               -0.06275816                0.22334454                0.00649033               -0.00080666               -0.00241866
               1.00000000                1.00000000               10.00000000                0.01000001               -0.07600726               -0.07600712                0.23180051                0.01489559               -0.00391175               -0.00391104
               2.00000000                1.00000000               10.00000000                0.01000000               -0.08180677               -0.05309031                0.24197842                0.04535455               -0.00864327               -0.01070292
               3.00000000                1.00000000               10.00000000                0.01000000               -0.08048945               -0.03944600                0.25193218                0.04937237               -0.00877290               -0.01302581
               4.00000000                1.00000000               10.00000000                0.04406912               -0.07936691               -0.06921409                0.26090045                0.02011455               -0.00594301               -0.01811368
               5.00000000                1.00000000               10.00000000                0.09541180               -0.07901673               -0.07774088                0.26886956                0.01566931               -0.00199688               -0.01117631
               6.00000000                1.00000000               10.00000000                0.15893554               -0.07958302               -0.08093769                0.27609092                0.01377776                0.00174529               -0.00716178
               7.00000000                1.00000000               10.00000000                0.23608078               -0.08131041               -0.08246648                0.28275552                0.01116201                0.00432085               -0.00465289
               8.00000000                1.00000000               10.00000000                0.32907609               -0.08422425               -0.08376245                0.28894714                0.00751774                0.00479763               -0.00267881
               9.00000000                1.00000000               10.00000000                0.44173388               -0.08756136               -0.08557944                0.29496506                0.00390555                0.00258775               -0.00052946
              10.00000000                1.00000000               10.00000000                0.76086836               -0.08916396               -0.09252597                0.30153471               -0.00048979                0.00099024                0.00347027
               0.00000000                2.00000000               10.00000000                0.49700297               -0.06962797               -0.06530790                0.23238567                0.00230844               -0.00106066               -0.00138073
               1.00000000                2.00000000               10.00000000                0.01000000               -0.05308996               -0.08180572                0.24197629                0.04535458               -0.01070372               -0.00864221
               2.00000000                2.00000000               10.00000000                0.01000001               -0.05998504               -0.05998426                0.24655836                0.12743769               -0.02015784               -0.02015645
               3.00000000                2.00000000               10.00000000                0.01000000               -0.11312003               -0.00659709                0.24980722                0.12407688               -0.02059981               -0.02610350
               4.00000000                2.00000000               10.00000000                0.01121316               -0.11508542               -0.01493435                0.27772795                0.12253639               -0.01568881               -0.02852824
               5.00000000                2.00000000               10.00000000                0.01000001               -0.08344504                0.04016567                0.28752501                0.18981110               -0.00238167               -0.02477155
               6.00000000                2.00000000               10.00000000                0.03015390               -0.08036791                0.04057708                0.29505519                0.19270102               -0.00221938               -0.01751111
               7.00000000                2.00000000               10.00000000                0.06360841               -0.08388896                0.02073191                0.30191154                0.17169021               -0.00056469               -0.00878928
               8.00000000                2.00000000               10.00000000                0.10496156               -0.08961183                0.00008741                0.30821409                0.14116717                0.00055530                0.00072746
               9.00000000                2.00000000               10.00000000                0.15655493               -0.09390682               -0.02283281                0.31397713                0.10717353                0.00017993                0.01157964
              10.00000000                2.00000000               10.00000000                0.59636314               -0.09517324               -0.09423997                0.31983096                0.08318614                0.00014019                0.02243767
               0.00000000                3.00000000               10.00000000                0.51816242               -0.07266113               -0.07260083                0.24033662                0.00279581               -0.00083713                0.00268528
               1.00000000                3.00000000               10.00000000                0.01000000               -0.03944558               -0.08048754                0.25192790                0.04937222               -0.01302630               -0.00877202
               2.00000000                3.00000000               10.00000000                0.01000000               -0.00659383               -0.11311557                0.24980484                0.12407411               -0.02610546               -0.02059696
               3.00000000                3.00000000               10.00000000                0.01053184               -0.02668608               -0.02669108                0.24327726                0.16329881               -0.03573260               -0.03573125
               4.00000000                3.00000000               10.00000000                0.01000001               -0.02115154                0.04869295                0.20914981                0.27272796               -0.02026591               -0.01104141
               5.00000000                3.00000000               10.00000000                0.02615373               -0.03794688                0.05887897                0.19250267                0.29297304               -0.01761271               -0.01164918
               6.00000000                3.00000000               10.00000000                0.05532740               -0.09863295                0.05493721                0.22716895                0.21360279               -0.01354829               -0.00546713
               7.00000000                3.00000000               10.00000000                0.08948258               -0.12728293                0.04550099                0.25625940                0.18287651               -0.00946815               -0.00091549
               8.00000000                3.00000000               10.00000000                0.12942808               -0.14106505                0.03267312                0.27783058                0.16946662               -0.00463670                0.00665416
               9.00000000                3.00000000               10.00000000                0.17642272               -0.13767377                0.00982119                0.29280227                0.11278520               -0.00085287                0.01819718
              10.00000000                3.00000000               10.00000000                0.60473437               -0.13052258               -0.03993666                0.30267139                0.05484346                0.00458844                0.03500438
               0.00000000                4.00000000               10.00000000                0.54789992               -0.07510282               -0.07774190                0.24698078                0.00268559               -0.00056616                0.00705488
               1.00000000                4.00000000               10.00000000                0.04407337               -0.06921135               -0.07936422                0.26089401                0.02011677               -0.01811275               -0.00594228
               2.00000000                4.00000000               10.00000000                0.01121509               -0.01493759               -0.11508073                0.27772256                0.12253020               -0.02852886               -0.01568531
               3.00000000                4.00000000               10.00000000                0.01000001                0.04870199               -0.02116072                0.20913307                0.27271316               -0.01104967               -0.02026781
               4.00000000                4.00000000               10.00000000                0.02687749                0.00048886                0.00047361                0.18202427                0.18117093                0.00212888                0.00212956
               5.00000000                4.00000000               10.00000000                0.05674639               -0.07227214               -0.05694679                0.20023629                0.08887667               -0.00489902                0.01063353
               6.00000000                4.00000000               10.00000000                0.09146761               -0.08689786               -0.06420312                0.22524759                0.07273427               -0.01097723                0.01274770
               7.00000000                4.00000000               10.00000000                0.13173548               -0.09696950               -0.05378501                0.24861828                0.07753806               -0.01046959                0.01205855
               8.00000000                4.00000000               10.00000000                0.17849017               -0.10366400               -0.04533295                0.26838149                0.08519582               -0.00693659                0.01189888
               9.00000000                4.00000000               10.00000000                0.23334211               -0.11119366               -0.04119282                0.28359465                0.06945570               -0.00342466                0.01406279
              10.00000000                4.00000000               10.00000000                0.63586656               -0.11676533               -0.00167588                0.29526402                0.05184175               -0.00017910                0.02349502
               0.00000000                5.00000000               10.00000000                0.58621026               -0.07742498               -0.08120713                0.25282171                0.00266857               -0.00039676                0.01040546
               1.00000000                5.00000000               10.00000000                0.09541870               -0.07773841               -0.07901339                0.26886095                0.01567057               -0.01117572               -0.00199634
               2.00000000                5.00000000               10.00000000                0.01000001                0.04016995               -0.08344248                0.28751822                0.18979344               -0.02477657               -0.00238058
               3.00000000                5.00000000               10.00000000                0.02615630                0.05888574               -0.03795378                0.19249769                0.29295522               -0.01165826               -0.01761644
               4.00000000                5.00000000               10.00000000                0.05674786               -0.05694264               -0.07227328                0.20023585                0.08887163                0.01063357               -0.00490106
               5.00000000                5.00000000               10.00000000                0.09225606               -0.07653031               -0.07653098                0.21781771                0.06213828               -0.00155344               -0.00155554
               6.00000000                5.00000000               10.00000000                0.13329644               -0.08239225               -0.07822637                0.23811284                0.05156925               -0.00745016                0.00056601
               7.00000000                5.00000000               10.00000000                0.18074171               -0.08695821               -0.07908464                0.25845075                0.04537673               -0.00842460                0.00072911
               8.00000000                5.00000000               10.00000000                0.23572670               -0.09112583               -0.07837717                0.27665441                0.03961701               -0.00624550               -0.00006077
               9.00000000                5.00000000               10.00000000                0.30026291               -0.09932333               -0.06950740                0.29163880                0.02649054               -0.00353627               -0.00039289
              10.00000000                5.00000000               10.00000000                0.67249122               -0.10532251               -0.03314956                0.30429931                0.02186801               -0.00158167                0.00144079
               0.00000000                6.00000000               10.00000000                0.63342796               -0.07953814               -0.08342273                0.25836097                0.00259723               -0.00038333                0.01244972
               1.00000000                6.00000000               10.00000000                0.15894559               -0.08093432               -0.07957917                0.27608016                0.01377853               -0.00716163                0.00174564
               2.00000000                6.00000000               10.00000000                0.03015922                0.04057477               -0.08036466                0.29504621                0.19268266               -0.01751844               -0.00221838
               3.00000000                6.00000000               10.00000000                0.05533181                0.05493792               -0.09863158                0.22716806                0.21357138               -0.00547471               -0.01354742
               4.00000000                6.00000000               10.00000000                0.09147095               -0.06419694               -0.08689724                0.22524630                0.07272572                0.01274747               -0.01097813
               5.00000000                6.00000000               10.00000000                0.13329831               -0.07822430               -0.08239215                0.23811192                0.05156719                0.00056768               -0.00745179
               6.00000000                6.00000000               10.00000000                0.18158150               -0.08363974               -0.08364032                0.25582215                0.03634464               -0.00606257               -0.00606423
               7.00000000                6.00000000               10.00000000                0.23746200               -0.08729654               -0.08681451                0.27465539                0.02536908               -0.00759582               -0.00648677
               8.00000000                6.00000000               10.00000000                0.30236549               -0.09129796               -0.08824166                0.29226756                0.01660164               -0.00566450               -0.00815097
               9.00000000                6.00000000               10.00000000                0.37874572               -0.09804803               -0.08306693                0.30744651                0.00870207               -0.00295468               -0.01033488
              10.00000000                6.00000000               10.00000000                0.71552928               -0.10247265               -0.06512745                0.32097141                0.00676219               -0.00137799               -0.01291140
               0.00000000                7.00000000               10.00000000                0.69017179               -0.08144293               -0.08454946                0.26381188                0.00238485               -0.00048708                0.01321637
               1.00000000                7.00000000               10.00000000                0.23609452               -0.08246255               -0.08130616                0.28274260                0.01116211               -0.00465294                0.00432103
               2.00000000                7.00000000               10.00000000                0.06361593                0.02072563               -0.08388556                0.30190036                0.17166946               -0.00879688               -0.00056358
               3.00000000                7.00000000               10.00000000                0.08948920                0.04549669               -0.12727933                0.25625532                0.18284932               -0.00092449               -0.00946520
               4.00000000                7.00000000               10.00000000                0.13174108               -0.05377914               -0.09696831                0.24861522                0.07753069                0.01205623               -0.01046946
               5.00000000                7.00000000               10.00000000                0.18074587               -0.07908168               -0.08695774                0.25844841                0.04537461                0.00072991               -0.00842560
               6.00000000                7.00000000               10.00000000                0.23746433               -0.08681333               -0.08729637                0.27465406                0.02536880               -0.00648536               -0.00759715
               7.00000000                7.00000000               10.00000000                0.30342333               -0.09096896               -0.09096917                0.29286676                0.01289636               -0.00833148               -0.00833278
               8.00000000                7.00000000               10.00000000                0.38047205               -0.09514967               -0.09379109                0.31050872                0.00541965               -0.00618243               -0.01045954
               9.00000000                7.00000000               10.00000000                0.47166146               -0.10059669               -0.09319678                0.32617699                0.00166136               -0.00292189               -0.01348680
              10.00000000                7.00000000               10.00000000                0.76672014               -0.10375042               -0.08760710                0.34047327                0.00040206               -0.00101099               -0.01737675
               0.00000000                8.00000000               10.00000000                0.75753540               -0.08316483               -0.08455185                0.26913036                0.00190954               -0.00054780                0.01239035
               1.00000000                8.00000000               10.00000000                0.32909384               -0.08375803               -0.08421960                0.28893207                0.00751739               -0.00267907                0.00479775
               2.00000000                8.00000000               10.00000000                0.10497162                0.00008032               -0.08960783                0.30820074                0.14114731                0.00071942                0.00055630
               3.00000000                8.00000000               10.00000000                0.12943725                0.03266506               -0.14105692                0.27782319                0.16944268                0.00664359               -0.00463427
               4.00000000                8.00000000               10.00000000                0.17849846               -0.04533001               -0.10366184                0.26837627                0.08518822                0.01189478               -0.00693613
               5.00000000                8.00000000               10.00000000                0.23573366               -0.07837417               -0.09112483                0.27665031                0.03961541               -0.00006080               -0.00624606
               6.00000000                8.00000000               10.00000000                0.30237065               -0.08824006               -0.09129724                0.29226463                0.01660164               -0.00814992               -0.00566547
               7.00000000                8.00000000               10.00000000                0.38047489               -0.09379042               -0.09514928                0.31050719                0.00541980               -0.01045839               -0.00618344
               8.00000000                8.00000000               10.00000000                0.47252209               -0.09899628               -0.09899633                0.32859752                0.00042651               -0.00801603               -0.00801697
               9.00000000                8.00000000               10.00000000                0.58242821               -0.10430239               -0.10143630                0.34490989               -0.00083072               -0.00375963               -0.01077017
              10.00000000                8.00000000               10.00000000                0.82808163               -0.10698301               -0.10241543                0.35981286               -0.00209547               -0.00090905               -0.01399548
               0.00000000                9.00000000               10.00000000                0.83759187               -0.08496235               -0.08398032                0.27437312                0.00131273               -0.00048884                0.00840191
               1.00000000                9.00000000               10.00000000                0.44175594               -0.08557457               -0.08755619                0.29494787                0.00390515               -0.00052998                0.00258793
               2.00000000                9.00000000               10.00000000                0.15656779               -0.02283960               -0.09390205                0.31396172                0.10715705                0.01157077                0.00018062
               3.00000000                9.00000000               10.00000000                0.17643486                0.00981074               -0.13766299                0.29279203                0.11276888                0.01818493               -0.00085158
               4.00000000                9.00000000               10.00000000                0.23335352               -0.04119341               -0.11118947                0.28358725                0.06944828                0.01405734               -0.00342431
               5.00000000                9.00000000               10.00000000                0.30027304               -0.06950554               -0.09932130                0.29163284                0.02648938               -0.00039355               -0.00353653
               6.00000000                9.00000000               10.00000000                0.37875412               -0.08306527               -0.09804673                0.30744190                0.00870220               -0.01033406               -0.00295521
               7.00000000                9.00000000               10.00000000                0.47166769               -0.09319564               -0.10059584                0.32617387                0.00166155               -0.01348578               -0.00292244
               8.00000000                9.00000000               10.00000000                0.58243164               -0.10143573               -0.10430198                0.34490835               -0.00083064               -0.01076937               -0.00376015
               9.00000000                9.00000000               10.00000000                0.71624491               -0.10795957               -0.10795963                0.36186463               -0.00101308               -0.00523469               -0.00523513
              10.00000000                9.00000000               10.00000000                0.90262649               -0.11081882               -0.11172840                0.37716135               -0.00269055               -0.00110914               -0.00683535
               0.00000000               10.00000000               10.00000000                0.94745029               -0.08772024               -0.08369402                0.28069643               -0.00233001                0.00174428                0.00539335
               1.00000000               10.00000000               10.00000000                0.76088097               -0.09252021               -0.08915850                0.30151545               -0.00049032                0.00346896                0.00099043
               2.00000000               10.00000000               10.00000000                0.59637056               -0.09423957               -0.09516808                0.31981360                0.08317345                0.02242740                0.00014058
               3.00000000               10.00000000               10.00000000                0.60474150               -0.03994721               -0.13051099                0.30265886                0.05483456                0.03499050                0.00458855
               4.00000000               10.00000000               10.00000000                0.63587334               -0.00168648               -0.11675973                0.29525444                0.05183291                0.02348873               -0.00017894
               5.00000000               10.00000000               10.00000000                0.67249743               -0.03315169               -0.10531978                0.30429137                0.02186556                0.00143998               -0.00158173
               6.00000000               10.00000000               10.00000000                0.71553463               -0.06512626               -0.10247102                0.32096500                0.00676164               -0.01291056               -0.00137820
               7.00000000               10.00000000               10.00000000                0.76672442               -0.08760543               -0.10374936                0.34046848                0.00040190               -0.01737579               -0.00101122
               8.00000000               10.00000000               10.00000000                0.82808449               -0.10241423               -0.10698240                0.35980977               -0.00209560               -0.01399486               -0.00090928
               9.00000000               10.00000000               10.00000000                0.90262759               -0.11172783               -0.11081864                0.37715995               -0.00269073               -0.00683507               -0.00110934
              10.00000000               10.00000000               10.00000000                0.97599928               -0.11525138               -0.11525166                0.39259894               -0.00496496               -0.00132840               -0.00132850
               0.00000000                0.00000000               11.00000000                0.74900560               -0.06452121               -0.06452086                0.21626194                0.00317089               -0.00047194               -0.00047212
               1.00000000                0.00000000               11.00000000                0.49405347               -0.06202225               -0.06991266                0.22397930                0.00697480               -0.00185541               -0.00049870
               2.00000000                0.00000000               11.00000000                0.49703299               -0.06385631               -0.06955391                0.23229317                0.00222059               -0.00158816               -0.00063549
               3.00000000                0.00000000               11.00000000                0.51795830               -0.07152753               -0.07247045                0.23994465                0.00274854                0.00119255               -0.00058607
               4.00000000                0.00000000               11.00000000                0.54750721               -0.07724401               -0.07483954                0.24662198                0.00269041                0.00469650               -0.00046571
               5.00000000                0.00000000               11.00000000                0.58576202               -0.08115983               -0.07713961                0.25257494                0.00270934                0.00782309               -0.00039727
               6.00000000                0.00000000               11.00000000                0.63312951               -0.08354025               -0.07925085                0.25813151                0.00263447                0.01002704               -0.00042361
               7.00000000                0.00000000               11.00000000                0.69031647               -0.08459069               -0.08116584                0.26349007                0.00239536                0.01097852               -0.00051425
               8.00000000                0.00000000               11.00000000                0.75852625               -0.08446925               -0.08291951                0.26873740                0.00190427                0.01022443               -0.00054933
               9.00000000                0.00000000               11.00000000                0.83985465               -0.08388186               -0.08477152                0.27408147                0.00131933                0.00671905               -0.00048743
              10.00000000                0.00000000               11.00000000                0.94902129               -0.08362348               -0.08754988                0.28054486               -0.00211564                0.00405450                0.00102711
               0.00000000                1.00000000               11.00000000                0.49405352               -0.06991235               -0.06202166                0.22397716                0.00697447               -0.00049897               -0.00185550
               1.00000000                1.00000000               11.00000000                0.01000001               -0.07667088               -0.07667074                0.23175263                0.01652891               -0.00267060               -0.00266984
               2.00000000                1.00000000               11.00000000                0.01000000               -0.08257805               -0.05389492                0.24103425                0.04756204               -0.00588829               -0.01220652
               3.00000000                1.00000000               11.00000000                0.01000000               -0.08069557               -0.03996575                0.25045358                0.05227503               -0.00600683               -0.01805141
               4.00000000                1.00000000               11.00000000                0.04323758               -0.07913141               -0.06934339                0.25927406                0.01984698               -0.00386556               -0.01552745
               5.00000000                1.00000000               11.00000000                0.09436451               -0.07854396               -0.07723116                0.26728536                0.01585584               -0.00073710               -0.00946125
               6.00000000                1.00000000               11.00000000                0.15788794               -0.07902404               -0.08066752                0.27454923                0.01361712                0.00227190               -0.00635789
               7.00000000                1.00000000               11.00000000                0.23536463               -0.08075372               -0.08237292                0.28119917                0.01070761                0.00423329               -0.00446333
               8.00000000                1.00000000               11.00000000                0.32919684               -0.08370782               -0.08378968                0.28740581                0.00701246                0.00434847               -0.00293098
               9.00000000                1.00000000               11.00000000                0.44330026               -0.08709440               -0.08567259                0.29357447                0.00359523                0.00232534               -0.00130603
              10.00000000                1.00000000               11.00000000                0.76217443               -0.08872210               -0.09242192                0.30029555               -0.00035942                0.00100923                0.00152323
               0.00000000                2.00000000               11.00000000                0.49703358               -0.06955299               -0.06385528                0.23228887                0.00222034               -0.00063546               -0.00158817
               1.00000000                2.00000000               11.00000000                0.01000000               -0.05389455               -0.08257700                0.24103214                0.04756202               -0.01220738               -0.00588719
               2.00000000                2.00000000               11.00000000                0.01000001               -0.06120113               -0.06120036                0.24713521                0.13327600               -0.02334704               -0.02334555
               3.00000000                2.00000000               11.00000000                0.01000000               -0.11699283               -0.01194534                0.25356819                0.12783948               -0.01376782               -0.03883991
               4.00000000                2.00000000               11.00000000                0.01042676               -0.11783595               -0.01491450                0.27796039                0.12711183               -0.00545111               -0.05315984
               5.00000000                2.00000000               11.00000000                0.01000001               -0.08242347                0.03458639                0.28598840                0.18735135               -0.00054724               -0.06820655
               6.00000000                2.00000000               11.00000000                0.02898865               -0.07971340                0.03127503                0.29313021                0.18478260               -0.00109036               -0.05276061
               7.00000000                2.00000000               11.00000000                0.06237770               -0.08300149                0.00996552                0.29976902                0.16245327                0.00006097               -0.03583242
               8.00000000                2.00000000               11.00000000                0.10385250               -0.08850188               -0.01139889                0.30598300                0.13248056                0.00075181               -0.02091034
               9.00000000                2.00000000               11.00000000                0.15587564               -0.09268340               -0.03413894                0.31194825                0.10094491                0.00030799               -0.00727208
              10.00000000                2.00000000               11.00000000                0.59621701               -0.09393375               -0.10297815                0.31800759                0.08067741                0.00042451                0.00397962
               0.00000000                3.00000000               11.00000000                0.51795987               -0.07246888               -0.07152606                0.23993820                0.00274831               -0.00058605                0.00119240
               1.00000000                3.00000000               11.00000000                0.01000000               -0.03996533               -0.08069365                0.25044935                0.05227481               -0.01805296               -0.00600594
               2.00000000                3.00000000               11.00000000                0.01000000               -0.01194262               -0.11698834                0.25356501                0.12783716               -0.03884169               -0.01376404
               3.00000000                3.00000000               11.00000000                0.01000000               -0.03169527               -0.03170030                0.25634473                0.17528141               -0.04902689               -0.04902521
               4.00000000                3.00000000               11.00000000                0.01000001               -0.02747946                0.03933692                0.25460708                0.27782657               -0.05080903               -0.05912959
               5.00000000                3.00000000               11.00000000                0.02468206               -0.04770916                0.04629116                0.22803264                0.28371673               -0.02864266               -0.06031065
               6.00000000                3.00000000               11.00000000                0.05372034               -0.10277769                0.03987785                0.24880687                0.20432845                0.00204674               -0.05260009
               7.00000000                3.00000000               11.00000000                0.08785965               -0.12649370                0.02818954                0.27083522                0.17366323                0.00349342               -0.04110440
               8.00000000                3.00000000               11.00000000                0.12797788               -0.13710720                0.01353921                0.28741628                0.16035988                0.00327534               -0.02773852
               9.00000000                3.00000000               11.00000000                0.17540942               -0.13110372               -0.01048907                0.29942858                0.10655708                0.00272065               -0.01223643
              10.00000000                3.00000000               11.00000000                0.60439255               -0.12285155               -0.05952650                0.30800042                0.05168242                0.00577249                0.00839289
               0.00000000                4.00000000               11.00000000                0.54751023               -0.07483734               -0.07724202                0.24661339                0.00269020               -0.00046569                0.00469609
               1.00000000                4.00000000               11.00000000                0.04324174               -0.06934066               -0.07912873                0.25926770                0.01984912               -0.01552718               -0.00386486
               2.00000000                4.00000000               11.00000000                0.01042864               -0.01491641               -0.11783119                0.27795501                0.12710545               -0.05316568               -0.00544813
               3.00000000                4.00000000               11.00000000                0.01000001                0.03934626               -0.02748907                0.25458926                0.27781244               -0.05912725               -0.05080766
               4.00000000                4.00000000               11.00000000                0.02529237               -0.01347704               -0.01349120                0.21660995                0.17893285               -0.02686471               -0.02686681
               5.00000000                4.00000000               11.00000000                0.05496593               -0.07980276               -0.06771306                0.22879931                0.08965852                0.00038080                0.00417862
               6.00000000                4.00000000               11.00000000                0.08963465               -0.09192838               -0.07385984                0.24790334                0.07363081               -0.00168938                0.00140526
               7.00000000                4.00000000               11.00000000                0.13001945               -0.09929261               -0.06442115                0.26581956                0.07685251               -0.00233870               -0.00315989
               8.00000000                4.00000000               11.00000000                0.17715378               -0.10362295               -0.05743492                0.28108765                0.08277946               -0.00154772               -0.00456327
               9.00000000                4.00000000               11.00000000                0.23270425               -0.10921654               -0.05526389                0.29322912                0.06632672               -0.00114595               -0.00186919
              10.00000000                4.00000000               11.00000000                0.63576059               -0.11388572               -0.01931856                0.30299276                0.04717441                0.00063135                0.00984087
               0.00000000                5.00000000               11.00000000                0.58576687               -0.07713677               -0.08115723                0.25256428                0.00270914               -0.00039725                0.00782243
               1.00000000                5.00000000               11.00000000                0.09437131               -0.07722873               -0.07854065                0.26727686                0.01585705               -0.00946096               -0.00073663
               2.00000000                5.00000000               11.00000000                0.01000001                0.03459114               -0.08242088                0.28598149                0.18733361               -0.06821205               -0.00054604
               3.00000000                5.00000000               11.00000000                0.02468459                0.04629849               -0.04771555                0.22802488                0.28369807               -0.06031278               -0.02863784
               4.00000000                5.00000000               11.00000000                0.05496737               -0.06770895               -0.07980364                0.22879844                0.08965344                0.00417922                0.00038021
               5.00000000                5.00000000               11.00000000                0.09036856               -0.08375408               -0.08375451                0.24233662                0.06268909                0.00086074                0.00085990
               6.00000000                5.00000000               11.00000000                0.13147294               -0.08755972               -0.08510950                0.25804398                0.05174563               -0.00246949               -0.00058839
               7.00000000                5.00000000               11.00000000                0.17917971               -0.09020601               -0.08573699                0.27376524                0.04514072               -0.00333022               -0.00246829
               8.00000000                5.00000000               11.00000000                0.23475598               -0.09279694               -0.08514156                0.28792468                0.03881340               -0.00279339               -0.00397029
               9.00000000                5.00000000               11.00000000                0.30031558               -0.09951870               -0.07704251                0.29989273                0.02541046               -0.00210194               -0.00379663
              10.00000000                5.00000000               11.00000000                0.67283873               -0.10473234               -0.04361693                0.31034596                0.02002889               -0.00106108               -0.00028839
               0.00000000                6.00000000               11.00000000                0.63313658               -0.07924737               -0.08353694                0.25811880                0.00263426               -0.00042361                0.01002616
               1.00000000                6.00000000               11.00000000                0.15789787               -0.08066422               -0.07902023                0.27453861                0.01361783               -0.00635790                0.00227215
               2.00000000                6.00000000               11.00000000                0.02899385                0.03127357               -0.07971019                0.29312132                0.18476452               -0.05276558               -0.00108957
               3.00000000                6.00000000               11.00000000                0.05372465                0.03987944               -0.10277578                0.24880466                0.20429750               -0.05260620                0.00205017
               4.00000000                6.00000000               11.00000000                0.08963793               -0.07385380               -0.09192737                0.24790144                0.07362203                0.00140328               -0.00168924
               5.00000000                6.00000000               11.00000000                0.13147478               -0.08510766               -0.08755938                0.25804289                0.05174354               -0.00058797               -0.00247020
               6.00000000                6.00000000               11.00000000                0.17993902               -0.08843178               -0.08843217                0.27188917                0.03644122               -0.00337288               -0.00337375
               7.00000000                6.00000000               11.00000000                0.23618653               -0.09041273               -0.09105878                0.28663105                0.02549532               -0.00408372               -0.00490930
               8.00000000                6.00000000               11.00000000                0.30181166               -0.09305958               -0.09207160                0.30049609                0.01668112               -0.00319763               -0.00670379
               9.00000000                6.00000000               11.00000000                0.37944968               -0.09859015               -0.08700282                0.31268852                0.00864738               -0.00197349               -0.00818637
              10.00000000                6.00000000               11.00000000                0.71629376               -0.10240010               -0.07028514                0.32380923                0.00643297               -0.00106382               -0.00930839
               0.00000000                7.00000000               11.00000000                0.69032604               -0.08116171               -0.08458660                0.26347536                0.00239510               -0.00051425                0.01097750
               1.00000000                7.00000000               11.00000000                0.23537823               -0.08236905               -0.08074953                0.28118641                0.01070767               -0.00446355                0.00423335
               2.00000000                7.00000000               11.00000000                0.06238508                0.00996034               -0.08299812                0.29975791                0.16243308               -0.03583799                0.00006178
               3.00000000                7.00000000               11.00000000                0.08786612                0.02818641               -0.12648990                0.27083010                0.17363639               -0.04111146                0.00349564
               4.00000000                7.00000000               11.00000000                0.13002493               -0.06441537               -0.09929110                0.26581593                0.07684481               -0.00316304               -0.00233825
               5.00000000                7.00000000               11.00000000                0.17918380               -0.08573426               -0.09020532                0.27376272                0.04513851               -0.00246837               -0.00333074
               6.00000000                7.00000000               11.00000000                0.23618879               -0.09105776               -0.09041243                0.28662968                0.02549500               -0.00490852               -0.00408459
               7.00000000                7.00000000               11.00000000                0.30255619               -0.09350401               -0.09350413                0.30113856                0.01332055               -0.00543025               -0.00543122
               8.00000000                7.00000000               11.00000000                0.38033364               -0.09636554               -0.09573316                0.31525834                0.00591842               -0.00401705               -0.00739752
               9.00000000                7.00000000               11.00000000                0.47284477               -0.10073346               -0.09478009                0.32796569                0.00197693               -0.00206782               -0.00969194
              10.00000000                7.00000000               11.00000000                0.76775846               -0.10339039               -0.08919665                0.33973047                0.00071525               -0.00078371               -0.01244097
               0.00000000                8.00000000               11.00000000                0.75853861               -0.08291476               -0.08446436                0.26872070                0.00190395               -0.00054934                0.01022339
               1.00000000                8.00000000               11.00000000                0.32921447               -0.08378532               -0.08370324                0.28739094                0.00701210               -0.00293133                0.00434847
               2.00000000                8.00000000               11.00000000                0.10386242               -0.01140482               -0.08849793                0.30596978                0.13246133               -0.02091671                0.00075258
               3.00000000                8.00000000               11.00000000                0.12798688                0.01353256               -0.13709923                0.28740818                0.16033620               -0.02774697                0.00327713
               4.00000000                8.00000000               11.00000000                0.17716190               -0.05743183               -0.10362061                0.28108202                0.08277158               -0.00456736               -0.00154716
               5.00000000                8.00000000               11.00000000                0.23476278               -0.08513874               -0.09279577                0.28792043                0.03881168               -0.00397082               -0.00279372
               6.00000000                8.00000000               11.00000000                0.30181669               -0.09207016               -0.09305877                0.30049315                0.01668105               -0.00670308               -0.00319831
               7.00000000                8.00000000               11.00000000                0.38033639               -0.09573258               -0.09636510                0.31525684                0.00591854               -0.00739651               -0.00401786
               8.00000000                8.00000000               11.00000000                0.47300651               -0.09953545               -0.09953545                0.32995174                0.00096676               -0.00559072               -0.00559160
               9.00000000                8.00000000               11.00000000                0.58410213               -0.10376179               -0.10135890                0.34331500               -0.00049643               -0.00273380               -0.00771360
              10.00000000                8.00000000               11.00000000                0.82932861               -0.10597248               -0.10173939                0.35561599               -0.00158999               -0.00064471               -0.01019729
               0.00000000                9.00000000               11.00000000                0.83986993               -0.08476619               -0.08387627                0.27406283                0.00131897               -0.00048744                0.00671826
               1.00000000                9.00000000               11.00000000                0.44332218               -0.08566777               -0.08708931                0.29355750                0.00359483               -0.00130657                0.00232542
               2.00000000                9.00000000               11.00000000                0.15588834               -0.03414458               -0.09267868                0.31193295                0.10092892               -0.00727941                0.00030850
               3.00000000                9.00000000               11.00000000                0.17542139               -0.01049787               -0.13109349                0.29941790                0.10654100               -0.01224645                0.00272166
               4.00000000                9.00000000               11.00000000                0.23271546               -0.05526400               -0.10921231                0.29322135                0.06631925               -0.00187408               -0.00114556
               5.00000000                9.00000000               11.00000000                0.30032553               -0.07704077               -0.09951654                0.29988665                0.02540923               -0.00379737               -0.00210207
               6.00000000                9.00000000               11.00000000                0.37945799               -0.08700133               -0.09858875                0.31268391                0.00864743               -0.00818561               -0.00197382
               7.00000000                9.00000000               11.00000000                0.47285083               -0.09477906               -0.10073256                0.32796258                0.00197709               -0.00969087               -0.00206825
               8.00000000                9.00000000               11.00000000                0.58410542               -0.10135839               -0.10376134                0.34331346               -0.00049636               -0.00771267               -0.00273428
               9.00000000                9.00000000               11.00000000                0.71883863               -0.10669966               -0.10669968                0.35730434               -0.00082074               -0.00384489               -0.00384540
              10.00000000                9.00000000               11.00000000                0.90423518               -0.10906748               -0.10967296                0.36996740               -0.00220567               -0.00072783               -0.00511185
               0.00000000               10.00000000               11.00000000                0.94903002               -0.08754392               -0.08361756                0.28052421               -0.00211626                0.00102675                0.00405388
               1.00000000               10.00000000               11.00000000                0.76218693               -0.09241621               -0.08871671                0.30027651               -0.00035994                0.00152208                0.00100934
               2.00000000               10.00000000               11.00000000                0.59622433               -0.10297666               -0.09392865                0.31799033                0.08066485                0.00397097                0.00042478
               3.00000000               10.00000000               11.00000000                0.60439959               -0.05953517               -0.12284072                0.30798756                0.05167372                0.00838108                0.00577248
               4.00000000               10.00000000               11.00000000                0.63576725               -0.01932827               -0.11388013                0.30298286                0.04716593                0.00983541                0.00063152
               5.00000000               10.00000000               11.00000000                0.67284482               -0.04361905               -0.10472950                0.31033792                0.02002647               -0.00028894               -0.00106106
               6.00000000               10.00000000               11.00000000                0.71629900               -0.07028418               -0.10239837                0.32380280                0.00643238               -0.00930731               -0.00106389
               7.00000000               10.00000000               11.00000000                0.76776261               -0.08919516               -0.10338926                0.33972566                0.00071505               -0.01243970               -0.00078387
               8.00000000               10.00000000               11.00000000                0.82933134               -0.10173828               -0.10597182                0.35561287               -0.00159014               -0.01019623               -0.00064491
               9.00000000               10.00000000               11.00000000                0.90423628               -0.10967241               -0.10906727                0.36996594               -0.00220587               -0.00511125               -0.00072805
              10.00000000               10.00000000               11.00000000                0.97692244               -0.11267729               -0.11267756                0.38276374               -0.00410563               -0.00087139               -0.00087168
               0.00000000                0.00000000               12.00000000                0.74915057               -0.06458230               -0.06458195                0.21704830                0.00309444               -0.00031738               -0.00031759
               1.00000000                0.00000000               12.00000000                0.49425976               -0.06160014               -0.07007290                0.22439969                0.00716376               -0.00142895               -0.00027087
               2.00000000                0.00000000               12.00000000                0.49705870               -0.06289492               -0.06956055                0.23222596                0.00210915               -0.00172023               -0.00030293
               3.00000000                0.00000000               12.00000000                0.51779648               -0.07062399               -0.07237753                0.23965311                0.00263097                0.00006599               -0.00038037
               4.00000000                0.00000000               12.00000000                0.54717635               -0.07661779               -0.07468204                0.24636809                0.00260133                0.00278209               -0.00037414
               5.00000000                0.00000000               12.00000000                0.58536812               -0.08081362               -0.07695309                0.25246086                0.00264710                0.00554669               -0.00038138
               6.00000000                0.00000000               12.00000000                0.63285641               -0.08335044               -0.07905726                0.25812822                0.00258271                0.00769557               -0.00043231
               7.00000000                0.00000000               12.00000000                0.69042177               -0.08444635               -0.08098408                0.26354724                0.00234511                0.00870155               -0.00050709
               8.00000000                0.00000000               12.00000000                0.75932596               -0.08437391               -0.08277398                0.26888161                0.00186592                0.00806001               -0.00052557
               9.00000000                0.00000000               12.00000000                0.84162034               -0.08390495               -0.08467448                0.27440836                0.00131100                0.00512661               -0.00046886
              10.00000000                0.00000000               12.00000000                0.95021235               -0.08372170               -0.08745058                0.28098703               -0.00181570                0.00287796                0.00041621
               0.00000000                1.00000000               12.00000000                0.49425982               -0.07007260               -0.06159956                0.22439759                0.00716344               -0.00027116               -0.00142909
               1.00000000                1.00000000               12.00000000                0.01000001               -0.07697584               -0.07697569                0.23180224                0.01723603               -0.00166005               -0.00165926
               2.00000000                1.00000000               12.00000000                0.01000000               -0.08287764               -0.05486449                0.24042028                0.04800384               -0.00351956               -0.01276650
               3.00000000                1.00000000               12.00000000                0.01000001               -0.08068234               -0.04105408                0.24931656                0.05249105               -0.00343414               -0.02018070
               4.00000000                1.00000000               12.00000000                0.04263658               -0.07885339               -0.06960832                0.25786167                0.01879482               -0.00178765               -0.01212152
               5.00000000                1.00000000               12.00000000                0.09358764               -0.07812321               -0.07688208                0.26576871                0.01533165                0.00058232               -0.00738778
               6.00000000                1.00000000               12.00000000                0.15713073               -0.07856251               -0.08039449                0.27299523                0.01302928                0.00282137               -0.00525461
               7.00000000                1.00000000               12.00000000                0.23492355               -0.08030681               -0.08222558                0.27963919                0.01005357                0.00414529               -0.00402010
               8.00000000                1.00000000               12.00000000                0.32947023               -0.08328166               -0.08375827                0.28591039                0.00645288                0.00394576               -0.00296386
               9.00000000                1.00000000               12.00000000                0.44467556               -0.08667612               -0.08570936                0.29223022                0.00328207                0.00212018               -0.00183249
              10.00000000                1.00000000               12.00000000                0.76322719               -0.08830562               -0.09220968                0.29905559               -0.00018020                0.00103509               -0.00005256
               0.00000000                2.00000000               12.00000000                0.49705929               -0.06955965               -0.06289391                0.23222174                0.00210890               -0.00030290               -0.00172029
               1.00000000                2.00000000               12.00000000                0.01000000               -0.05486448               -0.08287660                0.24041820                0.04800415               -0.01276740               -0.00351843
               2.00000000                2.00000000               12.00000000                0.01000001               -0.06300113               -0.06299960                0.24768529                0.13447135               -0.02441005               -0.02440836
               3.00000000                2.00000000               12.00000000                0.01000000               -0.11930642               -0.01680154                0.25642339                0.12803449               -0.00759288               -0.04335818
               4.00000000                2.00000000               12.00000000                0.01000000               -0.11863767               -0.01720799                0.27603104                0.12712177                0.00403178               -0.06033297
               5.00000000                2.00000000               12.00000000                0.01000001               -0.08145202                0.02666149                0.28325032                0.18052200                0.00116027               -0.09411985
               6.00000000                2.00000000               12.00000000                0.02814713               -0.07907993                0.02152445                0.29022804                0.17424451                0.00015593               -0.07614574
               7.00000000                2.00000000               12.00000000                0.06151634               -0.08219718               -0.00060484                0.29681246                0.15134679                0.00078209               -0.05438111
               8.00000000                2.00000000               12.00000000                0.10312170               -0.08744687               -0.02210567                0.30309131                0.12252688                0.00110216               -0.03634068
               9.00000000                2.00000000               12.00000000                0.15547439               -0.09146785               -0.04424163                0.30929150                0.09366486                0.00055991               -0.02130210
              10.00000000                2.00000000               12.00000000                0.59614998               -0.09268507               -0.10948349                0.31555186                0.07686412                0.00067153               -0.01023829
               0.00000000                3.00000000               12.00000000                0.51779802               -0.07237600               -0.07062255                0.23964679                0.00263074               -0.00038036                0.00006582
               1.00000000                3.00000000               12.00000000                0.01000001               -0.04105337               -0.08068044                0.24931239                0.05249157               -0.02018238               -0.00343326
               2.00000000                3.00000000               12.00000000                0.01000000               -0.01680109               -0.11930291                0.25642148                0.12803418               -0.04335976               -0.00758934
               3.00000000                3.00000000               12.00000000                0.01000000               -0.03689119               -0.03689396                0.26455053                0.17954646               -0.04995340               -0.04996244
               4.00000000                3.00000000               12.00000000                0.01000001               -0.03481089                0.02920628                0.27380289                0.27341836               -0.07155478               -0.09688748
               5.00000000                3.00000000               12.00000000                0.02353108               -0.05608554                0.03391651                0.25462117                0.27101585               -0.04388936               -0.09940661
               6.00000000                3.00000000               12.00000000                0.05246145               -0.10528228                0.02550555                0.26542021                0.19349923                0.01076576               -0.08581073
               7.00000000                3.00000000               12.00000000                0.08660889               -0.12488830                0.01215629                0.28152017                0.16257039                0.01269423               -0.06985072
               8.00000000                3.00000000               12.00000000                0.12688748               -0.13265735               -0.00375314                0.29414752                0.14972000                0.00905078               -0.05284282
               9.00000000                3.00000000               12.00000000                0.17465113               -0.12468274               -0.02829873                0.30384848                0.09934076                0.00539079               -0.03506965
              10.00000000                3.00000000               12.00000000                0.60412457               -0.11572308               -0.07573694                0.31142772                0.04805101                0.00639531               -0.01222491
               0.00000000                4.00000000               12.00000000                0.54717928               -0.07467988               -0.07661584                0.24635969                0.00260111               -0.00037413                0.00278170
               1.00000000                4.00000000               12.00000000                0.04264065               -0.06960621               -0.07885075                0.25785540                0.01879632               -0.01212186               -0.00178700
               2.00000000                4.00000000               12.00000000                0.01000000               -0.01720478               -0.11863381                0.27602684                0.12711701               -0.06035151                0.00403380
               3.00000000                4.00000000               12.00000000                0.01000001                0.02921636               -0.03482109                0.27380188                0.27341067               -0.09688645               -0.07155613
               4.00000000                4.00000000               12.00000000                0.02401472               -0.02496959               -0.02497883                0.24665134                0.17381597               -0.05296442               -0.05297694
               5.00000000                4.00000000               12.00000000                0.05348044               -0.08551465               -0.07522380                0.25194469                0.08923370                0.00147010               -0.00447063
               6.00000000                4.00000000               12.00000000                0.08807907               -0.09561424               -0.08145707                0.26586317                0.07293485                0.00435167               -0.00830432
               7.00000000                4.00000000               12.00000000                0.12855590               -0.10078038               -0.07304430                0.27938018                0.07494045                0.00322064               -0.01537598
               8.00000000                4.00000000               12.00000000                0.17599198               -0.10323025               -0.06754852                0.29114387                0.07927911                0.00219669               -0.01759440
               9.00000000                4.00000000               12.00000000                0.23204225               -0.10721974               -0.06712915                0.30090030                0.06246693                0.00049137               -0.01451902
              10.00000000                4.00000000               12.00000000                0.63556338               -0.11109163               -0.03494773                0.30912494                0.04228476                0.00119656               -0.00133736
               0.00000000                5.00000000               12.00000000                0.58537289               -0.07695030               -0.08081106                0.25245041                0.00264690               -0.00038137                0.00554611
               1.00000000                5.00000000               12.00000000                0.09359430               -0.07687970               -0.07811996                0.26576034                0.01533272               -0.00738780                0.00058272
               2.00000000                5.00000000               12.00000000                0.01000001                0.02666994               -0.08144896                0.28324364                0.18050651               -0.09412858                0.00116159
               3.00000000                5.00000000               12.00000000                0.02353354                0.03392451               -0.05609338                0.25461594                0.27099281               -0.09940533               -0.04386923
               4.00000000                5.00000000               12.00000000                0.05348184               -0.07522295               -0.08551537                0.25194376                0.08922718               -0.00446696                0.00147075
               5.00000000                5.00000000               12.00000000                0.08871460               -0.08948103               -0.08948118                0.26204928                0.06217936                0.00146955                0.00146982
               6.00000000                5.00000000               12.00000000                0.12982177               -0.09156211               -0.09051812                0.27408175                0.05095110                0.00050393               -0.00236518
               7.00000000                5.00000000               12.00000000                0.17772914               -0.09271310               -0.09103965                0.28617534                0.04404549               -0.00008794               -0.00558227
               8.00000000                5.00000000               12.00000000                0.23377535               -0.09409952               -0.09063975                0.29722646                0.03736225               -0.00056130               -0.00746240
               9.00000000                5.00000000               12.00000000                0.30007547               -0.09959957               -0.08339017                0.30686965                0.02400944               -0.00113656               -0.00684422
              10.00000000                5.00000000               12.00000000                0.67292561               -0.10411820               -0.05303456                0.31552629                0.01807357               -0.00066439               -0.00212572
               0.00000000                6.00000000               12.00000000                0.63286337               -0.07905383               -0.08334716                0.25811575                0.00258249               -0.00043231                0.00769481
               1.00000000                6.00000000               12.00000000                0.15714052               -0.08039126               -0.07855878                0.27298475                0.01302989               -0.00525484                0.00282152
               2.00000000                6.00000000               12.00000000                0.02815223                0.02152382               -0.07907673                0.29021918                0.17422701               -0.07614884                0.00015654
               3.00000000                6.00000000               12.00000000                0.05246568                0.02550801               -0.10528137                0.26541682                0.19346586               -0.08581555                0.01077393
               4.00000000                6.00000000               12.00000000                0.08808227               -0.08145113               -0.09561287                0.26586074                0.07292568               -0.00830765                0.00435258
               5.00000000                6.00000000               12.00000000                0.12982359               -0.09051644               -0.09156159                0.27408044                0.05094897               -0.00236568                0.00050400
               6.00000000                6.00000000               12.00000000                0.17838184               -0.09222376               -0.09222403                0.28495686                0.03571338               -0.00201033               -0.00201054
               7.00000000                6.00000000               12.00000000                0.23493240               -0.09290884               -0.09446478                0.29649897                0.02491493               -0.00192232               -0.00418032
               8.00000000                6.00000000               12.00000000                0.30116284               -0.09451228               -0.09521467                0.30745260                0.01624227               -0.00163581               -0.00587362
               9.00000000                6.00000000               12.00000000                0.37974458               -0.09903900               -0.09040041                0.31730986                0.00833392               -0.00132653               -0.00670258
              10.00000000                6.00000000               12.00000000                0.71671672               -0.10231451               -0.07504980                0.32645783                0.00597136               -0.00081382               -0.00667646
               0.00000000                7.00000000               12.00000000                0.69043121               -0.08098003               -0.08444230                0.26353280                0.00234485               -0.00050710                0.00870069
               1.00000000                7.00000000               12.00000000                0.23493694               -0.08222178               -0.08030270                0.27962662                0.01005358               -0.00402051                0.00414526
               2.00000000                7.00000000               12.00000000                0.06152360               -0.00060890               -0.08219384                0.29680146                0.15132743               -0.05438503                0.00078265
               3.00000000                7.00000000               12.00000000                0.08661524                0.01215430               -0.12488439                0.28151425                0.16254424               -0.06985611                0.01269583
               4.00000000                7.00000000               12.00000000                0.12856128               -0.07303859               -0.10077861                0.27937605                0.07493243               -0.01537970                0.00322147
               5.00000000                7.00000000               12.00000000                0.17773318               -0.09103704               -0.09271223                0.28617249                0.04404318               -0.00558301               -0.00008797
               6.00000000                7.00000000               12.00000000                0.23493458               -0.09446386               -0.09290846                0.29649757                0.02491458               -0.00418003               -0.00192275
               7.00000000                7.00000000               12.00000000                0.30168235               -0.09556122               -0.09556128                0.30803889                0.01314980               -0.00352078               -0.00352140
               8.00000000                7.00000000               12.00000000                0.38013334               -0.09737600               -0.09734344                0.31932047                0.00598768               -0.00252662               -0.00514770
               9.00000000                7.00000000               12.00000000                0.47368799               -0.10085467               -0.09619060                0.32964049                0.00207415               -0.00145108               -0.00673029
              10.00000000                7.00000000               12.00000000                0.76848772               -0.10308610               -0.09080781                0.33930334                0.00088094               -0.00060048               -0.00851898
               0.00000000                8.00000000               12.00000000                0.75933819               -0.08276932               -0.08436909                0.26886521                0.00186560               -0.00052560                0.00805915
               1.00000000                8.00000000               12.00000000                0.32948766               -0.08375397               -0.08327716                0.28589573                0.00645252               -0.00296432                0.00394568
               2.00000000                8.00000000               12.00000000                0.10313147               -0.02211043               -0.08744297                0.30307823                0.12250850               -0.03634565                0.00110272
               3.00000000                8.00000000               12.00000000                0.12689632               -0.00375839               -0.13264965                0.29413897                0.14969688               -0.05284940                0.00905202
               4.00000000                8.00000000               12.00000000                0.17600000               -0.06754526               -0.10322775                0.29113777                0.07927104               -0.01759834                0.00219739
               5.00000000                8.00000000               12.00000000                0.23378202               -0.09063702               -0.09409820                0.29722193                0.03736036               -0.00746330               -0.00056135
               6.00000000                8.00000000               12.00000000                0.30116776               -0.09521332               -0.09451140                0.30744960                0.01624212               -0.00587320               -0.00163622
               7.00000000                8.00000000               12.00000000                0.38013604               -0.09734292               -0.09737552                0.31931896                0.00598780               -0.00514688               -0.00252721
               8.00000000                8.00000000               12.00000000                0.47348302               -0.09998943               -0.09998940                0.33115918                0.00121043               -0.00372890               -0.00372965
               9.00000000                8.00000000               12.00000000                0.58559630               -0.10331316               -0.10133606                0.34206111               -0.00030571               -0.00190537               -0.00523314
              10.00000000                8.00000000               12.00000000                0.83036773               -0.10512476               -0.10131226                0.35217413               -0.00121202               -0.00043284               -0.00706030
               0.00000000                9.00000000               12.00000000                0.84163549               -0.08466924               -0.08389944                0.27439002                0.00131064               -0.00046891                0.00512598
               1.00000000                9.00000000               12.00000000                0.44469724               -0.08570460               -0.08667110                0.29221349                0.00328168               -0.00183307                0.00212018
               2.00000000                9.00000000               12.00000000                0.15548696               -0.04424611               -0.09146322                0.30927639                0.09364954               -0.02130809                0.00056028
               3.00000000                9.00000000               12.00000000                0.17466294               -0.02830589               -0.12467313                0.30383746                0.09932511               -0.03507768                0.00539155
               4.00000000                9.00000000               12.00000000                0.23205325               -0.06712878               -0.10721550                0.30089218                0.06245950               -0.01452328                0.00049178
               5.00000000                9.00000000               12.00000000                0.30008527               -0.08338846               -0.09959728                0.30686332                0.02400811               -0.00684501               -0.00113655
               6.00000000                9.00000000               12.00000000                0.37975270               -0.09039901               -0.09903749                0.31730509                0.00833391               -0.00670188               -0.00132676
               7.00000000                9.00000000               12.00000000                0.47369393               -0.09618965               -0.10085370                0.32963732                0.00207431               -0.00672918               -0.00145141
               8.00000000                9.00000000               12.00000000                0.58559946               -0.10133558               -0.10331269                0.34205956               -0.00030564               -0.00523217               -0.00190579
               9.00000000                9.00000000               12.00000000                0.72121446               -0.10565621               -0.10565622                0.35350651               -0.00069084               -0.00266964               -0.00267017
              10.00000000                9.00000000               12.00000000                0.90565063               -0.10760142               -0.10799453                0.36393150               -0.00181092               -0.00042256               -0.00363147
               0.00000000               10.00000000               12.00000000                0.95022104               -0.08744471               -0.08371587                0.28096670               -0.00181630                0.00041590                0.00287747
               1.00000000               10.00000000               12.00000000                0.76323958               -0.09220402               -0.08830031                0.29903681               -0.00018071               -0.00005359                0.00103512
               2.00000000               10.00000000               12.00000000                0.59615724               -0.10948099               -0.09268008                0.31553481                0.07685186               -0.01024551                0.00067171
               3.00000000               10.00000000               12.00000000                0.60413153               -0.07574376               -0.11571305                0.31141457                0.04804260               -0.01223486                0.00639521
               4.00000000               10.00000000               12.00000000                0.63556994               -0.03495646               -0.11108612                0.30911479                0.04227674               -0.00134202                0.00119673
               5.00000000               10.00000000               12.00000000                0.67293160               -0.05303657               -0.10411523                0.31551802                0.01807122               -0.00212608               -0.00066429
               6.00000000               10.00000000               12.00000000                0.71672188               -0.07504895               -0.10231263                0.32645119                0.00597073               -0.00667522               -0.00081385
               7.00000000               10.00000000               12.00000000                0.76849173               -0.09080644               -0.10308489                0.33929842                0.00088069               -0.00851740               -0.00060058
               8.00000000               10.00000000               12.00000000                0.83037034               -0.10131121               -0.10512407                0.35217095               -0.00121220               -0.00705893               -0.00043301
               9.00000000               10.00000000               12.00000000                0.90565160               -0.10799400               -0.10760120                0.36392999               -0.00181113               -0.00363064               -0.00042278
              10.00000000               10.00000000               12.00000000                0.97771564               -0.11052964               -0.11052991                0.37447430               -0.00338278               -0.00050619               -0.00050664
               0.00000000                0.00000000               13.00000000                0.74924974               -0.06465082               -0.06465048                0.21750857                0.00303407               -0.00020591               -0.00020614
               1.00000000                0.00000000               13.00000000                0.49440269               -0.06144210               -0.07013993                0.22466484                0.00711847               -0.00112323               -0.00010523
               2.00000000                0.00000000               13.00000000                0.49707715               -0.06235564               -0.06960859                0.23217426                0.00198472               -0.00182185               -0.00004759
               3.00000000                0.00000000               13.00000000                0.51767465               -0.06991942               -0.07233851                0.23943995                0.00247440               -0.00078492               -0.00021448
               4.00000000                0.00000000               13.00000000                0.54691739               -0.07596568               -0.07458789                0.24618931                0.00245924                0.00125827               -0.00028988
               5.00000000                0.00000000               13.00000000                0.58505147               -0.08029847               -0.07682862                0.25242428                0.00252397                0.00361092               -0.00035016
               6.00000000                0.00000000               13.00000000                0.63263427               -0.08296679               -0.07892548                0.25825340                0.00247666                0.00558100               -0.00041527
               7.00000000                0.00000000               13.00000000                0.69050771               -0.08418058               -0.08086769                0.26382846                0.00225716                0.00656235               -0.00047571
               8.00000000                0.00000000               13.00000000                0.75996305               -0.08426563               -0.08269738                0.26934474                0.00180757                0.00605355               -0.00048490
               9.00000000                0.00000000               13.00000000                0.84298216               -0.08399701               -0.08464195                0.27509436                0.00129494                0.00370522               -0.00043657
              10.00000000                0.00000000               13.00000000                0.95110944               -0.08391687               -0.08740295                0.28177736               -0.00148283                0.00188771               -0.00007580
               0.00000000                1.00000000               13.00000000                0.49440275               -0.07013964               -0.06144153                0.22466279                0.00711815               -0.00010552               -0.00112340
               1.00000000                1.00000000               13.00000000                0.01000001               -0.07698754               -0.07698739                0.23186362                0.01722333               -0.00087952               -0.00087872
               2.00000000                1.00000000               13.00000000                0.01000000               -0.08279489               -0.05598561                0.23998925                0.04700618               -0.00161603               -0.01264031
               3.00000000                1.00000000               13.00000000                0.01000001               -0.08049862               -0.04311483                0.24841147                0.05093243               -0.00126253               -0.02035473
               4.00000000                1.00000000               13.00000000                0.04221296               -0.07856626               -0.06979185                0.25663214                0.01739010                0.00003481               -0.00881268
               5.00000000                1.00000000               13.00000000                0.09302749               -0.07778531               -0.07664161                0.26436382                0.01436143                0.00175311               -0.00537354
               6.00000000                1.00000000               13.00000000                0.15659691               -0.07822595               -0.08013218                0.27151932                0.01216185                0.00328465               -0.00411493
               7.00000000                1.00000000               13.00000000                0.23466295               -0.07998934               -0.08205338                0.27817271                0.00927521                0.00403390               -0.00348047
               8.00000000                1.00000000               13.00000000                0.32978739               -0.08295959               -0.08369487                0.28453700                0.00586844                0.00358924               -0.00285782
               9.00000000                1.00000000               13.00000000                0.44581246               -0.08632447               -0.08571193                0.29100030                0.00297228                0.00195778               -0.00214965
              10.00000000                1.00000000               13.00000000                0.76404816               -0.08793752               -0.09193007                0.29790537               -0.00000231                0.00105758               -0.00125794
               0.00000000                2.00000000               13.00000000                0.49707774               -0.06960770               -0.06235465                0.23217013                0.00198447               -0.00004756               -0.00182195
               1.00000000                2.00000000               13.00000000                0.01000000               -0.05598577               -0.08279386                0.23998719                0.04700666               -0.01264122               -0.00161490
               2.00000000                2.00000000               13.00000000                0.01000001               -0.06487037               -0.06486861                0.24816342                0.13086402               -0.02402602               -0.02402444
               3.00000000                2.00000000               13.00000000                0.01000000               -0.12002266               -0.01958848                0.25774991                0.12718419               -0.00127818               -0.04483682
               4.00000000                2.00000000               13.00000000                0.01000000               -0.11810827               -0.02080482                0.27287896                0.12449093                0.01100239               -0.06011703
               5.00000000                2.00000000               13.00000000                0.01000001               -0.08074334                0.01756931                0.28008512                0.17034526                0.00270928               -0.10639505
               6.00000000                2.00000000               13.00000000                0.02755596               -0.07858738                0.01167108                0.28701342                0.16191309                0.00136459               -0.09010568
               7.00000000                2.00000000               13.00000000                0.06092652               -0.08155482               -0.01061130                0.29362973                0.13919712                0.00151851               -0.06599239
               8.00000000                2.00000000               13.00000000                0.10264960               -0.08652742               -0.03176232                0.30003755                0.11195883                0.00153566               -0.04653184
               9.00000000                2.00000000               13.00000000                0.15524578               -0.09035839               -0.05297864                0.30645600                0.08583748                0.00087114               -0.03110335
              10.00000000                2.00000000               13.00000000                0.59612618               -0.09153538               -0.11394121                0.31290056                0.07212348                0.00087767               -0.02060731
               0.00000000                3.00000000               13.00000000                0.51767616               -0.07233701               -0.06991801                0.23943377                0.00247417               -0.00021448               -0.00078509
               1.00000000                3.00000000               13.00000000                0.01000001               -0.04311381               -0.08049676                0.24840735                0.05093320               -0.02035619               -0.00126168
               2.00000000                3.00000000               13.00000000                0.01000000               -0.01958961               -0.12002011                0.25774867                0.12718484               -0.04483857               -0.00127501
               3.00000000                3.00000000               13.00000000                0.01000000               -0.04110529               -0.04110742                0.26111945                0.17780309               -0.04960075               -0.04960065
               4.00000000                3.00000000               13.00000000                0.01000001               -0.04412184                0.01895545                0.28568161                0.26061300               -0.07572233               -0.11227998
               5.00000000                3.00000000               13.00000000                0.02266751               -0.06346926                0.02185855                0.27571762                0.25528148               -0.05460755               -0.12543614
               6.00000000                3.00000000               13.00000000                0.05151040               -0.10640325                0.01211126                0.27733499                0.18130086                0.01415143               -0.10724263
               7.00000000                3.00000000               13.00000000                0.08567269               -0.12264525               -0.00230501                0.28908344                0.15039274                0.01885113               -0.08870324
               8.00000000                3.00000000               13.00000000                0.12608687               -0.12807244               -0.01893397                0.29870385                0.13814902                0.01306415               -0.06977586
               9.00000000                3.00000000               13.00000000                0.17410038               -0.11874658               -0.04342020                0.30665223                0.09152640                0.00729433               -0.05103595
              10.00000000                3.00000000               13.00000000                0.60392586               -0.10944909               -0.08859114                0.31349046                0.04414793                0.00660119               -0.02728295
               0.00000000                4.00000000               13.00000000                0.54692029               -0.07458578               -0.07596376                0.24618109                0.00245902               -0.00028988                0.00125792
               1.00000000                4.00000000               13.00000000                0.04221697               -0.06979059               -0.07856368                0.25662597                0.01739086               -0.00881249                0.00003541
               2.00000000                4.00000000               13.00000000                0.01000000               -0.02080207               -0.11810488                0.27287544                0.12448620               -0.06012206                0.01100449
               3.00000000                4.00000000               13.00000000                0.01000001                0.01896595               -0.04413189                0.28569949                0.26061118               -0.11228145               -0.07572380
               4.00000000                4.00000000               13.00000000                0.02303415               -0.03461357               -0.03462334                0.27592286                0.16526877               -0.07391145               -0.07391121
               5.00000000                4.00000000               13.00000000                0.05230243               -0.08993371               -0.08040069                0.26949605                0.08722743               -0.00115140               -0.01410756
               6.00000000                4.00000000               13.00000000                0.08682191               -0.09810119               -0.08713763                0.27952102                0.07107530                0.00782106               -0.01589780
               7.00000000                4.00000000               13.00000000                0.12736214               -0.10160076               -0.07983063                0.28973440                0.07194720                0.00681210               -0.02442896
               8.00000000                4.00000000               13.00000000                0.17502598               -0.10260714               -0.07576137                0.29885894                0.07488953                0.00472056               -0.02710659
               9.00000000                4.00000000               13.00000000                0.23142898               -0.10529231               -0.07682393                0.30679339                0.05808374                0.00166574               -0.02377185
              10.00000000                4.00000000               13.00000000                0.63534201               -0.10846914               -0.04840796                0.31381281                0.03743078                0.00157795               -0.00981200
               0.00000000                5.00000000               13.00000000                0.58505616               -0.07682588               -0.08029593                0.25241404                0.00252376               -0.00035016                0.00361040
               1.00000000                5.00000000               13.00000000                0.09303403               -0.07663929               -0.07778213                0.26435557                0.01436239               -0.00537365                0.00175344
               2.00000000                5.00000000               13.00000000                0.01000001                0.01758080               -0.08073972                0.28007872                0.17033245               -0.10640158                0.00270974
               3.00000000                5.00000000               13.00000000                0.02266993                0.02186707               -0.06347694                0.27571664                0.25526000               -0.12543840               -0.05460028
               4.00000000                5.00000000               13.00000000                0.05230381               -0.08040251               -0.08993482                0.26949511                0.08722003               -0.01410628               -0.00114980
               5.00000000                5.00000000               13.00000000                0.08734537               -0.09363929               -0.09363929                0.27717246                0.06072962                0.00087287                0.00087413
               6.00000000                5.00000000               13.00000000                0.12841318               -0.09451157               -0.09454783                0.28652978                0.04932458                0.00203635               -0.00424882
               7.00000000                5.00000000               13.00000000                0.17646101               -0.09458106               -0.09506822                0.29590391                0.04225651                0.00184862               -0.00822467
               8.00000000                5.00000000               13.00000000                0.23286197               -0.09507718               -0.09491347                0.30462271                0.03541740                0.00085379               -0.01022823
               9.00000000                5.00000000               13.00000000                0.29968577               -0.09956540               -0.08854899                0.31248816                0.02238573               -0.00046128               -0.00922580
              10.00000000                5.00000000               13.00000000                0.67286307               -0.10346916               -0.06129735                0.31972022                0.01609402               -0.00034856               -0.00368759
               0.00000000                6.00000000               13.00000000                0.63264114               -0.07892212               -0.08296355                0.25824117                0.00247644               -0.00041528                0.00558035
               1.00000000                6.00000000               13.00000000                0.15660653               -0.08012901               -0.07822231                0.27150899                0.01216241               -0.00411532                0.00328471
               2.00000000                6.00000000               13.00000000                0.02756097                0.01167130               -0.07858421                0.28700471                0.16189632               -0.09010754                0.00136489
               3.00000000                6.00000000               13.00000000                0.05151454                0.01211454               -0.10640343                0.27733068                0.18126591               -0.10724631                0.01415853
               4.00000000                6.00000000               13.00000000                0.08682503               -0.08713182               -0.09809962                0.27951828                0.07106601               -0.01590189                0.00782245
               5.00000000                6.00000000               13.00000000                0.12841495               -0.09454624               -0.09451094                0.28652834                0.04932243               -0.00425005                0.00203701
               6.00000000                6.00000000               13.00000000                0.17700073               -0.09508991               -0.09509013                0.29522970                0.03434960               -0.00148301               -0.00148265
               7.00000000                6.00000000               13.00000000                0.23378251               -0.09483869               -0.09706515                0.30435492                0.02384520               -0.00067070               -0.00393776
               8.00000000                6.00000000               13.00000000                0.30049324               -0.09566844               -0.09766546                0.31309337                0.01546669               -0.00065431               -0.00540511
               9.00000000                6.00000000               13.00000000                0.37976601               -0.09937376               -0.09321210                0.32114538                0.00786009               -0.00087105               -0.00566502
              10.00000000                6.00000000               13.00000000                0.71691028               -0.10218648               -0.07930693                0.32871979                0.00542826               -0.00059773               -0.00475910
               0.00000000                7.00000000               13.00000000                0.69051706               -0.08086371               -0.08417658                0.26381427                0.00225690               -0.00047573                0.00656164
               1.00000000                7.00000000               13.00000000                0.23467611               -0.08204965               -0.07998531                0.27816032                0.00927521               -0.00348100                0.00403378
               2.00000000                7.00000000               13.00000000                0.06093365               -0.01061428               -0.08155157                0.29361903                0.13917876               -0.06599508                0.00151886
               3.00000000                7.00000000               13.00000000                0.08567894               -0.00230589               -0.12264123                0.28907684                0.15036744               -0.08870728                0.01885243
               4.00000000                7.00000000               13.00000000                0.12736743               -0.07982500               -0.10159879                0.28972977                0.07193895               -0.02443297                0.00681318
               5.00000000                7.00000000               13.00000000                0.17646495               -0.09506569               -0.09458007                0.29590086                0.04225412               -0.00822586                0.00184900
               6.00000000                7.00000000               13.00000000                0.23378474               -0.09706427               -0.09483823                0.30435339                0.02384479               -0.00393784               -0.00067072
               7.00000000                7.00000000               13.00000000                0.30085615               -0.09716217               -0.09716220                0.31359807                0.01261066               -0.00230509               -0.00230537
               8.00000000                7.00000000               13.00000000                0.37988755               -0.09818532               -0.09861904                0.32266148                0.00580295               -0.00150235               -0.00354250
               9.00000000                7.00000000               13.00000000                0.47425011               -0.10094793               -0.09739378                0.33109884                0.00204337               -0.00098389               -0.00449986
              10.00000000                7.00000000               13.00000000                0.76898225               -0.10282127               -0.09235121                0.33907271                0.00093609               -0.00043900               -0.00550433
               0.00000000                8.00000000               13.00000000                0.75997511               -0.08269279               -0.08426087                0.26932862                0.00180725               -0.00048494                0.00605285
               1.00000000                8.00000000               13.00000000                0.32980461               -0.08369065               -0.08295517                0.28452257                0.00586807               -0.00285835                0.00358907
               2.00000000                8.00000000               13.00000000                0.10265923               -0.03176595               -0.08652363                0.30002479                0.11194147               -0.04653561                0.00153604
               3.00000000                8.00000000               13.00000000                0.12609560               -0.01893786               -0.12806505                0.29869491                0.13812671               -0.06978094                0.01306498
               4.00000000                8.00000000               13.00000000                0.17503385               -0.07575793               -0.10260450                0.29885236                0.07488134               -0.02711036                0.00472135
               5.00000000                8.00000000               13.00000000                0.23286850               -0.09491078               -0.09507572                0.30461793                0.03541540               -0.01022928                0.00085402
               6.00000000                8.00000000               13.00000000                0.30049809               -0.09766415               -0.09566747                0.31309021                0.01546646               -0.00540489               -0.00065451
               7.00000000                8.00000000               13.00000000                0.37989018               -0.09861854               -0.09818479                0.32265989                0.00580303               -0.00354188               -0.00150275
               8.00000000                8.00000000               13.00000000                0.47388942               -0.10036012               -0.10036007                0.33220531                0.00128453               -0.00233103               -0.00233164
               9.00000000                8.00000000               13.00000000                0.58685769               -0.10295597               -0.10135779                0.34112078               -0.00019732               -0.00124063               -0.00329579
              10.00000000                8.00000000               13.00000000                0.83121346               -0.10443853               -0.10108899                0.34945978               -0.00093766               -0.00025732               -0.00456493
               0.00000000                9.00000000               13.00000000                0.84299712               -0.08463679               -0.08399159                0.27507633                0.00129458               -0.00043662                0.00370473
               1.00000000                9.00000000               13.00000000                0.44583399               -0.08570722               -0.08631953                0.29098383                0.00297189               -0.00215020                0.00195771
               2.00000000                9.00000000               13.00000000                0.15525820               -0.05298199               -0.09035386                0.30644110                0.08582299               -0.03110821                0.00087142
               3.00000000                9.00000000               13.00000000                0.17411201               -0.04342577               -0.11873762                0.30664093                0.09151136               -0.05104236                0.00729479
               4.00000000                9.00000000               13.00000000                0.23143980               -0.07682309               -0.10528808                0.30678490                0.05807644               -0.02377553                0.00166625
               5.00000000                9.00000000               13.00000000                0.29969537               -0.08854726               -0.09956299                0.31248157                0.02238434               -0.00922658               -0.00046113
               6.00000000                9.00000000               13.00000000                0.37977394               -0.09321075               -0.09937216                0.32114046                0.00786002               -0.00566437               -0.00087119
               7.00000000                9.00000000               13.00000000                0.47425593               -0.09739286               -0.10094691                0.33109556                0.00204348               -0.00449875               -0.00098414
               8.00000000                9.00000000               13.00000000                0.58686081               -0.10135733               -0.10295546                0.34111916               -0.00019726               -0.00329480               -0.00124096
               9.00000000                9.00000000               13.00000000                0.72329601               -0.10483093               -0.10483092                0.35047644               -0.00059629               -0.00171048               -0.00171099
              10.00000000                9.00000000               13.00000000                0.90687131               -0.10642498               -0.10668199                0.35907334               -0.00149681               -0.00018246               -0.00240746
               0.00000000               10.00000000               13.00000000                0.95111805               -0.08739717               -0.08391114                0.28175735               -0.00148342               -0.00007603                0.00188734
               1.00000000               10.00000000               13.00000000                0.76406043               -0.09192447               -0.08793229                0.29788687               -0.00000282               -0.00125877                0.00105756
               2.00000000               10.00000000               13.00000000                0.59613332               -0.11393783               -0.09153048                0.31288370                0.07211168               -0.02061332                0.00087779
               3.00000000               10.00000000               13.00000000                0.60393269               -0.08859620               -0.10943985                0.31347710                0.04413990               -0.02729132                0.00660096
               4.00000000               10.00000000               13.00000000                0.63534848               -0.04841564               -0.10846373                0.31380237                0.03742328               -0.00981591                0.00157819
               5.00000000               10.00000000               13.00000000                0.67286890               -0.06129918               -0.10346609                0.31971172                0.01609173               -0.00368781               -0.00034841
               6.00000000               10.00000000               13.00000000                0.71691534               -0.07930615               -0.10218450                0.32871300                0.00542760               -0.00475774               -0.00059774
               7.00000000               10.00000000               13.00000000                0.76898622               -0.09234992               -0.10281998                0.33906764                0.00093580               -0.00550253               -0.00043906
               8.00000000               10.00000000               13.00000000                0.83121601               -0.10108797               -0.10443780                0.34945647               -0.00093787               -0.00456333               -0.00025742
               9.00000000               10.00000000               13.00000000                0.90687225               -0.10668145               -0.10642474                0.35907173               -0.00149703               -0.00240650               -0.00018263
              10.00000000               10.00000000               13.00000000                0.97839697               -0.10881009               -0.10881037                0.36777013               -0.00279622               -0.00022163               -0.00022216
               0.00000000                0.00000000               14.00000000                0.74931677               -0.06473268               -0.06473235                0.21776610                0.00297545               -0.00012740               -0.00012764
               1.00000000                0.00000000               14.00000000                0.49449778               -0.06149190               -0.07013246                0.22481846                0.00689648               -0.00090933                0.00001252
               2.00000000                0.00000000               14.00000000                0.49708752               -0.06215498               -0.06967694                0.23212495                0.00185605               -0.00190222                0.00014320
               3.00000000                0.00000000               14.00000000                0.51758522               -0.06940450               -0.07232892                0.23927891                0.00230032               -0.00142340               -0.00008289
               4.00000000                0.00000000               14.00000000                0.54672489               -0.07534434               -0.07453275                0.24605970                0.00229198                0.00006439               -0.00021297
               5.00000000                0.00000000               14.00000000                0.58481341               -0.07970389               -0.07674462                0.25242777                0.00236902                0.00200929               -0.00030799
               6.00000000                0.00000000               14.00000000                0.63247074               -0.08247204               -0.07883522                0.25843784                0.00234056                0.00374383               -0.00038020
               7.00000000                0.00000000               14.00000000                0.69058833               -0.08383866               -0.08079501                0.26421627                0.00214767                0.00465816               -0.00042876
               8.00000000                0.00000000               14.00000000                0.76047120               -0.08414072               -0.08266512                0.26995939                0.00173799                0.00428510               -0.00043317
               9.00000000                0.00000000               14.00000000                0.84402897               -0.08411603               -0.08464899                0.27594256                0.00127500                0.00248724               -0.00039278
              10.00000000                0.00000000               14.00000000                0.95178479               -0.08415312               -0.08738682                0.28272160               -0.00115287                0.00108035               -0.00045110
               0.00000000                1.00000000               14.00000000                0.49449785               -0.07013217               -0.06149134                0.22481644                0.00689616                0.00001222               -0.00090953
               1.00000000                1.00000000               14.00000000                0.01000001               -0.07677064               -0.07677050                0.23190243                0.01667280               -0.00030313               -0.00030234
               2.00000000                1.00000000               14.00000000                0.01000000               -0.08241400               -0.05751803                0.23966018                0.04460986               -0.00017255               -0.01200666
               3.00000000                1.00000000               14.00000000                0.01000001               -0.08018495               -0.04493774                0.24767483                0.04881812                0.00043617               -0.01958078
               4.00000000                1.00000000               14.00000000                0.04191905               -0.07828613               -0.07008963                0.25557352                0.01571950                0.00148765               -0.00623969
               5.00000000                1.00000000               14.00000000                0.09263275               -0.07753566               -0.07649566                0.26310783                0.01311715                0.00267724               -0.00361824
               6.00000000                1.00000000               14.00000000                0.15622975               -0.07801321               -0.07989567                0.27018305                0.01112540                0.00361274               -0.00306150
               7.00000000                1.00000000               14.00000000                0.23451872               -0.07979572               -0.08188026                0.27685718                0.00842927                0.00388897               -0.00292035
               8.00000000                1.00000000               14.00000000                0.33009273               -0.08273729               -0.08361958                0.28332503                0.00528043                0.00327151               -0.00265591
               9.00000000                1.00000000               14.00000000                0.44671548               -0.08604302               -0.08569595                0.28991843                0.00267100                0.00182351               -0.00228959
              10.00000000                1.00000000               14.00000000                0.76467239               -0.08762654               -0.09161242                0.29688821                0.00014751                0.00107025               -0.00211834
               0.00000000                2.00000000               14.00000000                0.49708811               -0.06967606               -0.06215400                0.23212090                0.00185579                0.00014322               -0.00190234
               1.00000000                2.00000000               14.00000000                0.01000000               -0.05751815               -0.08241300                0.23965814                0.04461030               -0.01200758               -0.00017144
               2.00000000                2.00000000               14.00000000                0.01000001               -0.06597594               -0.06597437                0.24842521                0.12551904               -0.02258301               -0.02258106
               3.00000000                2.00000000               14.00000000                0.01000000               -0.11918207               -0.02588630                0.25626153                0.12051558                0.00421628               -0.04827959
               4.00000000                2.00000000               14.00000000                0.01000000               -0.11727427               -0.02030414                0.26979181                0.12346490                0.01581362               -0.05219120
               5.00000000                2.00000000               14.00000000                0.01000001               -0.08019277                0.00603919                0.27695887                0.15942240                0.00431357               -0.10694403
               6.00000000                2.00000000               14.00000000                0.02714750               -0.07825719                0.00205102                0.28387757                0.14885145                0.00245193               -0.09690829
               7.00000000                2.00000000               14.00000000                0.06052695               -0.08109339               -0.01982579                0.29056090                0.12665974                0.00220609               -0.07206882
               8.00000000                2.00000000               14.00000000                0.10234577               -0.08577357               -0.04025211                0.29710919                0.10128877                0.00198567               -0.05241138
               9.00000000                2.00000000               14.00000000                0.15511447               -0.08940123               -0.06033202                0.30370966                0.07786201                0.00118861               -0.03730617
              10.00000000                2.00000000               14.00000000                0.59611963               -0.09053722               -0.11662994                0.31031676                0.06679567                0.00104065               -0.02761604
               0.00000000                3.00000000               14.00000000                0.51758674               -0.07232743               -0.06940309                0.23927284                0.00230008               -0.00008290               -0.00142356
               1.00000000                3.00000000               14.00000000                0.01000001               -0.04493655               -0.08018314                0.24767075                0.04881874               -0.01958166                0.00043700
               2.00000000                3.00000000               14.00000000                0.01000000               -0.02588569               -0.11917970                0.25625996                0.12051458               -0.04828108                0.00421945
               3.00000000                3.00000000               14.00000000                0.01000000               -0.04084523               -0.04084750                0.26532483                0.17995335               -0.04328571               -0.04327979
               4.00000000                3.00000000               14.00000000                0.01307969               -0.04809717                0.00743277                0.25743237                0.24342669               -0.06243767               -0.10460288
               5.00000000                3.00000000               14.00000000                0.02203642               -0.07403456                0.01028074                0.27937412                0.23274815               -0.06377058               -0.13824937
               6.00000000                3.00000000               14.00000000                0.05080829               -0.10771900               -0.00012065                0.28587264                0.17023112                0.01199014               -0.11903406
               7.00000000                3.00000000               14.00000000                0.08498388               -0.12023887               -0.01507169                0.29422665                0.13772784                0.02273472               -0.09938437
               8.00000000                3.00000000               14.00000000                0.12550484               -0.12358656               -0.03194304                0.30164660                0.12617498                0.01562713               -0.07984653
               9.00000000                3.00000000               14.00000000                0.17370188               -0.11348199               -0.05589295                0.30830681                0.08346531                0.00853962               -0.06110988
              10.00000000                3.00000000               14.00000000                0.60377947               -0.10417010               -0.09832960                0.31461824                0.04014220                0.00650822               -0.03746129
               0.00000000                4.00000000               14.00000000                0.54672772               -0.07453066               -0.07534243                0.24605164                0.00229175               -0.00021298                0.00006407
               1.00000000                4.00000000               14.00000000                0.04192301               -0.07008831               -0.07828363                0.25556741                0.01572013               -0.00623942                0.00148820
               2.00000000                4.00000000               14.00000000                0.01000000               -0.02029820               -0.11727093                0.26978742                0.12345982               -0.05218823                0.01581564
               3.00000000                4.00000000               14.00000000                0.01308070                0.00744405               -0.04810492                0.25742942                0.24342198               -0.10459990               -0.06243689
               4.00000000                4.00000000               14.00000000                0.02230487               -0.04739335               -0.04739999                0.27774748                0.14499337               -0.08971787               -0.08971151
               5.00000000                4.00000000               14.00000000                0.05139941               -0.09149266               -0.08180245                0.28159685                0.08426775               -0.01206145               -0.02497543
               6.00000000                4.00000000               14.00000000                0.08583919               -0.09971651               -0.09118750                0.28954197                0.06809956                0.00959172               -0.02113143
               7.00000000                4.00000000               14.00000000                0.12641724               -0.10191802               -0.08501219                0.29736313                0.06808891                0.00898219               -0.03049551
               8.00000000                4.00000000               14.00000000                0.17424502               -0.10183596               -0.08224085                0.30456532                0.06985517                0.00633692               -0.03336582
               9.00000000                4.00000000               14.00000000                0.23089208               -0.10349668               -0.08449588                0.31115038                0.05339634                0.00248390               -0.02989203
              10.00000000                4.00000000               14.00000000                0.63512848               -0.10608454               -0.05970275                0.31727634                0.03280155                0.00181103               -0.01573539
               0.00000000                5.00000000               14.00000000                0.58481803               -0.07674193               -0.07970138                0.25241774                0.00236880               -0.00030799                0.00200884
               1.00000000                5.00000000               14.00000000                0.09263922               -0.07649336               -0.07753258                0.26309971                0.01311804               -0.00361840                0.00267749
               2.00000000                5.00000000               14.00000000                0.01000001                0.00605012               -0.08018925                0.27695236                0.15941030               -0.10694939                0.00431366
               3.00000000                5.00000000               14.00000000                0.02203876                0.01028957               -0.07404138                0.27937125                0.23272462               -0.13825405               -0.06377050
               4.00000000                5.00000000               14.00000000                0.05140077               -0.08180337               -0.09149280                0.28159536                0.08425936               -0.02497529               -0.01205920
               5.00000000                5.00000000               14.00000000                0.08625529               -0.09633314               -0.09633311                0.28834840                0.05819153               -0.00016130               -0.00015920
               6.00000000                5.00000000               14.00000000                0.12726023               -0.09657199               -0.09737000                0.29582214                0.04697569                0.00272337               -0.00586172
               7.00000000                5.00000000               14.00000000                0.17539716               -0.09589488               -0.09796245                0.30324583                0.03994891                0.00291639               -0.01019868
               8.00000000                5.00000000               14.00000000                0.23205397               -0.09576650               -0.09807541                0.31026880                0.03312819                0.00172759               -0.01215879
               9.00000000                5.00000000               14.00000000                0.29923935               -0.09942944               -0.09259860                0.31681265                0.02062949                0.00002205               -0.01084476
              10.00000000                5.00000000               14.00000000                0.67272386               -0.10279708               -0.06839589                0.32296843                0.01416524               -0.00009817               -0.00481973
               0.00000000                6.00000000               14.00000000                0.63247750               -0.07883191               -0.08246883                0.25842585                0.00234033               -0.00038021                0.00374328
               1.00000000                6.00000000               14.00000000                0.15623918               -0.07989256               -0.07800967                0.27017289                0.01112590               -0.00306201                0.00361272
               2.00000000                6.00000000               14.00000000                0.02715243                0.00205207               -0.07825418                0.28386917                0.14883555               -0.09690919                0.00245202
               3.00000000                6.00000000               14.00000000                0.05081236               -0.00011665               -0.10771914                0.28586773                0.17019842               -0.11903682                0.01199684
               4.00000000                6.00000000               14.00000000                0.08584225               -0.09118187               -0.09971470                0.28953885                0.06809027               -0.02113604                0.00959326
               5.00000000                6.00000000               14.00000000                0.12726196               -0.09736845               -0.09657127                0.29582059                0.04697348               -0.00586351                0.00272452
               6.00000000                6.00000000               14.00000000                0.17583052               -0.09713229               -0.09713248                0.30299914                0.03253061               -0.00140589               -0.00140515
               7.00000000                6.00000000               14.00000000                0.23277630               -0.09626005               -0.09893402                0.31036790                0.02245828                0.00000573               -0.00391906
               8.00000000                6.00000000               14.00000000                0.29985075               -0.09654670               -0.09947257                0.31747455                0.01448565               -0.00004181               -0.00511504
               9.00000000                6.00000000               14.00000000                0.37961855               -0.09959226               -0.09545432                0.32416951                0.00729356               -0.00053373               -0.00490596
              10.00000000                6.00000000               14.00000000                0.71695763               -0.10201047               -0.08301971                0.33054108                0.00484376               -0.00040918               -0.00335273
               0.00000000                7.00000000               14.00000000                0.69059753               -0.08079109               -0.08383471                0.26420232                0.00214740               -0.00042878                0.00465757
               1.00000000                7.00000000               14.00000000                0.23453177               -0.08187660               -0.07979179                0.27684498                0.00842923               -0.00292086                0.00388878
               2.00000000                7.00000000               14.00000000                0.06053400               -0.01982772               -0.08109023                0.29055046                0.12664250               -0.07207054                0.00220631
               3.00000000                7.00000000               14.00000000                0.08499000               -0.01507155               -0.12023486                0.29421959                0.13770365               -0.09938752                0.02273568
               4.00000000                7.00000000               14.00000000                0.12642240               -0.08500664               -0.10191593                0.29735819                0.06808059               -0.03049959                0.00898337
               5.00000000                7.00000000               14.00000000                0.17540109               -0.09795996               -0.09589380                0.30324257                0.03994642               -0.01020018                0.00291710
               6.00000000                7.00000000               14.00000000                0.23277847               -0.09893313               -0.09625955                0.31036623                0.02245781               -0.00391948                0.00000602
               7.00000000                7.00000000               14.00000000                0.30010628               -0.09834466               -0.09834469                0.31790552                0.01185830               -0.00155225               -0.00155231
               8.00000000                7.00000000               14.00000000                0.37961209               -0.09880352               -0.09957957                0.32529832                0.00547578               -0.00080091               -0.00242149
               9.00000000                7.00000000               14.00000000                0.47459026               -0.10100673               -0.09838314                0.33229642                0.00193988               -0.00062106               -0.00286320
              10.00000000                7.00000000               14.00000000                0.76930262               -0.10258589               -0.09377656                0.33896627                0.00091008               -0.00029486               -0.00324532
               0.00000000                8.00000000               14.00000000                0.76048313               -0.08266061               -0.08413603                0.26994353                0.00173768               -0.00043320                0.00428458
               1.00000000                8.00000000               14.00000000                0.33010987               -0.08361541               -0.08273295                0.28331081                0.00528006               -0.00265639                0.00327128
               2.00000000                8.00000000               14.00000000                0.10235529               -0.04025464               -0.08576982                0.29709653                0.10127254               -0.05241421                0.00198577
               3.00000000                8.00000000               14.00000000                0.12551345               -0.03194566               -0.12357948                0.30163723                0.12615364               -0.07985052                0.01562762
               4.00000000                8.00000000               14.00000000                0.17425272               -0.08223727               -0.10183326                0.30455846                0.06984700               -0.03336930                0.00633783
               5.00000000                8.00000000               14.00000000                0.23206041               -0.09807275               -0.09576495                0.31026379                0.03312611               -0.01215993                0.00172801
               6.00000000                8.00000000               14.00000000                0.29985553               -0.09947125               -0.09654566                0.31747120                0.01448533               -0.00511500               -0.00004176
               7.00000000                8.00000000               14.00000000                0.37961474               -0.09957905               -0.09880297                0.32529662                0.00547578               -0.00242102               -0.00080112
               8.00000000                8.00000000               14.00000000                0.47419665               -0.10064941               -0.10064936                0.33307550                0.00126503               -0.00130435               -0.00130483
               9.00000000                8.00000000               14.00000000                0.58787229               -0.10268012               -0.10141110                0.34044527               -0.00013598               -0.00071575               -0.00183013
              10.00000000                8.00000000               14.00000000                0.83188559               -0.10390022               -0.10102523                0.34740186               -0.00074738               -0.00011229               -0.00263981
               0.00000000                9.00000000               14.00000000                0.84404382               -0.08464391               -0.08411068                0.27592479                0.00127465               -0.00039285                0.00248690
               1.00000000                9.00000000               14.00000000                0.44673672               -0.08569130               -0.08603817                0.28990220                0.00267064               -0.00229016                0.00182339
               2.00000000                9.00000000               14.00000000                0.15512669               -0.06033432               -0.08939677                0.30369496                0.07784845               -0.03731012                0.00118864
               3.00000000                9.00000000               14.00000000                0.17371333               -0.05589706               -0.11347365                0.30829531                0.08345095               -0.06111494                0.00853989
               4.00000000                9.00000000               14.00000000                0.23090275               -0.08449457               -0.10349247                0.31114155                0.05338923               -0.02989514                0.00248447
               5.00000000                9.00000000               14.00000000                0.29924880               -0.09259683               -0.09942694                0.31680581                0.02062809               -0.01084546                0.00002230
               6.00000000                9.00000000               14.00000000                0.37962627               -0.09545299               -0.09959058                0.32416445                0.00729343               -0.00490536               -0.00053374
               7.00000000                9.00000000               14.00000000                0.47459600               -0.09838222               -0.10100563                0.33229299                0.00193992               -0.00286213               -0.00062122
               8.00000000                9.00000000               14.00000000                0.58787538               -0.10141062               -0.10267956                0.34044352               -0.00013596               -0.00182917               -0.00071601
               9.00000000                9.00000000               14.00000000                0.72505636               -0.10420615               -0.10420613                0.34815419               -0.00052275               -0.00095257               -0.00095305
              10.00000000                9.00000000               14.00000000                0.90790564               -0.10551818               -0.10570093                0.35531699               -0.00125418                0.00000159               -0.00142798
               0.00000000               10.00000000               14.00000000                0.95179331               -0.08738111               -0.08414746                0.28270186               -0.00115346               -0.00045129                0.00108010
               1.00000000               10.00000000               14.00000000                0.76468453               -0.09160688               -0.08762138                0.29686997                0.00014702               -0.00211911                0.00107017
               2.00000000               10.00000000               14.00000000                0.59612674               -0.11662582               -0.09053242                0.31030015                0.06678444               -0.02762102                0.00104062
               3.00000000               10.00000000               14.00000000                0.60378619               -0.09833305               -0.10416165                0.31460479                0.04013459               -0.03746828                0.00650794
               4.00000000               10.00000000               14.00000000                0.63513479               -0.05970934               -0.10607921                0.31726557                0.03279460               -0.01573867                0.00181128
               5.00000000               10.00000000               14.00000000                0.67272960               -0.06839749               -0.10279393                0.32295969                0.01416305               -0.00481978               -0.00009798
               6.00000000               10.00000000               14.00000000                0.71696255               -0.08301896               -0.10200843                0.33053420                0.00484307               -0.00335131               -0.00040914
               7.00000000               10.00000000               14.00000000                0.76930650               -0.09377530               -0.10258452                0.33896104                0.00090976               -0.00324344               -0.00029489
               8.00000000               10.00000000               14.00000000                0.83188808               -0.10102420               -0.10389941                0.34739834               -0.00074764               -0.00263810               -0.00011237
               9.00000000               10.00000000               14.00000000                0.90790660               -0.10570037               -0.10551791                0.35531525               -0.00125444               -0.00142694                0.00000143
              10.00000000               10.00000000               14.00000000                0.97898063               -0.10748845               -0.10748874                0.36256157               -0.00233818               -0.00000620               -0.00000678
               0.00000000                0.00000000               15.00000000                0.74936181               -0.06482745               -0.06482713                0.21789664                0.00291441               -0.00007351               -0.00007375
               1.00000000                0.00000000               15.00000000                0.49455869               -0.06169649               -0.07006973                0.22489386                0.00654983               -0.00076115                0.00009313
               2.00000000                0.00000000               15.00000000                0.49709075               -0.06221333               -0.06975422                0.23207097                0.00173002               -0.00195960                0.00027987
               3.00000000                0.00000000               15.00000000                0.51751998               -0.06905624               -0.07233555                0.23915088                0.00212335               -0.00189311                0.00001916
               4.00000000                0.00000000               15.00000000                0.54658652               -0.07478440               -0.07450288                0.24596224                0.00211787               -0.00085431               -0.00014443
               5.00000000                0.00000000               15.00000000                0.58464331               -0.07909100               -0.07668885                0.25245054                0.00220183                0.00071639               -0.00025997
               6.00000000                0.00000000               15.00000000                0.63236034               -0.08192656               -0.07877446                0.25864049                0.00219115                0.00220231               -0.00033442
               7.00000000                0.00000000               15.00000000                0.69066789               -0.08345536               -0.08075222                0.26463548                0.00202801                0.00303173               -0.00037333
               8.00000000                0.00000000               15.00000000                0.76087650               -0.08399927               -0.08266074                0.27061564                0.00166318                0.00278637               -0.00037513
               9.00000000                0.00000000               15.00000000                0.84483111               -0.08423497               -0.08467825                0.27682329                0.00125325                0.00147833               -0.00034048
              10.00000000                0.00000000               15.00000000                0.95229248               -0.08439354               -0.08738733                0.28368839               -0.00084777                0.00044109               -0.00072018
               0.00000000                1.00000000               15.00000000                0.49455873               -0.07006944               -0.06169595                0.22489188                0.00654951                0.00009285               -0.00076135
               1.00000000                1.00000000               15.00000000                0.01000001               -0.07638674               -0.07638662                0.23191143                0.01574302                0.00010195                0.00010271
               2.00000000                1.00000000               15.00000000                0.01000000               -0.08181475               -0.05882456                0.23939311                0.04172713                0.00085678               -0.01110342
               3.00000000                1.00000000               15.00000000                0.01000001               -0.07977789               -0.04624775                0.24707085                0.04660940                0.00166921               -0.01996573
               4.00000000                1.00000000               15.00000000                0.04171735               -0.07802080               -0.07042353                0.25467889                0.01390061                0.00254522               -0.00401605
               5.00000000                1.00000000               15.00000000                0.09236071               -0.07736713               -0.07642434                0.26202300                0.01172827                0.00332580               -0.00217114
               6.00000000                1.00000000               15.00000000                0.15598445               -0.07790961               -0.07969534                0.26902114                0.01000367                0.00379226               -0.00214591
               7.00000000                1.00000000               15.00000000                0.23444923               -0.07970928               -0.08172211                0.27572103                0.00755943                0.00370767               -0.00237738
               8.00000000                1.00000000               15.00000000                0.33036354               -0.08260240               -0.08354549                0.28228954                0.00470525                0.00298377               -0.00238796
               9.00000000                1.00000000               15.00000000                0.44741422               -0.08582766               -0.08567146                0.28899525                0.00238291                0.00170585               -0.00228544
              10.00000000                1.00000000               15.00000000                0.76513848               -0.08737283               -0.09127774                0.29601739                0.00025796                0.00106971               -0.00267599
               0.00000000                2.00000000               15.00000000                0.49709131               -0.06975335               -0.06221237                0.23206701                0.00172976                0.00027989               -0.00195972
               1.00000000                2.00000000               15.00000000                0.01000000               -0.05882466               -0.08181380                0.23939110                0.04172756               -0.01110431                0.00085785
               2.00000000                2.00000000               15.00000000                0.01000001               -0.06621252               -0.06621077                0.24797178                0.11958680               -0.02163828               -0.02163644
               3.00000000                2.00000000               15.00000000                0.01000000               -0.11767017               -0.03078851                0.25486120                0.11306064                0.00705038               -0.04310266
               4.00000000                2.00000000               15.00000000                0.01000000               -0.11645536               -0.01664662                0.26705265                0.12251744                0.02066995               -0.07727252
               5.00000000                2.00000000               15.00000000                0.01000001               -0.07975845               -0.00381016                0.27412693                0.14892631                0.00545790               -0.11169229
               6.00000000                2.00000000               15.00000000                0.02686842               -0.07808033               -0.00709689                0.28103050                0.13549920                0.00335227               -0.09796418
               7.00000000                2.00000000               15.00000000                0.06025783               -0.08080231               -0.02812493                0.28778363                0.11422729                0.00280174               -0.07385505
               8.00000000                2.00000000               15.00000000                0.10214923               -0.08518713               -0.04756597                0.29445672                0.09088898                0.00240013               -0.05483103
               9.00000000                2.00000000               15.00000000                0.15503457               -0.08861063               -0.06637723                0.30119887                0.07003200                0.00147492               -0.04053265
              10.00000000                2.00000000               15.00000000                0.59611646               -0.08970841               -0.11786393                0.30794523                0.06116727                0.00115933               -0.03178084
               0.00000000                3.00000000               15.00000000                0.51752144               -0.07233409               -0.06905485                0.23914495                0.00212310                0.00001915               -0.00189326
               1.00000000                3.00000000               15.00000000                0.01000001               -0.04624600               -0.07977615                0.24706684                0.04661028               -0.01996668                0.00167000
               2.00000000                3.00000000               15.00000000                0.01000000               -0.03078767               -0.11766796                0.25485855                0.11305953               -0.04310418                0.00705332
               3.00000000                3.00000000               15.00000000                0.01000000               -0.03836294               -0.03836309                0.26569867                0.18461421               -0.06222908               -0.06222904
               4.00000000                3.00000000               15.00000000                0.01273144               -0.05103358               -0.00106641                0.24413635                0.22641605               -0.07741416               -0.12362044
               5.00000000                3.00000000               15.00000000                0.02158308               -0.08588974               -0.00035571                0.27959520                0.20572606               -0.03878478               -0.13919731
               6.00000000                3.00000000               15.00000000                0.05029793               -0.10982256               -0.01109900                0.29161390                0.15713893                0.01802416               -0.12313046
               7.00000000                3.00000000               15.00000000                0.08448220               -0.11764779               -0.02614110                0.29754360                0.12505182                0.02450654               -0.10356619
               8.00000000                3.00000000               15.00000000                0.12508230               -0.11934710               -0.04285989                0.30340706                0.11422286                0.01702527               -0.08436328
               9.00000000                3.00000000               15.00000000                0.17340964               -0.10896058               -0.06590427                0.30915637                0.07544515                0.00922435               -0.06631812
              10.00000000                3.00000000               15.00000000                0.60366907               -0.09989819               -0.10532073                0.31511812                0.03616707                0.00620908               -0.04351468
               0.00000000                4.00000000               15.00000000                0.54658936               -0.07450082               -0.07478249                0.24595433                0.00211764               -0.00014444               -0.00085458
               1.00000000                4.00000000               15.00000000                0.04172120               -0.07042216               -0.07801838                0.25467287                0.01390121               -0.00401611                0.00254573
               2.00000000                4.00000000               15.00000000                0.01000000               -0.01663670               -0.11645253                0.26704833                0.12251356               -0.07727748                0.02067171
               3.00000000                4.00000000               15.00000000                0.01273244               -0.00105414               -0.05104024                0.24412444                0.22641019               -0.12362117               -0.07741305
               4.00000000                4.00000000               15.00000000                0.02177369               -0.06211893               -0.06212157                0.27343998                0.11863990               -0.06477854               -0.06477877
               5.00000000                4.00000000               15.00000000                0.05072337               -0.09451296               -0.08349594                0.28983419                0.07619160               -0.00404706               -0.02334672
               6.00000000                4.00000000               15.00000000                0.08508896               -0.10072069               -0.09388971                0.29659161                0.06416888                0.01067723               -0.02455073
               7.00000000                4.00000000               15.00000000                0.12568483               -0.10182938               -0.08883872                0.30274657                0.06361329                0.01010742               -0.03393198
               8.00000000                4.00000000               15.00000000                0.17362483               -0.10097627               -0.08719354                0.30860286                0.06442770                0.00727165               -0.03682239
               9.00000000                4.00000000               15.00000000                0.23043621               -0.10187368               -0.09035888                0.31423216                0.04860213                0.00301412               -0.03332149
              10.00000000                4.00000000               15.00000000                0.63493565               -0.10397864               -0.06894973                0.31974001                0.02851509                0.00192269               -0.01943326
               0.00000000                5.00000000               15.00000000                0.58464789               -0.07668620               -0.07908849                0.25244068                0.00220161               -0.00025999                0.00071600
               1.00000000                5.00000000               15.00000000                0.09236704               -0.07642205               -0.07736414                0.26201497                0.01172906               -0.00217153                0.00332600
               2.00000000                5.00000000               15.00000000                0.01000001               -0.00379936               -0.07975518                0.27412066                0.14891531               -0.11169735                0.00545814
               3.00000000                5.00000000               15.00000000                0.02158542               -0.00034662               -0.08589766                0.27959083                0.20569978               -0.13920098               -0.03877682
               4.00000000                5.00000000               15.00000000                0.05072467               -0.08349647               -0.09451190                0.28983246                0.07618171               -0.02334678               -0.00404436
               5.00000000                5.00000000               15.00000000                0.08541149               -0.09807236               -0.09807229                0.29626992                0.05461077               -0.00078093               -0.00077862
               6.00000000                5.00000000               15.00000000                0.12634431               -0.09788650               -0.09918248                0.30246593                0.04410405                0.00287195               -0.00704968
               7.00000000                5.00000000               15.00000000                0.17453080               -0.09673947               -0.09989238                0.30854872                0.03728748                0.00343518               -0.01145163
               8.00000000                5.00000000               15.00000000                0.23136359               -0.09620772               -0.10027527                0.31438794                0.03062811                0.00223897               -0.01327102
               9.00000000                5.00000000               15.00000000                0.29879205               -0.09921465               -0.09566059                0.31999143                0.01881855                0.00036719               -0.01172712
              10.00000000                5.00000000               15.00000000                0.67255308               -0.10212399               -0.07437874                0.32538258                0.01234243                0.00009356               -0.00549755
               0.00000000                6.00000000               15.00000000                0.63236698               -0.07877121               -0.08192339                0.25862871                0.00219091               -0.00033444                0.00220184
               1.00000000                6.00000000               15.00000000                0.15599380               -0.07969230               -0.07790617                0.26901113                0.01000407               -0.00214637                0.00379217
               2.00000000                6.00000000               15.00000000                0.02687327               -0.00709510               -0.07807744                0.28102232                0.13548421               -0.09796442                0.00335235
               3.00000000                6.00000000               15.00000000                0.05030192               -0.01109438               -0.10982301                0.29160848                0.15710815               -0.12313282                0.01803093
               4.00000000                6.00000000               15.00000000                0.08509199               -0.09388424               -0.10071868                0.29658810                0.06415967               -0.02455551                0.01067925
               5.00000000                6.00000000               15.00000000                0.12634604               -0.09918093               -0.09788572                0.30246415                0.04410179               -0.00705174                0.00287336
               6.00000000                6.00000000               15.00000000                0.17487110               -0.09847442               -0.09847460                0.30862199                0.03040829               -0.00150981               -0.00150877
               7.00000000                6.00000000               15.00000000                0.23192444               -0.09723896               -0.10017047                0.31476951                0.02088215                0.00034078               -0.00395152
               8.00000000                6.00000000               15.00000000                0.29926285               -0.09717530               -0.10071424                0.32072279                0.01339141                0.00033745               -0.00487820
               9.00000000                6.00000000               15.00000000                0.37937760               -0.09970508               -0.09717716                0.32643898                0.00668190               -0.00027701               -0.00430491
              10.00000000                6.00000000               15.00000000                0.71691723               -0.10179395               -0.08619407                0.33193906                0.00424995               -0.00024878               -0.00230684
               0.00000000                7.00000000               15.00000000                0.69067697               -0.08074837               -0.08345145                0.26462178                0.00202774               -0.00037334                0.00303126
               1.00000000                7.00000000               15.00000000                0.23446215               -0.08171850               -0.07970545                0.27570903                0.00755937               -0.00237788                0.00370742
               2.00000000                7.00000000               15.00000000                0.06026479               -0.02812591               -0.08079920                0.28777325                0.11421124               -0.07385605                0.00280160
               3.00000000                7.00000000               15.00000000                0.08448827               -0.02614005               -0.11764375                0.29753596                0.12502886               -0.10356854                0.02450722
               4.00000000                7.00000000               15.00000000                0.12568992               -0.08883327               -0.10182720                0.30274139                0.06360501               -0.03393607                0.01010880
               5.00000000                7.00000000               15.00000000                0.17453466               -0.09988989               -0.09673829                0.30854518                0.03728491               -0.01145336                0.00343608
               6.00000000                7.00000000               15.00000000                0.23192663               -0.10016955               -0.09723841                0.31476769                0.02088161               -0.00395212                0.00034128
               7.00000000                7.00000000               15.00000000                0.29944545               -0.09915873               -0.09915875                0.32109743                0.01099317               -0.00108974               -0.00108963
               8.00000000                7.00000000               15.00000000                0.37932245               -0.09924676               -0.10025760                0.32728467                0.00507519               -0.00032205               -0.00164492
               9.00000000                7.00000000               15.00000000                0.47476268               -0.10102947               -0.09916798                0.33322633                0.00179796               -0.00033814               -0.00168331
              10.00000000                7.00000000               15.00000000                0.76949669               -0.10237396               -0.09505716                0.33893689                0.00082759               -0.00016968               -0.00158931
               0.00000000                8.00000000               15.00000000                0.76088835               -0.08265629               -0.08399463                0.27060001                0.00166287               -0.00037518                0.00278598
               1.00000000                8.00000000               15.00000000                0.33038033               -0.08354138               -0.08259814                0.28227552                0.00470492               -0.00238857                0.00298350
               2.00000000                8.00000000               15.00000000                0.10215860               -0.04756754               -0.08518345                0.29444426                0.09087396               -0.05483323                0.00240004
               3.00000000                8.00000000               15.00000000                0.12509079               -0.04286137               -0.11934035                0.30339734                0.11420261               -0.08436623                0.01702546
               4.00000000                8.00000000               15.00000000                0.17363241               -0.08718981               -0.10097352                0.30859571                0.06441963               -0.03682554                0.00727253
               5.00000000                8.00000000               15.00000000                0.23136992               -0.10027259               -0.09620608                0.31438267                0.03062599               -0.01327226                0.00223956
               6.00000000                8.00000000               15.00000000                0.29926754               -0.10071289               -0.09717420                0.32071928                0.01339102               -0.00487830                0.00033769
               7.00000000                8.00000000               15.00000000                0.37932497               -0.10025708               -0.09924617                0.32728291                0.00507516               -0.00164456               -0.00032214
               8.00000000                8.00000000               15.00000000                0.47439984               -0.10086042               -0.10086036                0.33376182                0.00119629               -0.00056595               -0.00056638
               9.00000000                8.00000000               15.00000000                0.58865318               -0.10247127               -0.10148221                0.33997848               -0.00010138               -0.00031071               -0.00075284
              10.00000000                8.00000000               15.00000000                0.83240708               -0.10348977               -0.10107912                0.34590607               -0.00062397                0.00000466               -0.00119625
               0.00000000                9.00000000               15.00000000                0.84484578               -0.08467323               -0.08422968                0.27680574                0.00125292               -0.00034056                0.00147808
               1.00000000                9.00000000               15.00000000                0.44743526               -0.08566686               -0.08582288                0.28897925                0.00238258               -0.00228601                0.00170568
               2.00000000                9.00000000               15.00000000                0.15504664               -0.06637859               -0.08860629                0.30118447                0.07001943               -0.04053587                0.00147499
               3.00000000                9.00000000               15.00000000                0.17342090               -0.06590704               -0.10895288                0.30914477                0.07543158               -0.06632213                0.00922449
               4.00000000                9.00000000               15.00000000                0.23044669               -0.09035713               -0.10186953                0.31422304                0.04859528               -0.03332414                0.00301464
               5.00000000                9.00000000               15.00000000                0.29880131               -0.09565873               -0.09921209                0.31998436                0.01881714               -0.01172773                0.00036752
               6.00000000                9.00000000               15.00000000                0.37938523               -0.09717581               -0.09970334                0.32643376                0.00668173               -0.00430436               -0.00027688
               7.00000000                9.00000000               15.00000000                0.47476813               -0.09916706               -0.10102834                0.33322282                0.00179798               -0.00168235               -0.00033820
               8.00000000                9.00000000               15.00000000                0.58865612               -0.10148173               -0.10247070                0.33997670               -0.00010137               -0.00075190               -0.00031095
               9.00000000                9.00000000               15.00000000                0.72650262               -0.10375398               -0.10375396                0.34644537               -0.00046241               -0.00037260               -0.00037310
              10.00000000                9.00000000               15.00000000                0.90876852               -0.10484759               -0.10500458                0.35253256               -0.00107335                0.00013790               -0.00066883
               0.00000000               10.00000000               15.00000000                0.95230085               -0.08738169               -0.08438795                0.28366891               -0.00084835               -0.00072031                0.00044090
               1.00000000               10.00000000               15.00000000                0.76515051               -0.09127226               -0.08736776                0.29599942                0.00025746               -0.00267658                0.00106959
               2.00000000               10.00000000               15.00000000                0.59612346               -0.11785922               -0.08970375                0.30792892                0.06115668               -0.03178495                0.00115934
               3.00000000               10.00000000               15.00000000                0.60367573               -0.10532276               -0.09989049                0.31510465                0.03615993               -0.04352067                0.00620879
               4.00000000               10.00000000               15.00000000                0.63494193               -0.06895526               -0.10397344                0.31972900                0.02850870               -0.01943607                0.00192288
               5.00000000               10.00000000               15.00000000                0.67255872               -0.07438005               -0.10212079                0.32537365                0.01234033               -0.00549742                0.00009373
               6.00000000               10.00000000               15.00000000                0.71692207               -0.08619330               -0.10179183                0.33193201                0.00424925               -0.00230538               -0.00024866
               7.00000000               10.00000000               15.00000000                0.76950037               -0.09505593               -0.10237255                0.33893158                0.00082724               -0.00158751               -0.00016967
               8.00000000               10.00000000               15.00000000                0.83240946               -0.10107811               -0.10348895                0.34590249               -0.00062424               -0.00119451                0.00000458
               9.00000000               10.00000000               15.00000000                0.90876946               -0.10500403               -0.10484731                0.35253076               -0.00107362               -0.00066773                0.00013774
              10.00000000               10.00000000               15.00000000                0.97947898               -0.10651657               -0.10651687                0.35868453               -0.00199574                0.00015100                0.00015038
               0.00000000                0.00000000               16.00000000                0.74939220               -0.06493199               -0.06493167                0.21794791                0.00285124               -0.00003801               -0.00003824
               1.00000000                0.00000000               16.00000000                0.49459632               -0.06200954               -0.06996936                0.22491666                0.00612345               -0.00065927                0.00014481
               2.00000000                0.00000000               16.00000000                0.49708864               -0.06246121               -0.06983406                0.23201113                0.00161156               -0.00199172                0.00037154
               3.00000000                0.00000000               16.00000000                0.51747209               -0.06884825               -0.07235116                0.23904427                0.00195318               -0.00222577                0.00009564
               4.00000000                0.00000000               16.00000000                0.54648948               -0.07430064               -0.07449005                0.24588626                0.00194860               -0.00154411               -0.00008508
               5.00000000                0.00000000               16.00000000                0.58452675               -0.07849990               -0.07665368                0.25248104                0.00203521               -0.00030091               -0.00021059
               6.00000000                0.00000000               16.00000000                0.63229231               -0.08137313               -0.07873546                0.25883802                0.00203977                0.00094877               -0.00028394
               7.00000000                0.00000000               16.00000000                0.69074569               -0.08305726               -0.08073015                0.26504110                0.00190622                0.00169054               -0.00031490
               8.00000000                0.00000000               16.00000000                0.76119894               -0.08384445               -0.08267310                0.27124619                0.00158736                0.00155899               -0.00031487
               9.00000000                0.00000000               16.00000000                0.84544240               -0.08433836               -0.08471798                0.27765680                0.00123089                0.00066900               -0.00028330
              10.00000000                0.00000000               16.00000000                0.95267273               -0.08461577               -0.08739428                0.28459537               -0.00057939               -0.00004922               -0.00089723
               0.00000000                1.00000000               16.00000000                0.49459633               -0.06996908               -0.06200901                0.22491473                0.00612314                0.00014453               -0.00065946
               1.00000000                1.00000000               16.00000000                0.01000001               -0.07589140               -0.07589129                0.23189544                0.01456831                0.00036786                0.00036860
               2.00000000                1.00000000               16.00000000                0.01000000               -0.08106967               -0.05964033                0.23917024                0.03886306                0.00153389               -0.01052823
               3.00000000                1.00000000               16.00000000                0.01000001               -0.07931056               -0.04817904                0.24657826                0.04297797                0.00248483               -0.01955139
               4.00000000                1.00000000               16.00000000                0.04158027               -0.07777413               -0.07070310                0.25393997                0.01214077                0.00323206               -0.00249020
               5.00000000                1.00000000               16.00000000                0.09217760               -0.07726726               -0.07640285                0.26111621                0.01030295                0.00370964               -0.00103170
               6.00000000                1.00000000               16.00000000                0.15582711               -0.07789527               -0.07953535                0.26804638                0.00886149                0.00382981               -0.00138112
               7.00000000                1.00000000               16.00000000                0.23442753               -0.07970960               -0.08158763                0.27477205                0.00669955                0.00349134               -0.00187222
               8.00000000                1.00000000               16.00000000                0.33059405               -0.08253982               -0.08348014                0.28142974                0.00415581                0.00271781               -0.00207962
               9.00000000                1.00000000               16.00000000                0.44794644               -0.08567065               -0.08564457                0.28822727                0.00211195                0.00159624               -0.00217143
              10.00000000                1.00000000               16.00000000                0.76548250               -0.08717211               -0.09094113                0.29528945                0.00032674                0.00105443               -0.00298038
               0.00000000                2.00000000               16.00000000                0.49708921               -0.06983321               -0.06246026                0.23200726                0.00161130                0.00037155               -0.00199183
               1.00000000                2.00000000               16.00000000                0.01000000               -0.05964045               -0.08106877                0.23916828                0.03886352               -0.01052909                0.00153491
               2.00000000                2.00000000               16.00000000                0.01000001               -0.06722139               -0.06721965                0.24731253                0.11132635               -0.02060295               -0.02060170
               3.00000000                2.00000000               16.00000000                0.01000000               -0.11587182               -0.03217372                0.25523417                0.10737495                0.00806528               -0.04616495
               4.00000000                2.00000000               16.00000000                0.01000000               -0.11420997               -0.02376092                0.26462909                0.11134181                0.02354367               -0.08014675
               5.00000000                2.00000000               16.00000000                0.01000001               -0.07951811               -0.01165357                0.27168762                0.13420842                0.00648130               -0.10864121
               6.00000000                2.00000000               16.00000000                0.02667963               -0.07804570               -0.01550391                0.27856868                0.12205173                0.00404031               -0.09513731
               7.00000000                2.00000000               16.00000000                0.06007763               -0.08065954               -0.03547036                0.28537697                0.10224968                0.00327649               -0.07239293
               8.00000000                2.00000000               16.00000000                0.10202121               -0.08475570               -0.05376217                0.29214818                0.08101276                0.00274402               -0.05455445
               9.00000000                2.00000000               16.00000000                0.15498171               -0.08798287               -0.07124241                0.29899426                0.06254985                0.00170765               -0.04136746
              10.00000000                2.00000000               16.00000000                0.59611137               -0.08904687               -0.11795449                0.30585607                0.05546795                0.00123480               -0.03360748
               0.00000000                3.00000000               16.00000000                0.51747351               -0.07234973               -0.06884687                0.23903846                0.00195293                0.00009562               -0.00222590
               1.00000000                3.00000000               16.00000000                0.01000001               -0.04817723               -0.07930890                0.24657432                0.04297892               -0.01955283                0.00248555
               2.00000000                3.00000000               16.00000000                0.01000000               -0.03217343               -0.11586989                0.25523162                0.10737454               -0.04616703                0.00806787
               3.00000000                3.00000000               16.00000000                0.01000000               -0.04462069               -0.04462088                0.26072971                0.16783627               -0.06431503               -0.06431724
               4.00000000                3.00000000               16.00000000                0.01248928               -0.06020020               -0.01035696                0.27196933                0.20482740               -0.07939599               -0.13258654
               5.00000000                3.00000000               16.00000000                0.02126141               -0.08722227               -0.01000495                0.28850966                0.18887135               -0.03312007               -0.13551208
               6.00000000                3.00000000               16.00000000                0.04993111               -0.10765677               -0.02080120                0.29496393                0.14240123                0.01943595               -0.12144639
               7.00000000                3.00000000               16.00000000                0.08411925               -0.11472867               -0.03558974                0.29950253                0.11261430                0.02501479               -0.10276156
               8.00000000                3.00000000               16.00000000                0.12477472               -0.11543885               -0.05185018                0.30431118                0.10262036                0.01748976               -0.08453354
               9.00000000                3.00000000               16.00000000                0.17319076               -0.10517716               -0.07372496                0.30944805                0.06768328                0.00944730               -0.06763798
              10.00000000                3.00000000               16.00000000                0.60358298               -0.09656380               -0.10999015                0.31519928                0.03232195                0.00577488               -0.04618692
               0.00000000                4.00000000               16.00000000                0.54649222               -0.07448803               -0.07429874                0.24587852                0.00194836               -0.00008509               -0.00154436
               1.00000000                4.00000000               16.00000000                0.04158409               -0.07070172               -0.07777181                0.25393405                0.01214129               -0.00249012                0.00323251
               2.00000000                4.00000000               16.00000000                0.01000000               -0.02375199               -0.11420751                0.26462489                0.11133799               -0.08015351                0.02354575
               3.00000000                4.00000000               16.00000000                0.01249027               -0.01034537               -0.06020733                0.27196550                0.20482307               -0.13259171               -0.07939700
               4.00000000                4.00000000               16.00000000                0.02139242               -0.06520749               -0.06521094                0.28723955                0.11121647               -0.05885877               -0.05885938
               5.00000000                4.00000000               16.00000000                0.05022587               -0.09534627               -0.08585845                0.29577334                0.07246683               -0.00214823               -0.02362871
               6.00000000                4.00000000               16.00000000                0.08452619               -0.10085666               -0.09562373                0.30127070                0.05987350                0.01102873               -0.02604861
               7.00000000                4.00000000               16.00000000                0.12512567               -0.10138173               -0.09154663                0.30633571                0.05876025                0.01051673               -0.03520331
               8.00000000                4.00000000               16.00000000                0.17313820               -0.10007629               -0.09084165                0.31129747                0.05883536                0.00769343               -0.03798601
               9.00000000                4.00000000               16.00000000                0.23005586               -0.10044462               -0.09466017                0.31628970                0.04386276                0.00330903               -0.03455374
              10.00000000                4.00000000               16.00000000                0.63476754               -0.10216652               -0.07634116                0.32140667                0.02463195                0.00193764               -0.02128391
               0.00000000                5.00000000               16.00000000                0.58453132               -0.07665105               -0.07849739                0.25247133                0.00203497               -0.00021061               -0.00030122
               1.00000000                5.00000000               16.00000000                0.09218390               -0.07640057               -0.07726437                0.26110827                0.01030366               -0.00103194                0.00370980
               2.00000000                5.00000000               16.00000000                0.01000001               -0.01164279               -0.07951501                0.27168143                0.13419785               -0.10864661                0.00648114
               3.00000000                5.00000000               16.00000000                0.02126373               -0.00999571               -0.08722964                0.28850489                0.18884742               -0.13551551               -0.03311066
               4.00000000                5.00000000               16.00000000                0.05022720               -0.08585880               -0.09534570                0.29577154                0.07245795               -0.02362827               -0.00214525
               5.00000000                5.00000000               16.00000000                0.08477183               -0.09902943               -0.09902939                0.30156861                0.05105976               -0.00124210               -0.00123948
               6.00000000                5.00000000               16.00000000                0.12563266               -0.09856138               -0.10018965                0.30697340                0.04098104                0.00279219               -0.00773912
               7.00000000                5.00000000               16.00000000                0.17384036               -0.09719649               -0.10103649                0.31217660                0.03442245                0.00361250               -0.01202257
               8.00000000                5.00000000               16.00000000                0.23078809               -0.09644455               -0.10167568                0.31723321                0.02803173                0.00250587               -0.01365251
               9.00000000                5.00000000               16.00000000                0.29837415               -0.09894711               -0.09787520                0.32220759                0.01701703                0.00060594               -0.01196183
              10.00000000                5.00000000               16.00000000                0.67237671               -0.10147252               -0.07933135                0.32709722                0.01066139                0.00023234               -0.00575952
               0.00000000                6.00000000               16.00000000                0.63229895               -0.07873224               -0.08136995                0.25882639                0.00203954               -0.00028396                0.00094840
               1.00000000                6.00000000               16.00000000                0.15583636               -0.07953235               -0.07789192                0.26803648                0.00886183               -0.00138156                0.00382970
               2.00000000                6.00000000               16.00000000                0.02668442               -0.01550150               -0.07804291                0.27856060                0.12203770               -0.09513710                0.00404006
               3.00000000                6.00000000               16.00000000                0.04993506               -0.02079606               -0.10765677                0.29495791                0.14237219               -0.12144839                0.01944312
               4.00000000                6.00000000               16.00000000                0.08452917               -0.09561839               -0.10085460                0.30126692                0.05986453               -0.02605347                0.01103073
               5.00000000                6.00000000               16.00000000                0.12563432               -0.10018811               -0.09856059                0.30697153                0.04097886               -0.00774131                0.00279376
               6.00000000                6.00000000               16.00000000                0.17410336               -0.09924276               -0.09924295                0.31247821                0.02811680               -0.00163936               -0.00163830
               7.00000000                6.00000000               16.00000000                0.23122062               -0.09784700               -0.10088451                0.31782161                0.01921260                0.00048985               -0.00393306
               8.00000000                6.00000000               16.00000000                0.29874241               -0.09758968               -0.10148182                0.32300238                0.01224988                0.00056926               -0.00461871
               9.00000000                6.00000000               16.00000000                0.37909456               -0.09972986               -0.09844700                0.32805209                0.00605920               -0.00008079               -0.00378223
              10.00000000                6.00000000               16.00000000                0.71682879               -0.10154985               -0.08886068                0.33296295                0.00367136               -0.00011762               -0.00151290
               0.00000000                7.00000000               16.00000000                0.69075464               -0.08072635               -0.08305339                0.26502759                0.00190596               -0.00031493                0.00169014
               1.00000000                7.00000000               16.00000000                0.23444031               -0.08158407               -0.07970586                0.27476021                0.00669948               -0.00187278                0.00349104
               2.00000000                7.00000000               16.00000000                0.06008446               -0.03547050               -0.08065649                0.28536670                0.10223483               -0.07239366                0.00327625
               3.00000000                7.00000000               16.00000000                0.08412523               -0.03558790               -0.11472466                0.29949446                0.11259265               -0.10276333                0.02501519
               4.00000000                7.00000000               16.00000000                0.12513075               -0.09154124               -0.10137940                0.30632997                0.05875207               -0.03520709                0.01051813
               5.00000000                7.00000000               16.00000000                0.17384414               -0.10103401               -0.09719525                0.31217287                0.03441985               -0.01202445                0.00361359
               6.00000000                7.00000000               16.00000000                0.23122270               -0.10088359               -0.09784645                0.31781976                0.01921205               -0.00393373                0.00049049
               7.00000000                7.00000000               16.00000000                0.29887560               -0.09966148               -0.09966150                0.32333673                0.01008043               -0.00079647               -0.00079632
               8.00000000                7.00000000               16.00000000                0.37903207               -0.09953651               -0.10069305                0.32869853                0.00464392                0.00000448               -0.00110174
               9.00000000                7.00000000               16.00000000                0.47481408               -0.10101858               -0.09976684                0.33390542                0.00163925               -0.00011967               -0.00084148
              10.00000000                7.00000000               16.00000000                0.76960149               -0.10218204               -0.09618177                0.33895240                0.00070910               -0.00006529               -0.00040072
               0.00000000                8.00000000               16.00000000                0.76121051               -0.08266873               -0.08383988                0.27123081                0.00158706               -0.00031491                0.00155868
               1.00000000                8.00000000               16.00000000                0.33061068               -0.08347609               -0.08253566                0.28141597                0.00415550               -0.00208016                0.00271749
               2.00000000                8.00000000               16.00000000                0.10203049               -0.05376288               -0.08475212                0.29213601                0.08099893               -0.05455622                0.00274387
               3.00000000                8.00000000               16.00000000                0.12478306               -0.05185064               -0.11543248                0.30430124                0.10260134               -0.08453593                0.01748990
               4.00000000                8.00000000               16.00000000                0.17314562               -0.09083778               -0.10007350                0.31129002                0.05882748               -0.03798880                0.00769426
               5.00000000                8.00000000               16.00000000                0.23079435               -0.10167296               -0.09644283                0.31722770                0.02802952               -0.01365369                0.00250659
               6.00000000                8.00000000               16.00000000                0.29874707               -0.10148044               -0.09758854                0.32299871                0.01224944               -0.00461886                0.00056970
               7.00000000                8.00000000               16.00000000                0.37903456               -0.10069251               -0.09953591                0.32869675                0.00464390               -0.00110146                0.00000453
               8.00000000                8.00000000               16.00000000                0.47450938               -0.10099884               -0.10099879                0.33426720                0.00110397               -0.00004563               -0.00004595
               9.00000000                8.00000000               16.00000000                0.58922874               -0.10231469               -0.10155902                0.33966707               -0.00008172               -0.00000699                0.00001651
              10.00000000                8.00000000               16.00000000                0.83280244               -0.10318519               -0.10121351                0.34487098               -0.00055203                0.00009534               -0.00014546
               0.00000000                9.00000000               16.00000000                0.84545695               -0.08471304               -0.08433315                0.27763951                0.00123056               -0.00028337                0.00066886
               1.00000000                9.00000000               16.00000000                0.44796721               -0.08564003               -0.08566596                0.28821153                0.00211164               -0.00217195                0.00159607
               2.00000000                9.00000000               16.00000000                0.15499366               -0.07124292               -0.08797864                0.29898013                0.06253827               -0.04137011                0.00170757
               3.00000000                9.00000000               16.00000000                0.17320185               -0.07372656               -0.10517003                0.30943632                0.06767059               -0.06764128                0.00944741
               4.00000000                9.00000000               16.00000000                0.23006610               -0.09465803               -0.10044059                0.31628045                0.04385626               -0.03455602                0.00330955
               5.00000000                9.00000000               16.00000000                0.29838328               -0.09787325               -0.09894452                0.32220035                0.01701559               -0.01196232                0.00060633
               6.00000000                9.00000000               16.00000000                0.37910205               -0.09844561               -0.09972805                0.32804667                0.00605898               -0.00378170               -0.00008058
               7.00000000                9.00000000               16.00000000                0.47481947               -0.09976592               -0.10101742                0.33390187                0.00163924               -0.00084057               -0.00011965
               8.00000000                9.00000000               16.00000000                0.58923165               -0.10155856               -0.10231410                0.33966527               -0.00008171                0.00001735               -0.00000715
               9.00000000                9.00000000               16.00000000                0.72766339               -0.10344302               -0.10344299                0.34524313               -0.00041093                0.00005604                0.00005561
              10.00000000                9.00000000               16.00000000                0.90947978               -0.10437426               -0.10454191                0.35056621               -0.00094423                0.00023428               -0.00010000
               0.00000000               10.00000000               16.00000000                0.95268096               -0.08738872               -0.08461026                0.28457612               -0.00057997               -0.00089733               -0.00004931
               1.00000000               10.00000000               16.00000000                0.76549433               -0.09093571               -0.08716711                0.29527174                0.00032626               -0.00298089                0.00105431
               2.00000000               10.00000000               16.00000000                0.59611829               -0.11794932               -0.08904231                0.30584002                0.05545805               -0.03361092                0.00123471
               3.00000000               10.00000000               16.00000000                0.60358951               -0.10999094               -0.09655674                0.31518573                0.03231528               -0.04619208                0.00577463
               4.00000000               10.00000000               16.00000000                0.63477364               -0.07634570               -0.10216154                0.32139558                0.02462608               -0.02128634                0.00193784
               5.00000000               10.00000000               16.00000000                0.67238225               -0.07933236               -0.10146934                0.32708819                0.01065941               -0.00575930                0.00023256
               6.00000000               10.00000000               16.00000000                0.71683351               -0.08885986               -0.10154767                0.33295572                0.00367065               -0.00151146               -0.00011749
               7.00000000               10.00000000               16.00000000                0.76960513               -0.09618056               -0.10218061                0.33894703                0.00070872               -0.00039892               -0.00006523
               8.00000000               10.00000000               16.00000000                0.83280481               -0.10121252               -0.10318434                0.34486734               -0.00055232               -0.00014380                0.00009530
               9.00000000               10.00000000               16.00000000                0.90948064               -0.10454135               -0.10437396                0.35056435               -0.00094452               -0.00009896                0.00023413
              10.00000000               10.00000000               16.00000000                0.97990300               -0.10583833               -0.10583864                0.35593876               -0.00175285                0.00026041                0.00025982
               0.00000000                0.00000000               17.00000000                0.74941307               -0.06504252               -0.06504222                0.21795160                0.00278772               -0.00001625               -0.00001646
               1.00000000                0.00000000               17.00000000                0.49461908               -0.06239237               -0.06984642                0.22490675                0.00565438               -0.00059032                0.00017401
               2.00000000                0.00000000               17.00000000                0.49708332               -0.06284041               -0.06991270                0.23194808                0.00150386               -0.00199882                0.00042638
               3.00000000                0.00000000               17.00000000                0.51743672               -0.06875469               -0.07237162                0.23895320                0.00179587               -0.00244628                0.00015017
               4.00000000                0.00000000               17.00000000                0.54642254               -0.07389791               -0.07448888                0.24582540                0.00179126               -0.00204400               -0.00003552
               5.00000000                0.00000000               17.00000000                0.58444998               -0.07795536               -0.07663376                0.25251275                0.00187727               -0.00107790               -0.00016324
               6.00000000                0.00000000               17.00000000                0.63225524               -0.08084067               -0.07871263                0.25901774                0.00189400               -0.00003922               -0.00023324
               7.00000000                0.00000000               17.00000000                0.69081943               -0.08266407               -0.08072231                0.26540799                0.00178790                0.00062053               -0.00025756
               8.00000000                0.00000000               17.00000000                0.76145347               -0.08368113               -0.08269468                0.27181322                0.00151356                0.00058672               -0.00025573
               9.00000000                0.00000000               17.00000000                0.84590508               -0.08441880               -0.08476049                0.27839844                0.00120867                0.00004181               -0.00022491
              10.00000000                0.00000000               17.00000000                0.95295570               -0.08480778               -0.08740117                0.28539580               -0.00035271               -0.00041051               -0.00099764
               0.00000000                1.00000000               17.00000000                0.49461914               -0.06984613               -0.06239184                0.22490485                0.00565407                0.00017373               -0.00059048
               1.00000000                1.00000000               17.00000000                0.01000001               -0.07533213               -0.07533203                0.23186325                0.01325863                0.00052350                0.00052421
               2.00000000                1.00000000               17.00000000                0.01000000               -0.08024150               -0.06073363                0.23898429                0.03544996                0.00192366               -0.00997212
               3.00000000                1.00000000               17.00000000                0.01000001               -0.07881190               -0.05023243                0.24618249                0.03882962                0.00294842               -0.01872335
               4.00000000                1.00000000               17.00000000                0.04148824               -0.07754805               -0.07116279                0.25334509                0.01037467                0.00359733               -0.00129585
               5.00000000                1.00000000               17.00000000                0.09205802               -0.07722218               -0.07642895                0.26038194                0.00890470                0.00386041               -0.00016932
               6.00000000                1.00000000               17.00000000                0.15573185               -0.07794946               -0.07941523                0.26725557                0.00774700                0.00374258               -0.00076376
               7.00000000                1.00000000               17.00000000                0.23443599               -0.07977618               -0.08148029                0.27400389                0.00587546                0.00324378               -0.00141694
               8.00000000                1.00000000               17.00000000                0.33078667               -0.08253431               -0.08342721                0.28073504                0.00364169                0.00246686               -0.00175329
               9.00000000                1.00000000               17.00000000                0.44834883               -0.08556304               -0.08561895                0.28760307                0.00186098                0.00148902               -0.00198033
              10.00000000                1.00000000               17.00000000                0.76573496               -0.08701808               -0.09061344                0.29469260                0.00035654                0.00102446               -0.00308217
               0.00000000                2.00000000               17.00000000                0.49708392               -0.06991186               -0.06283946                0.23194427                0.00150359                0.00042639               -0.00199890
               1.00000000                2.00000000               17.00000000                0.01000000               -0.06073373               -0.08024064                0.23898233                0.03545042               -0.00997294                0.00192463
               2.00000000                2.00000000               17.00000000                0.01000001               -0.06836025               -0.06835868                0.24735914                0.10218065               -0.01990760               -0.01990653
               3.00000000                2.00000000               17.00000000                0.01000000               -0.11336335               -0.03660832                0.25582755                0.09794017                0.00921889               -0.04512976
               4.00000000                2.00000000               17.00000000                0.01000000               -0.11138072               -0.02951851                0.26289162                0.10014061                0.02491250               -0.07556304
               5.00000000                2.00000000               17.00000000                0.01000001               -0.07930619               -0.01906975                0.26966953                0.12058138                0.00707650               -0.10165079
               6.00000000                2.00000000               17.00000000                0.02655338               -0.07811897               -0.02312867                0.27651830                0.10918638                0.00450776               -0.08951879
               7.00000000                2.00000000               17.00000000                0.05995821               -0.08063837               -0.04187867                0.28336256                0.09097159                0.00361643               -0.06857564
               8.00000000                2.00000000               17.00000000                0.10193804               -0.08446050               -0.05893800                0.29020301                0.07182116                0.00299725               -0.05224442
               9.00000000                2.00000000               17.00000000                0.15494462               -0.08750455               -0.07507979                0.29712008                0.05554668                0.00187563               -0.04034068
              10.00000000                2.00000000               17.00000000                0.59610407               -0.08853965               -0.11718819                0.30407362                0.04987481                0.00126980               -0.03356919
               0.00000000                3.00000000               17.00000000                0.51743818               -0.07237019               -0.06875329                0.23894746                0.00179562                0.00015016               -0.00244637
               1.00000000                3.00000000               17.00000000                0.01000001               -0.05023071               -0.07881031                0.24617856                0.03883049               -0.01872477                0.00294911
               2.00000000                3.00000000               17.00000000                0.01000000               -0.03660808               -0.11336175                0.25582556                0.09793991               -0.04513183                0.00922094
               3.00000000                3.00000000               17.00000000                0.01000000               -0.04995766               -0.04995788                0.26567923                0.15313087               -0.06288618               -0.06288913
               4.00000000                3.00000000               17.00000000                0.01232203               -0.06446523               -0.01851925                0.28025585                0.18623485               -0.07148135               -0.12478835
               5.00000000                3.00000000               17.00000000                0.02103531               -0.08795796               -0.01862859                0.29235866                0.17113990               -0.02845374               -0.12878107
               6.00000000                3.00000000               17.00000000                0.04966985               -0.10592792               -0.02925668                0.29692898                0.12819980                0.01930115               -0.11567502
               7.00000000                3.00000000               17.00000000                0.08385811               -0.11189788               -0.04354342                0.30047000                0.10073028                0.02454598               -0.09827327
               8.00000000                3.00000000               17.00000000                0.12455006               -0.11191206               -0.05912628                0.30460688                0.09160323                0.01724486               -0.08141877
               9.00000000                3.00000000               17.00000000                0.17302344               -0.10208128               -0.07966269                0.30935964                0.06033410                0.00930220               -0.06594959
              10.00000000                3.00000000               17.00000000                0.60351380               -0.09405421               -0.11277113                0.31500405                0.02867767                0.00525997               -0.04616863
               0.00000000                4.00000000               17.00000000                0.54642533               -0.07448688               -0.07389600                0.24581778                0.00179103               -0.00003554               -0.00204420
               1.00000000                4.00000000               17.00000000                0.04149198               -0.07116140               -0.07754583                0.25333924                0.01037498               -0.00129602                0.00359772
               2.00000000                4.00000000               17.00000000                0.01000000               -0.02951010               -0.11137857                0.26288743                0.10013716               -0.07556959                0.02491431
               3.00000000                4.00000000               17.00000000                0.01232302               -0.01850802               -0.06447209                0.28025405                0.18623108               -0.12479250               -0.07148268
               4.00000000                4.00000000               17.00000000                0.02112164               -0.06847924               -0.06848297                0.29336780                0.10305808               -0.05487578               -0.05487687
               5.00000000                4.00000000               17.00000000                0.04986461               -0.09571692               -0.08733146                0.29958083                0.06734332               -0.00170510               -0.02361850
               6.00000000                4.00000000               17.00000000                0.08410964               -0.10057848               -0.09657615                0.30416489                0.05517015                0.01081964               -0.02607606
               7.00000000                4.00000000               17.00000000                0.12470358               -0.10071173               -0.09335351                0.30853813                0.05373470                0.01043353               -0.03475967
               8.00000000                4.00000000               17.00000000                0.17275935               -0.09918070               -0.09340620                0.31294476                0.05326777                0.00773399               -0.03735729
               9.00000000                4.00000000               17.00000000                0.22974185               -0.09921505               -0.09765632                0.31754837                0.03930125                0.00341444               -0.03406406
              10.00000000                4.00000000               17.00000000                0.63462380               -0.10064229               -0.08210993                0.32245099                0.02117206                0.00187930               -0.02165605
               0.00000000                5.00000000               17.00000000                0.58445437               -0.07663118               -0.07795287                0.25250323                0.00187703               -0.00016324               -0.00107820
               1.00000000                5.00000000               17.00000000                0.09206426               -0.07642671               -0.07721941                0.26037414                0.00890520               -0.00016973                0.00386048
               2.00000000                5.00000000               17.00000000                0.01000001               -0.01905927               -0.07930318                0.26966318                0.12057152               -0.10165626                0.00707651
               3.00000000                5.00000000               17.00000000                0.02103761               -0.01861930               -0.08796495                0.29235406                0.17111800               -0.12878441               -0.02844458
               4.00000000                5.00000000               17.00000000                0.04986594               -0.08733143               -0.09571645                0.29957848                0.06733491               -0.02361776               -0.00170213
               5.00000000                5.00000000               17.00000000                0.08429459               -0.09938333               -0.09938332                0.30491602                0.04714503               -0.00159055               -0.00158798
               6.00000000                5.00000000               17.00000000                0.12508898               -0.09877306               -0.10058283                0.30981245                0.03768348                0.00260570               -0.00795735
               7.00000000                5.00000000               17.00000000                0.17329897               -0.09735230               -0.10156631                0.31447952                0.03147263                0.00358777               -0.01200205
               8.00000000                5.00000000               17.00000000                0.23031676               -0.09652311               -0.10243642                0.31905692                0.02543244                0.00260507               -0.01342466
               9.00000000                5.00000000               17.00000000                0.29800015               -0.09865128               -0.09938659                0.32364772                0.01527485                0.00076041               -0.01166304
              10.00000000                5.00000000               17.00000000                0.67220923               -0.10086091               -0.08336164                0.32824612                0.00914141                0.00032541               -0.00566861
               0.00000000                6.00000000               17.00000000                0.63226179               -0.07870945               -0.08083751                0.25900629                0.00189375               -0.00023325               -0.00003953
               1.00000000                6.00000000               17.00000000                0.15574117               -0.07941225               -0.07794621                0.26724580                0.00774728               -0.00076411                0.00374243
               2.00000000                6.00000000               17.00000000                0.02655811               -0.02312570               -0.07811618                0.27650986                0.10917338               -0.08951857                0.00450752
               3.00000000                6.00000000               17.00000000                0.04967373               -0.02925114               -0.10592773                0.29692258                0.12817280               -0.11567685                0.01930832
               4.00000000                6.00000000               17.00000000                0.08411256               -0.09657100               -0.10057642                0.30416090                0.05516150               -0.02608055                0.01082165
               5.00000000                6.00000000               17.00000000                0.12509062               -0.10058133               -0.09877229                0.30981061                0.03768139               -0.00795949                0.00260730
               6.00000000                6.00000000               17.00000000                0.17350023               -0.09956391               -0.09956411                0.31493559                0.02575381               -0.00170997               -0.00170879
               7.00000000                6.00000000               17.00000000                0.23064939               -0.09815880               -0.10118637                0.31978714                0.01751829                0.00054736               -0.00381677
               8.00000000                6.00000000               17.00000000                0.29829274               -0.09782882               -0.10186865                0.32448885                0.01110855                0.00070735               -0.00429892
               9.00000000                6.00000000               17.00000000                0.37880255               -0.09968661               -0.09933611                0.32912199                0.00544956                0.00006726               -0.00329033
              10.00000000                6.00000000               17.00000000                0.71671801               -0.10129199               -0.09106477                0.33367309                0.00312525               -0.00001494               -0.00089369
               0.00000000                7.00000000               17.00000000                0.69082833               -0.08071855               -0.08266021                0.26539464                0.00178764               -0.00025758                0.00062026
               1.00000000                7.00000000               17.00000000                0.23444856               -0.08147677               -0.07977252                0.27399218                0.00587539               -0.00141752                0.00324351
               2.00000000                7.00000000               17.00000000                0.05996497               -0.04187810               -0.08063539                0.28335244                0.09095794               -0.06857618                0.00361596
               3.00000000                7.00000000               17.00000000                0.08386397               -0.04354090               -0.11189396                0.30046185                0.10070994               -0.09827486                0.02454634
               4.00000000                7.00000000               17.00000000                0.12470858               -0.09334817               -0.10070938                0.30853206                0.05372667               -0.03476318                0.01043501
               5.00000000                7.00000000               17.00000000                0.17330264               -0.10156384               -0.09735108                0.31447568                0.03147010               -0.01200368                0.00358886
               6.00000000                7.00000000               17.00000000                0.23065142               -0.10118546               -0.09815830                0.31978538                0.01751779               -0.00381743                0.00054803
               7.00000000                7.00000000               17.00000000                0.29839232               -0.09991231               -0.09991236                0.32479457                0.00916290               -0.00059364               -0.00059338
               8.00000000                7.00000000               17.00000000                0.37875156               -0.09969782               -0.10092891                0.32963070                0.00420859                0.00022721               -0.00071045
               9.00000000                7.00000000               17.00000000                0.47478321               -0.10097906               -0.10020342                0.33436410                0.00147727                0.00004580               -0.00024291
              10.00000000                7.00000000               17.00000000                0.76964510               -0.10200812               -0.09714995                0.33899028                0.00057089                0.00001801                0.00043381
               0.00000000                8.00000000               17.00000000                0.76146509               -0.08269036               -0.08367660                0.27179802                0.00151327               -0.00025577                0.00058650
               1.00000000                8.00000000               17.00000000                0.33080307               -0.08342320               -0.08253021                0.28072145                0.00364140               -0.00175390                0.00246654
               2.00000000                8.00000000               17.00000000                0.10194716               -0.05893796               -0.08445700                0.29019102                0.07180846               -0.05224598                0.00299705
               3.00000000                8.00000000               17.00000000                0.12455826               -0.05912588               -0.11190608                0.30459693                0.09158545               -0.08142068                0.01724488
               4.00000000                8.00000000               17.00000000                0.17276678               -0.09340218               -0.09917790                0.31293695                0.05326013               -0.03735974                0.00773502
               5.00000000                8.00000000               17.00000000                0.23032284               -0.10243367               -0.09652137                0.31905124                0.02543018               -0.01342583                0.00260590
               6.00000000                8.00000000               17.00000000                0.29829723               -0.10186727               -0.09782770                0.32448521                0.01110810               -0.00429905                0.00070780
               7.00000000                8.00000000               17.00000000                0.37875402               -0.10092837               -0.09969724                0.32962890                0.00420858               -0.00071018                0.00022734
               8.00000000                8.00000000               17.00000000                0.47454279               -0.10107321               -0.10107316                0.33460554                0.00100289                0.00031345                0.00031317
               9.00000000                8.00000000               17.00000000                0.58963466               -0.10219728               -0.10163246                0.33946558               -0.00007005                0.00021325                0.00054851
              10.00000000                8.00000000               17.00000000                0.83309593               -0.10296517               -0.10139732                0.34419865               -0.00051827                0.00016240                0.00059360
               0.00000000                9.00000000               17.00000000                0.84591935               -0.08475562               -0.08441365                0.27838137                0.00120835               -0.00022498                0.00004167
               1.00000000                9.00000000               17.00000000                0.44836935               -0.08561446               -0.08555842                0.28758758                0.00186070               -0.00198084                0.00148878
               2.00000000                9.00000000               17.00000000                0.15495640               -0.07507958               -0.08750042                0.29710622                0.05553602               -0.04034301                0.00187558
               3.00000000                9.00000000               17.00000000                0.17303435               -0.07966327               -0.10207468                0.30934786                0.06032228               -0.06595229                0.00930226
               4.00000000                9.00000000               17.00000000                0.22975200               -0.09765384               -0.09921112                0.31753890                0.03929510               -0.03406594                0.00341495
               5.00000000                9.00000000               17.00000000                0.29800917               -0.09938454               -0.09864865                0.32364027                0.01527339               -0.01166352                0.00076090
               6.00000000                9.00000000               17.00000000                0.37880991               -0.09933468               -0.09968477                0.32911645                0.00544931               -0.00328981                0.00006757
               7.00000000                9.00000000               17.00000000                0.47478847               -0.10020249               -0.10097788                0.33436045                0.00147729               -0.00024204                0.00004589
               8.00000000                9.00000000               17.00000000                0.58963732               -0.10163200               -0.10219668                0.33946378               -0.00007003                0.00054929                0.00021311
               9.00000000                9.00000000               17.00000000                0.72857774               -0.10324271               -0.10324267                0.34444264               -0.00036579                0.00036027                0.00035984
              10.00000000                9.00000000               17.00000000                0.91006073               -0.10405910               -0.10426319                0.34926095               -0.00085697                0.00029807                0.00030966
               0.00000000               10.00000000               17.00000000                0.95296389               -0.08739569               -0.08480235                0.28537682               -0.00035329               -0.00099769               -0.00041063
               1.00000000               10.00000000               17.00000000                0.76574662               -0.09060810               -0.08701318                0.29467520                0.00035606               -0.00308257                0.00102426
               2.00000000               10.00000000               17.00000000                0.59611090               -0.11718270               -0.08853520                0.30405789                0.04986557               -0.03357218                0.00126973
               3.00000000               10.00000000               17.00000000                0.60352014               -0.11277087               -0.09404771                0.31499046                0.02867144               -0.04617315                0.00525973
               4.00000000               10.00000000               17.00000000                0.63462981               -0.08211352               -0.10063748                0.32243979                0.02116672               -0.02165809                0.00187947
               5.00000000               10.00000000               17.00000000                0.67221460               -0.08336233               -0.10085769                0.32823687                0.00913954               -0.00566837                0.00032567
               6.00000000               10.00000000               17.00000000                0.71672264               -0.09106387               -0.10128974                0.33366571                0.00312454               -0.00089231               -0.00001476
               7.00000000               10.00000000               17.00000000                0.76964872               -0.09714874               -0.10200662                0.33898479                0.00057050                0.00043551                0.00001809
               8.00000000               10.00000000               17.00000000                0.83309815               -0.10139635               -0.10296430                0.34419501               -0.00051857                0.00059516                0.00016235
               9.00000000               10.00000000               17.00000000                0.91006149               -0.10426266               -0.10405880                0.34925911               -0.00085726                0.00031069                0.00029790
              10.00000000               10.00000000               17.00000000                0.98026295               -0.10539681               -0.10539710                0.35411550               -0.00159222                0.00033146                0.00033086
               0.00000000                0.00000000               18.00000000                0.74942805               -0.06515558               -0.06515527                0.21792985                0.00272574               -0.00000486               -0.00000504
               1.00000000                0.00000000               18.00000000                0.49463295               -0.06281378               -0.06971311                0.22487958                0.00517188               -0.00054529                0.00018594
               2.00000000                0.00000000               18.00000000                0.49707664               -0.06330337               -0.06998795                0.23188630                0.00140859               -0.00198354                0.00045183
               3.00000000                0.00000000               18.00000000                0.51741058               -0.06875162               -0.07239450                0.23887538                0.00165485               -0.00257553                0.00018612
               4.00000000                0.00000000               18.00000000                0.54637708               -0.07357467               -0.07449563                0.24577602                0.00164981               -0.00238726                0.00000430
               5.00000000                0.00000000               18.00000000                0.58440131               -0.07747105               -0.07662504                0.25254211                0.00173279               -0.00164948               -0.00012013
               6.00000000                0.00000000               18.00000000                0.63223925               -0.08034755               -0.07870160                0.25917322                0.00175860               -0.00079165               -0.00018534
               7.00000000                0.00000000               18.00000000                0.69088662               -0.08228963               -0.08072388                0.26572366                0.00167687               -0.00020426               -0.00020406
               8.00000000                0.00000000               18.00000000                0.76165257               -0.08351453               -0.08272034                0.27229828                0.00144396               -0.00015644               -0.00020026
               9.00000000                0.00000000               18.00000000                0.84625137               -0.08447406               -0.08480094                0.27902703                0.00118718               -0.00042510               -0.00016853
              10.00000000                0.00000000               18.00000000                0.95316411               -0.08496447               -0.08740423                0.28606779               -0.00016822               -0.00066277               -0.00103637
               0.00000000                1.00000000               18.00000000                0.49463312               -0.06971282               -0.06281324                0.22487768                0.00517156                0.00018567               -0.00054543
               1.00000000                1.00000000               18.00000000                0.01000001               -0.07474757               -0.07474748                0.23182385                0.01190068                0.00059375                0.00059442
               2.00000000                1.00000000               18.00000000                0.01000000               -0.07938188               -0.06192238                0.23883224                0.03183049                0.00208726               -0.00910299
               3.00000000                1.00000000               18.00000000                0.01000001               -0.07830607               -0.05266193                0.24587163                0.03456556                0.00312911               -0.01705046
               4.00000000                1.00000000               18.00000000                0.04142756               -0.07734343               -0.07163796                0.25287969                0.00872037                0.00369938               -0.00039032
               5.00000000                1.00000000               18.00000000                0.09198316               -0.07721855               -0.07648837                0.25980626                0.00758793                0.00381853                0.00045436
               6.00000000                1.00000000               18.00000000                0.15567989               -0.07805276               -0.07933164                0.26663485                0.00669465                0.00355241               -0.00028165
               7.00000000                1.00000000               18.00000000                0.23446280               -0.07989010               -0.08139991                0.27340123                0.00510558                0.00297039               -0.00101801
               8.00000000                1.00000000               18.00000000                0.33094653               -0.08257165               -0.08338783                0.28018899                0.00316947                0.00222592               -0.00142781
               9.00000000                1.00000000               18.00000000                0.44865267               -0.08549577               -0.08559665                0.28710719                0.00163188                0.00138039               -0.00174117
              10.00000000                1.00000000               18.00000000                0.76591987               -0.08690384               -0.09030237                0.29421168                0.00035250                0.00098048               -0.00302863
               0.00000000                2.00000000               18.00000000                0.49707710               -0.06998711               -0.06330241                0.23188253                0.00140833                0.00045185               -0.00198361
               1.00000000                2.00000000               18.00000000                0.01000000               -0.06192242               -0.07938106                0.23883030                0.03183090               -0.00910375                0.00208817
               2.00000000                2.00000000               18.00000000                0.01000001               -0.06944099               -0.06943955                0.24772099                0.09200010               -0.01817353               -0.01817262
               3.00000000                2.00000000               18.00000000                0.01000000               -0.11043727               -0.04090505                0.25656088                0.08834161                0.00981537               -0.04177585
               4.00000000                2.00000000               18.00000000                0.01000000               -0.10831860               -0.03497344                0.26148377                0.08968403                0.02466071               -0.06838474
               5.00000000                2.00000000               18.00000000                0.01000001               -0.07916641               -0.02581105                0.26805351                0.10775039                0.00730525               -0.09244801
               6.00000000                2.00000000               18.00000000                0.02647031               -0.07827804               -0.02995693                0.27486648                0.09714253                0.00476423               -0.08198526
               7.00000000                2.00000000               18.00000000                0.05988067               -0.08071198               -0.04740532                0.28172826                0.08055639                0.00381838               -0.06311356
               8.00000000                2.00000000               18.00000000                0.10188523               -0.08428018               -0.06320969                0.28861166                0.06340520                0.00315166               -0.04846428
               9.00000000                2.00000000               18.00000000                0.15491887               -0.08715751               -0.07804736                0.29557244                0.04910063                0.00197613               -0.03791768
              10.00000000                2.00000000               18.00000000                0.59609627               -0.08816847               -0.11581671                0.30259497                0.04451954                0.00126866               -0.03209283
               0.00000000                3.00000000               18.00000000                0.51741198               -0.07239310               -0.06875021                0.23886975                0.00165460                0.00018611               -0.00257559
               1.00000000                3.00000000               18.00000000                0.01000001               -0.05266025               -0.07830455                0.24586779                0.03456637               -0.01705179                0.00312974
               2.00000000                3.00000000               18.00000000                0.01000000               -0.04090473               -0.11043583                0.25655898                0.08834137               -0.04177769                0.00981737
               3.00000000                3.00000000               18.00000000                0.01000000               -0.05406025               -0.05406052                0.26777517                0.13844762               -0.05671583               -0.05671891
               4.00000000                3.00000000               18.00000000                0.01220712               -0.06757200               -0.02572711                0.28221576                0.16825588               -0.06365198               -0.11452347
               5.00000000                3.00000000               18.00000000                0.02087770               -0.08827872               -0.02626943                0.29386052                0.15415810               -0.02528697               -0.11879619
               6.00000000                3.00000000               18.00000000                0.04948537               -0.10423878               -0.03654439                0.29785156                0.11468889                0.01823521               -0.10703432
               7.00000000                3.00000000               18.00000000                0.08367119               -0.10922853               -0.05015849                0.30075072                0.08960672                0.02332232               -0.09118041
               8.00000000                3.00000000               18.00000000                0.12438563               -0.10879359               -0.06491943                0.30448217                0.08133317                0.01646077               -0.07591903
               9.00000000                3.00000000               18.00000000                0.17289385               -0.09959796               -0.08403027                0.30902115                0.05349977                0.00887615               -0.06201598
              10.00000000                3.00000000               18.00000000                0.60345727               -0.09224014               -0.11407325                0.31463213                0.02528226                0.00470441               -0.04407636
               0.00000000                4.00000000               18.00000000                0.54637979               -0.07449365               -0.07357274                0.24576851                0.00164957                0.00000429               -0.00238740
               1.00000000                4.00000000               18.00000000                0.04143125               -0.07163655               -0.07734129                0.25287391                0.00872064               -0.00039036                0.00369975
               2.00000000                4.00000000               18.00000000                0.01000000               -0.03496550               -0.10831669                0.26147989                0.08968082               -0.06839096                0.02466247
               3.00000000                4.00000000               18.00000000                0.01220810               -0.02571628               -0.06757848                0.28221395                0.16825234               -0.11452753               -0.06365401
               4.00000000                4.00000000               18.00000000                0.02093099               -0.07092483               -0.07092869                0.29602088                0.09446606               -0.05080038               -0.05080168
               5.00000000                4.00000000               18.00000000                0.04960504               -0.09571477               -0.08825252                0.30164082                0.06168352               -0.00184281               -0.02291816
               6.00000000                4.00000000               18.00000000                0.08380462               -0.10000828               -0.09692854                0.30573419                0.05031807                0.01024017               -0.02503683
               7.00000000                4.00000000               18.00000000                0.12438783               -0.09991711               -0.09445156                0.30970360                0.04871003                0.00999750               -0.03303781
               8.00000000                4.00000000               18.00000000                0.17246631               -0.09832483               -0.09509621                0.31380011                0.04787624                0.00749186               -0.03538590
               9.00000000                4.00000000               18.00000000                0.22948484               -0.09817825               -0.09959585                0.31820137                0.03500486                0.00337135               -0.03227652
              10.00000000                4.00000000               18.00000000                0.63450259               -0.09938540               -0.08650237                0.32301983                0.01812927                0.00176853               -0.02088161
               0.00000000                5.00000000               18.00000000                0.58440567               -0.07662251               -0.07746855                0.25253275                0.00173255               -0.00012014               -0.00164971
               1.00000000                5.00000000               18.00000000                0.09198926               -0.07648617               -0.07721588                0.25979860                0.00758832                0.00045384                0.00381859
               2.00000000                5.00000000               18.00000000                0.01000001               -0.02580093               -0.07916365                0.26804747                0.10774116               -0.09245365                0.00730480
               3.00000000                5.00000000               18.00000000                0.02087994               -0.02626017               -0.08828527                0.29385628                0.15413805               -0.11879947               -0.02527837
               4.00000000                5.00000000               18.00000000                0.04960634               -0.08825216               -0.09571433                0.30163836                0.06167556               -0.02291696               -0.00183998
               5.00000000                5.00000000               18.00000000                0.08394297               -0.09926524               -0.09926525                0.30677837                0.04306813               -0.00179929               -0.00179705
               6.00000000                5.00000000               18.00000000                0.12467901               -0.09864653               -0.10052088                0.31139451                0.03432737                0.00237647               -0.00779162
               7.00000000                5.00000000               18.00000000                0.17287944               -0.09728875               -0.10163415                0.31576946                0.02853567                0.00344072               -0.01150830
               8.00000000                5.00000000               18.00000000                0.22993543               -0.09648615               -0.10270505                0.32009100                0.02290433                0.00258761               -0.01271831
               9.00000000                5.00000000               18.00000000                0.29767475               -0.09834728               -0.10033296                0.32448428                0.01362834                0.00084753               -0.01094830
              10.00000000                5.00000000               18.00000000                0.67205746               -0.10030118               -0.08658812                0.32895110                0.00778891                0.00038064               -0.00529291
               0.00000000                6.00000000               18.00000000                0.63224561               -0.07869849               -0.08034442                0.25916201                0.00175836               -0.00018535               -0.00079193
               1.00000000                6.00000000               18.00000000                0.15568888               -0.07932874               -0.07804963                0.26662529                0.00669485               -0.00028247                0.00355222
               2.00000000                6.00000000               18.00000000                0.02647494               -0.02995348               -0.07827535                0.27485823                0.09713049               -0.08198511                0.00476394
               3.00000000                6.00000000               18.00000000                0.04948925               -0.03653854               -0.10423844                0.29784481                0.11466398               -0.10703560                0.01824244
               4.00000000                6.00000000               18.00000000                0.08380751               -0.09692359               -0.10000624                0.30573002                0.05030985               -0.02504097                0.01024229
               5.00000000                6.00000000               18.00000000                0.12468066               -0.10051935               -0.09864574                0.31139248                0.03432525               -0.00779362                0.00237799
               6.00000000                6.00000000               18.00000000                0.17303269               -0.09955178               -0.09955201                0.31632290                0.02339299               -0.00169591               -0.00169472
               7.00000000                6.00000000               18.00000000                0.23019170               -0.09824429               -0.10117759                0.32090988                0.01585180                0.00056584               -0.00359280
               8.00000000                6.00000000               18.00000000                0.29791079               -0.09793137               -0.10196287                0.32535157                0.01000167                0.00078459               -0.00390847
               9.00000000                6.00000000               18.00000000                0.37852174               -0.09959473               -0.09991595                0.32976068                0.00486970                0.00017608               -0.00280439
              10.00000000                6.00000000               18.00000000                0.71660091               -0.10103238               -0.09285921                0.33413003                0.00262254                0.00006195               -0.00039444
               0.00000000                7.00000000               18.00000000                0.69089529               -0.08072018               -0.08228581                0.26571055                0.00167660               -0.00020407               -0.00020452
               1.00000000                7.00000000               18.00000000                0.23447521               -0.08139646               -0.07988653                0.27338975                0.00510551               -0.00101864                0.00297008
               2.00000000                7.00000000               18.00000000                0.05988740               -0.04740412               -0.08070906                0.28171829                0.08054391               -0.06311405                0.00381829
               3.00000000                7.00000000               18.00000000                0.08367698               -0.05015539               -0.10922470                0.30074222                0.08958772               -0.09118177                0.02332266
               4.00000000                7.00000000               18.00000000                0.12439266               -0.09444636               -0.09991482                0.30969758                0.04870237               -0.03304106                0.00999881
               5.00000000                7.00000000               18.00000000                0.17288301               -0.10163172               -0.09728754                0.31576564                0.02853319               -0.01150972                0.00344176
               6.00000000                7.00000000               18.00000000                0.23019381               -0.10117663               -0.09824376                0.32090794                0.01585123               -0.00359340                0.00056657
               7.00000000                7.00000000               18.00000000                0.29798734               -0.09996855               -0.09996862                0.32563593                0.00826945               -0.00043404               -0.00043370
               8.00000000                7.00000000               18.00000000                0.37848894               -0.09975674               -0.10100766                0.33017433                0.00378607                0.00037941               -0.00041472
               9.00000000                7.00000000               18.00000000                0.47470016               -0.10091725               -0.10050364                0.33463883                0.00132056                0.00016775                0.00018418
              10.00000000                7.00000000               18.00000000                0.76964891               -0.10185087               -0.09796890                0.33903537                0.00042527                0.00008128                0.00100529
               0.00000000                8.00000000               18.00000000                0.76166394               -0.08271606               -0.08351004                0.27228327                0.00144367               -0.00020028               -0.00015661
               1.00000000                8.00000000               18.00000000                0.33096267               -0.08338387               -0.08256762                0.28017560                0.00316922               -0.00142836                0.00222562
               2.00000000                8.00000000               18.00000000                0.10189432               -0.06320903               -0.08427677                0.28859995                0.06339361               -0.04846565                0.00315148
               3.00000000                8.00000000               18.00000000                0.12439364               -0.06491825               -0.10878796                0.30447204                0.08131659               -0.07592085                0.01646075
               4.00000000                8.00000000               18.00000000                0.17247354               -0.09509209               -0.09832210                0.31379224                0.04786894               -0.03538812                0.00749287
               5.00000000                8.00000000               18.00000000                0.22994138               -0.10270233               -0.09648443                0.32008533                0.02290220               -0.01271913                0.00258844
               6.00000000                8.00000000               18.00000000                0.29791526               -0.10196148               -0.09793024                0.32534785                0.01000122               -0.00390853                0.00078502
               7.00000000                8.00000000               18.00000000                0.37849131               -0.10100709               -0.09975616                0.33017247                0.00378601               -0.00041455                0.00037957
               8.00000000                8.00000000               18.00000000                0.47451965               -0.10109399               -0.10109394                0.33479855                0.00090160                0.00055535                0.00055517
               9.00000000                8.00000000               18.00000000                0.58990689               -0.10210843               -0.10169672                0.33933835               -0.00006236                0.00036615                0.00090196
              10.00000000                8.00000000               18.00000000                0.83330930               -0.10281070               -0.10160619                0.34380159               -0.00051161                0.00020882                0.00109135
               0.00000000                9.00000000               18.00000000                0.84626546               -0.08479614               -0.08446898                0.27901019                0.00118688               -0.00016860               -0.00042516
               1.00000000                9.00000000               18.00000000                0.44867295               -0.08559222               -0.08549122                0.28709195                0.00163161               -0.00174163                0.00138020
               2.00000000                9.00000000               18.00000000                0.15493052               -0.07804654               -0.08715348                0.29555887                0.04909086               -0.03791977                0.00197603
               3.00000000                9.00000000               18.00000000                0.17290453               -0.08402996               -0.09959186                0.30900940                0.05348880               -0.06201844                0.00887614
               4.00000000                9.00000000               18.00000000                0.22949481               -0.09959304               -0.09817442                0.31819176                0.03499906               -0.03227820                0.00337198
               5.00000000                9.00000000               18.00000000                0.29768347               -0.10033082               -0.09834468                0.32447679                0.01362696               -0.01094862                0.00084799
               6.00000000                9.00000000               18.00000000                0.37852882               -0.09991450               -0.09959294                0.32975522                0.00486947               -0.00280383                0.00017628
               7.00000000                9.00000000               18.00000000                0.47470527               -0.10050270               -0.10091608                0.33463520                0.00132055                0.00018505                0.00016782
               8.00000000                9.00000000               18.00000000                0.58990953               -0.10169627               -0.10210784                0.33933658               -0.00006235                0.00090269                0.00036609
               9.00000000                9.00000000               18.00000000                0.72928809               -0.10312581               -0.10312577                0.34394943               -0.00032551                0.00056520                0.00056486
              10.00000000                9.00000000               18.00000000                0.91053270               -0.10386618               -0.10412357                0.34847033               -0.00080243                0.00033596                0.00059057
               0.00000000               10.00000000               18.00000000                0.95317216               -0.08739885               -0.08495912                0.28604911               -0.00016879               -0.00103640               -0.00066281
               1.00000000               10.00000000               18.00000000                0.76593149               -0.09029712               -0.08689902                0.29419459                0.00035202               -0.00302899                0.00098032
               2.00000000               10.00000000               18.00000000                0.59610297               -0.11581098               -0.08816414                0.30257953                0.04451096               -0.03209554                0.00126857
               3.00000000               10.00000000               18.00000000                0.60346359               -0.11407209               -0.09223419                0.31461866                0.02527650               -0.04408048                0.00470415
               4.00000000               10.00000000               18.00000000                0.63450848               -0.08650509               -0.09938074                0.32300849                0.01812442               -0.02088347                0.00176876
               5.00000000               10.00000000               18.00000000                0.67206279               -0.08658851               -0.10029801                0.32894183                0.00778713               -0.00529268                0.00038081
               6.00000000               10.00000000               18.00000000                0.71660552               -0.09285827               -0.10103020                0.33412277                0.00262185               -0.00039307                0.00006202
               7.00000000               10.00000000               18.00000000                0.76965239               -0.09796771               -0.10184941                0.33902993                0.00042488                0.00100701                0.00008133
               8.00000000               10.00000000               18.00000000                0.83331149               -0.10160523               -0.10280986                0.34379800               -0.00051191                0.00109288                0.00020883
               9.00000000               10.00000000               18.00000000                0.91053347               -0.10412304               -0.10386589                0.34846851               -0.00080271                0.00059150                0.00033586
              10.00000000               10.00000000               18.00000000                0.98056818               -0.10513894               -0.10513923                0.35301637               -0.00149695                0.00037254                0.00037200
               0.00000000                0.00000000               19.00000000                0.74943986               -0.06526830               -0.06526799                0.21789861                0.00266682               -0.00000116               -0.00000134
               1.00000000                0.00000000               19.00000000                0.49464239               -0.06324935               -0.06957888                0.22484694                0.00469801               -0.00051793                0.00018492
               2.00000000                0.00000000               19.00000000                0.49707007               -0.06381205               -0.07005858                0.23183050                0.00132631               -0.00194999                0.00045453
               3.00000000                0.00000000               19.00000000                0.51739147               -0.06881757               -0.07241835                0.23881048                0.00153162               -0.00263180                0.00020669
               4.00000000                0.00000000               19.00000000                0.54634674               -0.07332527               -0.07450756                0.24573612                0.00152600               -0.00260289                0.00003484
               5.00000000                0.00000000               19.00000000                0.58437184               -0.07705268               -0.07662431                0.25256716                0.00160430               -0.00204889               -0.00008255
               6.00000000                0.00000000               19.00000000                0.63223623               -0.07990414               -0.07869890                0.25930191                0.00163639               -0.00134154               -0.00014211
               7.00000000                0.00000000               19.00000000                0.69094555               -0.08194299               -0.08073121                0.26598366                0.00157553               -0.00081561               -0.00015610
               8.00000000                0.00000000               19.00000000                0.76180604               -0.08334940               -0.08274653                0.27269529                0.00138002               -0.00070114               -0.00015019
               9.00000000                0.00000000               19.00000000                0.84650707               -0.08450502               -0.08483648                0.27953673                0.00116692               -0.00075497               -0.00011663
              10.00000000                0.00000000               19.00000000                0.95331515               -0.08508521               -0.08740169                0.28660603               -0.00002358               -0.00082473               -0.00102725
               0.00000000                1.00000000               19.00000000                0.49464249               -0.06957859               -0.06324882                0.22484506                0.00469769                0.00018470               -0.00051803
               1.00000000                1.00000000               19.00000000                0.01000001               -0.07416769               -0.07416762                0.23178485                0.01056004                0.00059974                0.00060036
               2.00000000                1.00000000               19.00000000                0.01000000               -0.07853122               -0.06306279                0.23871235                0.02827161                0.00207921               -0.00799224
               3.00000000                1.00000000               19.00000000                0.01000001               -0.07781219               -0.05495666                0.24563492                0.03051399                0.00309214               -0.01497608
               4.00000000                1.00000000               19.00000000                0.04138865               -0.07716036               -0.07210081                0.25252734                0.00722920                0.00359669                0.00026418
               5.00000000                1.00000000               19.00000000                0.09193917               -0.07724446               -0.07656918                0.25937036                0.00638454                0.00362613                0.00087818
               6.00000000                1.00000000               19.00000000                0.15565712               -0.07818815               -0.07927943                0.26616447                0.00572724                0.00328234                0.00008040
               7.00000000                1.00000000               19.00000000                0.23449977               -0.08003480               -0.08134425                0.27294393                0.00440208                0.00267745               -0.00067801
               8.00000000                1.00000000               19.00000000                0.33107896               -0.08263920               -0.08336156                0.27977221                0.00274310                0.00199178               -0.00111752
               9.00000000                1.00000000               19.00000000                0.44888273               -0.08546035               -0.08557872                0.28672245                0.00142552                0.00126855               -0.00147781
              10.00000000                1.00000000               19.00000000                0.76605557               -0.08682253               -0.09001320                0.29383070                0.00032080                0.00092420               -0.00286180
               0.00000000                2.00000000               19.00000000                0.49707056               -0.07005776               -0.06381109                0.23182682                0.00132605                0.00045454               -0.00194997
               1.00000000                2.00000000               19.00000000                0.01000000               -0.06306277               -0.07853045                0.23871046                0.02827196               -0.00799296                0.00208008
               2.00000000                2.00000000               19.00000000                0.01000001               -0.07030085               -0.07029957                0.24789038                0.08208344               -0.01592615               -0.01592535
               3.00000000                2.00000000               19.00000000                0.01000000               -0.10736566               -0.04488287                0.25668568                0.07896858                0.00983375               -0.03705704
               4.00000000                2.00000000               19.00000000                0.01000000               -0.10532642               -0.03983717                0.26037144                0.07988462                0.02332493               -0.06032348
               5.00000000                2.00000000               19.00000000                0.01000001               -0.07909811               -0.03185403                0.26680025                0.09582538                0.00723140               -0.08213261
               6.00000000                2.00000000               19.00000000                0.02641692               -0.07849769               -0.03599385                0.27357803                0.08605761                0.00483057               -0.07325911
               7.00000000                2.00000000               19.00000000                0.05983217               -0.08085520               -0.05212647                0.28044307                0.07108564                0.00388901               -0.05657756
               8.00000000                2.00000000               19.00000000                0.10185384               -0.08419318               -0.06669928                0.28734797                0.05580574                0.00320850               -0.04367868
               9.00000000                2.00000000               19.00000000                0.15490275               -0.08692181               -0.08029726                0.29433079                0.04325133                0.00201215               -0.03449551
              10.00000000                2.00000000               19.00000000                0.59608981               -0.08791306               -0.11405319                0.30140136                0.03949603                0.00123656               -0.02955170
               0.00000000                3.00000000               19.00000000                0.51739290               -0.07241698               -0.06881616                0.23880498                0.00153135                0.00020668               -0.00263181
               1.00000000                3.00000000               19.00000000                0.01000001               -0.05495503               -0.07781076                0.24563117                0.03051475               -0.01497734                0.00309273
               2.00000000                3.00000000               19.00000000                0.01000000               -0.04488251               -0.10736425                0.25668377                0.07896839               -0.03705874                0.00983542
               3.00000000                3.00000000               19.00000000                0.01000000               -0.05737647               -0.05737685                0.26819215                0.12437941               -0.04994435               -0.04994756
               4.00000000                3.00000000               19.00000000                0.01212861               -0.06990583               -0.03208828                0.28223691                0.15114297               -0.05583518               -0.10234597
               5.00000000                3.00000000               19.00000000                0.02076876               -0.08840284               -0.03296477                0.29403716                0.13804342               -0.02232940               -0.10688980
               6.00000000                3.00000000               19.00000000                0.04935634               -0.10256362               -0.04276470                0.29800044                0.10208490                0.01672933               -0.09652162
               7.00000000                3.00000000               19.00000000                0.08353841               -0.10675452               -0.05560303                0.30055592                0.07935974                0.02155322               -0.08235084
               8.00000000                3.00000000               19.00000000                0.12426543               -0.10607498               -0.06946094                0.30408049                0.07190983                0.01528154               -0.06877610
               9.00000000                3.00000000               19.00000000                0.17279311               -0.09764264               -0.08712519                0.30852888                0.04724170                0.00824412               -0.05647993
              10.00000000                3.00000000               19.00000000                0.60341114               -0.09099216               -0.11426450                0.31415601                0.02216608                0.00413701               -0.04044400
               0.00000000                4.00000000               19.00000000                0.54634948               -0.07450561               -0.07332332                0.24572870                0.00152575                0.00003483               -0.00260301
               1.00000000                4.00000000               19.00000000                0.04139229               -0.07209935               -0.07715831                0.25252163                0.00722955                0.00026418                0.00359701
               2.00000000                4.00000000               19.00000000                0.01000000               -0.03982981               -0.10532460                0.26036760                0.07988162               -0.06032951                0.02332632
               3.00000000                4.00000000               19.00000000                0.01212953               -0.03207803               -0.06991200                0.28223599                0.15113976               -0.10234984               -0.05583745
               4.00000000                4.00000000               19.00000000                0.02079794               -0.07291504               -0.07291909                0.29669270                0.08564607               -0.04610210               -0.04610365
               5.00000000                4.00000000               19.00000000                0.04942028               -0.09539836               -0.08875892                0.30245566                0.05593717               -0.00196869               -0.02147980
               6.00000000                4.00000000               19.00000000                0.08358327               -0.09924371               -0.09685127                0.30633495                0.04550707                0.00943132               -0.02323309
               7.00000000                4.00000000               19.00000000                0.12415322               -0.09906000               -0.09500862                0.31011402                0.04383197                0.00931520               -0.03040945
               8.00000000                4.00000000               19.00000000                0.17224073               -0.09752996               -0.09610151                0.31407602                0.04277315                0.00704384               -0.03245635
               9.00000000                4.00000000               19.00000000                0.22927598               -0.09731897               -0.10070757                0.31840929                0.03103125                0.00321567               -0.02955129
              10.00000000                4.00000000               19.00000000                0.63440147               -0.09836679               -0.08975881                0.32323500                0.01548200                0.00162278               -0.01924620
               0.00000000                5.00000000               19.00000000                0.58437620               -0.07662180               -0.07705016                0.25255790                0.00160406               -0.00008256               -0.00204908
               1.00000000                5.00000000               19.00000000                0.09194516               -0.07656698               -0.07724187                0.25936279                0.00638496                0.00087770                0.00362617
               2.00000000                5.00000000               19.00000000                0.01000001               -0.03184427               -0.07909565                0.26679473                0.09581673               -0.08213799                0.00723097
               3.00000000                5.00000000               19.00000000                0.02077095               -0.03295566               -0.08840886                0.29403360                0.13802514               -0.10689307               -0.02232174
               4.00000000                5.00000000               19.00000000                0.04942154               -0.08875829               -0.09539807                0.30245348                0.05592984               -0.02147855               -0.00196619
               5.00000000                5.00000000               19.00000000                0.08368655               -0.09882288               -0.09882296                0.30755019                0.03900858               -0.00185758               -0.00185574
               6.00000000                5.00000000               19.00000000                0.12437289               -0.09828473               -0.10014085                0.31205508                0.03102831                0.00214139               -0.00733021
               7.00000000                5.00000000               19.00000000                0.17255730               -0.09707240               -0.10137101                0.31631089                0.02569288                0.00322025               -0.01066003
               8.00000000                5.00000000               19.00000000                0.22962991               -0.09636986               -0.10261118                0.32053585                0.02050369                0.00248818               -0.01165705
               9.00000000                5.00000000               19.00000000                0.29739719               -0.09804993               -0.10084028                0.32486734                0.01210211                0.00088107               -0.00992544
              10.00000000                5.00000000               19.00000000                0.67192441               -0.09979959               -0.08913047                0.32931819                0.00660130                0.00040557               -0.00469611
               0.00000000                6.00000000               19.00000000                0.63224254               -0.07869583               -0.07990102                0.25929084                0.00163615               -0.00014212               -0.00134177
               1.00000000                6.00000000               19.00000000                0.15566595               -0.07927659               -0.07818510                0.26615507                0.00572738                0.00007970                0.00328215
               2.00000000                6.00000000               19.00000000                0.02642152               -0.03599005               -0.07849525                0.27357047                0.08604650               -0.07325941                0.00483025
               3.00000000                6.00000000               19.00000000                0.04936011               -0.04275865               -0.10256311                0.29799365                0.10206200               -0.09652310                0.01673579
               4.00000000                6.00000000               19.00000000                0.08358612               -0.09684652               -0.09924171                0.30633069                0.04549922               -0.02323655                0.00943336
               5.00000000                6.00000000               19.00000000                0.12437451               -0.10013927               -0.09828397                0.31205289                0.03102621               -0.00733189                0.00214281
               6.00000000                6.00000000               19.00000000                0.17267408               -0.09930369               -0.09930396                0.31691900                0.02110061               -0.00159815               -0.00159722
               7.00000000                6.00000000               19.00000000                0.22982856               -0.09816509               -0.10094668                0.32140194                0.01425362                0.00057170               -0.00327244
               8.00000000                6.00000000               19.00000000                0.29759056               -0.09793241               -0.10184283                0.32574223                0.00895381                0.00082113               -0.00345351
               9.00000000                6.00000000               19.00000000                0.37826308               -0.09947126               -0.10025290                0.33007025                0.00433052                0.00025244               -0.00231434
              10.00000000                6.00000000               19.00000000                0.71648728               -0.10078056               -0.09429953                0.33438979                0.00216893                0.00011629                0.00002362
               0.00000000                7.00000000               19.00000000                0.69095404               -0.08072759               -0.08193923                0.26597079                0.00157527               -0.00015612               -0.00081583
               1.00000000                7.00000000               19.00000000                0.23451193               -0.08134087               -0.08003134                0.27293270                0.00440196               -0.00067871                0.00267713
               2.00000000                7.00000000               19.00000000                0.05983871               -0.05212470               -0.08085239                0.28043337                0.07107425               -0.05657842                0.00388879
               3.00000000                7.00000000               19.00000000                0.08354406               -0.05559947               -0.10675086                0.30054752                0.07934216               -0.08235221                0.02155367
               4.00000000                7.00000000               19.00000000                0.12415796               -0.09500360               -0.09905777                0.31010813                0.04382464               -0.03041208                0.00931655
               5.00000000                7.00000000               19.00000000                0.17256084               -0.10136857               -0.09707119                0.31630698                0.02569042               -0.01066132                0.00322131
               6.00000000                7.00000000               19.00000000                0.22983051               -0.10094567               -0.09816457                0.32139995                0.01425303               -0.00327300                0.00057232
               7.00000000                7.00000000               19.00000000                0.29765128               -0.09988193               -0.09988202                0.32600944                0.00742038               -0.00029218               -0.00029200
               8.00000000                7.00000000               19.00000000                0.37824862               -0.09973815               -0.10096863                0.33041745                0.00338703                0.00048310               -0.00017848
               9.00000000                7.00000000               19.00000000                0.47458769               -0.10083983               -0.10069341                0.33476737                0.00117408                0.00025453                0.00049219
              10.00000000                7.00000000               19.00000000                0.76962799               -0.10170953               -0.09865090                0.33907846                0.00028091                0.00012696                0.00138541
               0.00000000                8.00000000               19.00000000                0.76181716               -0.08274237               -0.08334501                0.27268059                0.00137973               -0.00015021               -0.00070129
               1.00000000                8.00000000               19.00000000                0.33109491               -0.08335769               -0.08263528                0.27975913                0.00274284               -0.00111808                0.00199147
               2.00000000                8.00000000               19.00000000                0.10186262               -0.06669803               -0.08418984                0.28733649                0.05579519               -0.04368025                0.00320837
               3.00000000                8.00000000               19.00000000                0.12427333               -0.06945913               -0.10606974                0.30407049                0.07189445               -0.06877779                0.01528176
               4.00000000                8.00000000               19.00000000                0.17224788               -0.09609740               -0.09752733                0.31406826                0.04276626               -0.03245814                0.00704479
               5.00000000                8.00000000               19.00000000                0.22963574               -0.10260843               -0.09636816                0.32053012                0.02050161               -0.01165788                0.00248893
               6.00000000                8.00000000               19.00000000                0.29759489               -0.10184138               -0.09793128                0.32573841                0.00895332               -0.00345360                0.00082167
               7.00000000                8.00000000               19.00000000                0.37825085               -0.10096804               -0.09973759                0.33041566                0.00338697               -0.00017823                0.00048328
               8.00000000                8.00000000               19.00000000                0.47445753               -0.10107256               -0.10107253                0.33487260                0.00080500                0.00071357                0.00071338
               9.00000000                8.00000000               19.00000000                0.59007845               -0.10204023               -0.10174905                0.33925953               -0.00005648                0.00046658                0.00112405
              10.00000000                8.00000000               19.00000000                0.83346164               -0.10270592               -0.10182223                0.34360609               -0.00052327                0.00023831                0.00140672
               0.00000000                9.00000000               19.00000000                0.84652092               -0.08483177               -0.08450002                0.27952017                0.00116661               -0.00011667               -0.00075501
               1.00000000                9.00000000               19.00000000                0.44890283               -0.08557435               -0.08545589                0.28670750                0.00142528               -0.00147824                0.00126835
               2.00000000                9.00000000               19.00000000                0.15491412               -0.08029589               -0.08691787                0.29431745                0.04324244               -0.03449755                0.00201205
               3.00000000                9.00000000               19.00000000                0.17280370               -0.08712414               -0.09763700                0.30851725                0.04723153               -0.05648229                0.00824431
               4.00000000                9.00000000               19.00000000                0.22928569               -0.10070456               -0.09731533                0.31839975                0.03102586               -0.02955275                0.00321615
               5.00000000                9.00000000               19.00000000                0.29740583               -0.10083808               -0.09804741                0.32485993                0.01210080               -0.00992564                0.00088152
               6.00000000                9.00000000               19.00000000                0.37827020               -0.10025141               -0.09946948                0.33006474                0.00433023               -0.00231379                0.00025281
               7.00000000                9.00000000               19.00000000                0.47459275               -0.10069244               -0.10083868                0.33476373                0.00117403                0.00049296                0.00025471
               8.00000000                9.00000000               19.00000000                0.59008110               -0.10174857               -0.10203966                0.33925773               -0.00005647                0.00112470                0.00046655
               9.00000000                9.00000000               19.00000000                0.72983472               -0.10306954               -0.10306950                0.34368342               -0.00028925                0.00069328                0.00069300
              10.00000000                9.00000000               19.00000000                0.91091524               -0.10376446               -0.10408484                0.34806596               -0.00077258                0.00035402                0.00077022
               0.00000000               10.00000000               19.00000000                0.95332312               -0.08739638               -0.08507993                0.28658760               -0.00002415               -0.00102726               -0.00082476
               1.00000000               10.00000000               19.00000000                0.76606693               -0.09000801               -0.08681779                0.29381388                0.00032034               -0.00286210                0.00092403
               2.00000000               10.00000000               19.00000000                0.59609641               -0.11404731               -0.08790881                0.30138615                0.03948812               -0.02955424                0.00123646
               3.00000000               10.00000000               19.00000000                0.60341739               -0.11426263               -0.09098668                0.31414264                0.02216071               -0.04044797                0.00413689
               4.00000000               10.00000000               19.00000000                0.63440728               -0.08976079               -0.09836237                0.32322372                0.01547757               -0.01924793                0.00162291
               5.00000000               10.00000000               19.00000000                0.67192963               -0.08913059               -0.09979655                0.32930908                0.00659966               -0.00469574                0.00040577
               6.00000000               10.00000000               19.00000000                0.71649162               -0.09429851               -0.10077842                0.33438252                0.00216825                0.00002492                0.00011652
               7.00000000               10.00000000               19.00000000                0.76963139               -0.09864966               -0.10170806                0.33907295                0.00028051                0.00138694                0.00012710
               8.00000000               10.00000000               19.00000000                0.83346391               -0.10182125               -0.10270507                0.34360240               -0.00052357                0.00140812                0.00023836
               9.00000000               10.00000000               19.00000000                0.91091611               -0.10408430               -0.10376416                0.34806409               -0.00077287                0.00077108                0.00035396
              10.00000000               10.00000000               19.00000000                0.98082705               -0.10501829               -0.10501858                0.35246465               -0.00145150                0.00039097                0.00039047
               0.00000000                0.00000000               20.00000000                0.74945006               -0.06537857               -0.06537827                0.21786955                0.00261198               -0.00000308               -0.00000323
               1.00000000                0.00000000               20.00000000                0.49465027               -0.06368062               -0.06945073                0.22481772                0.00424857               -0.00050372                0.00017459
               2.00000000                0.00000000               20.00000000                0.49706463               -0.06433671               -0.07012400                0.23178480                0.00125675               -0.00190278                0.00044031
               3.00000000                0.00000000               20.00000000                0.51737780               -0.06893365               -0.07244233                0.23875894                0.00142633               -0.00263131                0.00021488
               4.00000000                0.00000000               20.00000000                0.54632708               -0.07314164               -0.07452270                0.24570460                0.00142011               -0.00271646                0.00005694
               5.00000000                0.00000000               20.00000000                0.58435517               -0.07670045               -0.07662898                0.25258692                0.00149271               -0.00230698               -0.00005103
               6.00000000                0.00000000               20.00000000                0.63224063               -0.07951497               -0.07870169                0.25940351                0.00152869               -0.00172198               -0.00010452
               7.00000000                0.00000000               20.00000000                0.69099511               -0.08162935               -0.08074156                0.26618847                0.00148520               -0.00124702               -0.00011454
               8.00000000                0.00000000               20.00000000                0.76192222               -0.08318970               -0.08277101                0.27300600                0.00132262               -0.00107925               -0.00010651
               9.00000000                0.00000000               20.00000000                0.84669187               -0.08451427               -0.08486563                0.27993139                0.00114824               -0.00097118               -0.00007074
              10.00000000                0.00000000               20.00000000                0.95342236               -0.08517206               -0.08739303                0.28701576                0.00008518               -0.00091403               -0.00098253
               0.00000000                1.00000000               20.00000000                0.49465030               -0.06945046               -0.06368010                0.22481589                0.00424828                0.00017439               -0.00050377
               1.00000000                1.00000000               20.00000000                0.01000001               -0.07361458               -0.07361453                0.23175216                0.00928404                0.00055903                0.00055962
               2.00000000                1.00000000               20.00000000                0.01000000               -0.07771950               -0.06408625                0.23862285                0.02493209                0.00194619               -0.00680819
               3.00000000                1.00000000               20.00000000                0.01000001               -0.07734461               -0.05703964                0.24546216                0.02678757                0.00289542               -0.01279585
               4.00000000                1.00000000               20.00000000                0.04136500               -0.07699844               -0.07253236                0.25227113                0.00591971                0.00334289                0.00070852
               5.00000000                1.00000000               20.00000000                0.09191593               -0.07728978               -0.07666236                0.25905331                0.00531191                0.00332289                0.00113904
               6.00000000                1.00000000               20.00000000                0.15565336               -0.07834128               -0.07925284                0.26582196                0.00485797                0.00295451                0.00033886
               7.00000000                1.00000000               20.00000000                0.23454167               -0.08019641               -0.08130993                0.27260984                0.00377168                0.00237152               -0.00039604
               8.00000000                1.00000000               20.00000000                0.33118889               -0.08272615               -0.08334705                0.27946447                0.00236421                0.00176273               -0.00083218
               9.00000000                1.00000000               20.00000000                0.44905768               -0.08544910               -0.08556549                0.28643153                0.00124211                0.00115288               -0.00120844
              10.00000000                1.00000000               20.00000000                0.76615547               -0.08676775               -0.08974920                0.29353403                0.00026784                0.00085763               -0.00261698
               0.00000000                2.00000000               20.00000000                0.49706523               -0.07012320               -0.06433575                0.23178118                0.00125648                0.00044031               -0.00190269
               1.00000000                2.00000000               20.00000000                0.01000000               -0.06408617               -0.07771878                0.23862100                0.02493241               -0.00680886                0.00194703
               2.00000000                2.00000000               20.00000000                0.01000001               -0.07095004               -0.07094907                0.24782473                0.07278948               -0.01356582               -0.01356512
               3.00000000                2.00000000               20.00000000                0.01000000               -0.10433378               -0.04840965                0.25646196                0.07014610                0.00934215               -0.03204110
               4.00000000                2.00000000               20.00000000                0.01000000               -0.10250711               -0.04413297                0.25952261                0.07081706                0.02132828               -0.05209095
               5.00000000                2.00000000               20.00000000                0.01000001               -0.07908645               -0.03720068                0.26586287                0.08490983                0.00692002               -0.07136979
               6.00000000                2.00000000               20.00000000                0.02638394               -0.07875517               -0.04127515                0.27260816                0.07601120                0.00473472               -0.06389613
               7.00000000                2.00000000               20.00000000                0.05980363               -0.08104542               -0.05612754                0.27946577                0.06258981                0.00384190               -0.04941754
               8.00000000                2.00000000               20.00000000                0.10183762               -0.08417885               -0.06952537                0.28637604                0.04902755                0.00317541               -0.03826267
               9.00000000                2.00000000               20.00000000                0.15489538               -0.08677750               -0.08196871                0.29336490                0.03801098                0.00199031               -0.03040319
              10.00000000                2.00000000               20.00000000                0.59608604               -0.08775308               -0.11207235                0.30046507                0.03486708                0.00117935               -0.02626211
               0.00000000                3.00000000               20.00000000                0.51737923               -0.07244096               -0.06893221                0.23875346                0.00142606                0.00021486               -0.00263130
               1.00000000                3.00000000               20.00000000                0.01000001               -0.05703801               -0.07734323                0.24545841                0.02678810               -0.01279706                0.00289595
               2.00000000                3.00000000               20.00000000                0.01000000               -0.04840920               -0.10433270                0.25646033                0.07014588               -0.03204267                0.00934383
               3.00000000                3.00000000               20.00000000                0.01000000               -0.06010470               -0.06010523                0.26789964                0.11115828               -0.04312493               -0.04312745
               4.00000000                3.00000000               20.00000000                0.01207526               -0.07174029               -0.03765014                0.28150681                0.13512681               -0.04820655               -0.08947451
               5.00000000                3.00000000               20.00000000                0.02069414               -0.08835801               -0.03877699                0.29349965                0.12307617               -0.01932783               -0.09393627
               6.00000000                3.00000000               20.00000000                0.04926684               -0.10093270               -0.04803054                0.29762169                0.09052054                0.01501550               -0.08492790
               7.00000000                3.00000000               20.00000000                0.08344466               -0.10450013               -0.06004436                0.30004864                0.07005604                0.01941949               -0.07246862
               8.00000000                3.00000000               20.00000000                0.12417801               -0.10373300               -0.07296914                0.30350982                0.06338462                0.01382887               -0.06058525
               9.00000000                3.00000000               20.00000000                0.17271519               -0.09612995               -0.08921716                0.30795482                0.04159009                0.00746997               -0.04986829
              10.00000000                3.00000000               20.00000000                0.60337402               -0.09019026               -0.11366251                0.31362957                0.01934549                0.00357769               -0.03572084
               0.00000000                4.00000000               20.00000000                0.54632966               -0.07452076               -0.07313969                0.24569730                0.00141986                0.00005694               -0.00271657
               1.00000000                4.00000000               20.00000000                0.04136870               -0.07253090               -0.07699647                0.25226552                0.00591983                0.00070863                0.00334315
               2.00000000                4.00000000               20.00000000                0.01000000               -0.04412613               -0.10250532                0.25951781                0.07081418               -0.05209593                0.02132971
               3.00000000                4.00000000               20.00000000                0.01207619               -0.03764044               -0.07174616                0.28150653                0.13512411               -0.08947806               -0.04820875
               4.00000000                4.00000000               20.00000000                0.02070563               -0.07452076               -0.07452492                0.29634798                0.07702867               -0.04082096               -0.04082186
               5.00000000                4.00000000               20.00000000                0.04928998               -0.09488116               -0.08896995                0.30241849                0.05033788               -0.00193235               -0.01947414
               6.00000000                4.00000000               20.00000000                0.08342392               -0.09836723               -0.09648061                0.30625668                0.04087989                0.00849630               -0.02091382
               7.00000000                4.00000000               20.00000000                0.12397985               -0.09818933               -0.09516785                0.30999419                0.03921127                0.00846992               -0.02717646
               8.00000000                4.00000000               20.00000000                0.17206772               -0.09680762               -0.09658886                0.31394461                0.03803731                0.00645199               -0.02888281
               9.00000000                4.00000000               20.00000000                0.22910735               -0.09661738               -0.10119397                0.31830310                0.02741433                0.00297799               -0.02618380
              10.00000000                4.00000000               20.00000000                0.63431792               -0.09755416               -0.09210103                0.32319674                0.01320054                0.00145572               -0.01698825
               0.00000000                5.00000000               20.00000000                0.58435949               -0.07662649               -0.07669794                0.25257780                0.00149247               -0.00005102               -0.00230712
               1.00000000                5.00000000               20.00000000                0.09192202               -0.07666016               -0.07728729                0.25904587                0.00531228                0.00113890                0.00332293
               2.00000000                5.00000000               20.00000000                0.01000001               -0.03719133               -0.07908392                0.26585675                0.08490176               -0.07137479                0.00691937
               3.00000000                5.00000000               20.00000000                0.02069628               -0.03876811               -0.08836350                0.29349678                0.12305960               -0.09393972               -0.01932162
               4.00000000                5.00000000               20.00000000                0.04929121               -0.08896916               -0.09488109                0.30241641                0.05033132               -0.01947302               -0.00193022
               5.00000000                5.00000000               20.00000000                0.08350106               -0.09817356               -0.09817372                0.30755865                0.03509977               -0.00178256               -0.00178102
               6.00000000                5.00000000               20.00000000                0.12414610               -0.09777250               -0.09955399                0.31206432                0.02787433                0.00191849               -0.00665562
               7.00000000                5.00000000               20.00000000                0.17231127               -0.09675734               -0.10088544                0.31631978                0.02300652                0.00295659               -0.00956320
               8.00000000                5.00000000               20.00000000                0.22938680               -0.09620318               -0.10226446                0.32055768                0.01827040                0.00233160               -0.01034926
               9.00000000                5.00000000               20.00000000                0.29716376               -0.09776922               -0.10101890                0.32492242                0.01071103                0.00087296               -0.00868720
              10.00000000                5.00000000               20.00000000                0.67180996               -0.09935794               -0.09110272                0.32943698                0.00557044                0.00040721               -0.00393378
               0.00000000                6.00000000               20.00000000                0.63224679               -0.07869866               -0.07951187                0.25939260                0.00152846               -0.00010452               -0.00172217
               1.00000000                6.00000000               20.00000000                0.15566198               -0.07925003               -0.07833834                0.26581271                0.00485816                0.00033823                0.00295434
               2.00000000                6.00000000               20.00000000                0.02638844               -0.04127110               -0.07875281                0.27260067                0.07600094               -0.06389664                0.00473401
               3.00000000                6.00000000               20.00000000                0.04927062               -0.04802435               -0.10093198                0.29761487                0.09049926               -0.08492956                0.01502125
               4.00000000                6.00000000               20.00000000                0.08342670               -0.09647603               -0.09836534                0.30625237                0.04087248               -0.02091698                0.00849813
               5.00000000                6.00000000               20.00000000                0.12414758               -0.09955250               -0.09777190                0.31206250                0.02787248               -0.00665702                0.00191967
               6.00000000                6.00000000               20.00000000                0.17240077               -0.09889987               -0.09890017                0.31695180                0.01892832               -0.00143099               -0.00143029
               7.00000000                6.00000000               20.00000000                0.22954217               -0.09797303               -0.10056760                0.32144053                0.01275402                0.00057676               -0.00287640
               8.00000000                6.00000000               20.00000000                0.29732457               -0.09786200               -0.10157508                0.32578978                0.00798177                0.00082994               -0.00294796
               9.00000000                6.00000000               20.00000000                0.37803215               -0.09933007               -0.10040575                0.33013837                0.00383828                0.00030253               -0.00181826
              10.00000000                6.00000000               20.00000000                0.71638210               -0.10054328               -0.09544002                0.33450131                0.00176624                0.00015208                0.00038777
               0.00000000                7.00000000               20.00000000                0.69100355               -0.08073800               -0.08162562                0.26617578                0.00148495               -0.00011456               -0.00124720
               1.00000000                7.00000000               20.00000000                0.23455347               -0.08130662               -0.08019303                0.27259881                0.00377157               -0.00039677                0.00237122
               2.00000000                7.00000000               20.00000000                0.05981010               -0.05612544               -0.08104279                0.27945669                0.06257942               -0.04941846                0.00384164
               3.00000000                7.00000000               20.00000000                0.08345030               -0.06004047               -0.10449658                0.30004015                0.07003965               -0.07246995                0.01941996
               4.00000000                7.00000000               20.00000000                0.12398458               -0.09516284               -0.09818714                0.30998808                0.03920413               -0.02717890                0.00847110
               5.00000000                7.00000000               20.00000000                0.17231472               -0.10088299               -0.09675620                0.31631579                0.02300416               -0.00956437                0.00295758
               6.00000000                7.00000000               20.00000000                0.22954409               -0.10056659               -0.09797262                0.32143867                0.01275352               -0.00287680                0.00057732
               7.00000000                7.00000000               20.00000000                0.29737419               -0.09969677               -0.09969691                0.32604213                0.00662970               -0.00015601               -0.00015576
               8.00000000                7.00000000               20.00000000                0.37803293               -0.09966436               -0.10084638                0.33043864                0.00301810                0.00055343                0.00002129
               9.00000000                7.00000000               20.00000000                0.47446233               -0.10075306               -0.10079694                0.33478526                0.00104049                0.00031356                0.00071867
              10.00000000                7.00000000               20.00000000                0.76959323               -0.10158335               -0.09921090                0.33911438                0.00014354                0.00015789                0.00162913
               0.00000000                8.00000000               20.00000000                0.76193316               -0.08276692               -0.08318535                0.27299151                0.00132234               -0.00010655               -0.00107938
               1.00000000                8.00000000               20.00000000                0.33120457               -0.08334326               -0.08272231                0.27945164                0.00236393               -0.00083274                0.00176241
               2.00000000                8.00000000               20.00000000                0.10184628               -0.06952373               -0.08417564                0.28636492                0.04901796               -0.03826421                0.00317528
               3.00000000                8.00000000               20.00000000                0.12418582               -0.07296685               -0.10372813                0.30350003                0.06337046               -0.06058709                0.01382899
               4.00000000                8.00000000               20.00000000                0.17207467               -0.09658466               -0.09680506                0.31393679                0.03803070               -0.02888456                0.00645272
               5.00000000                8.00000000               20.00000000                0.22939252               -0.10226167               -0.09620150                0.32055190                0.01826831               -0.01034988                0.00233238
               6.00000000                8.00000000               20.00000000                0.29732883               -0.10157361               -0.09786093                0.32578604                0.00798128               -0.00294784                0.00083041
               7.00000000                8.00000000               20.00000000                0.37803538               -0.10084575               -0.09966383                0.33043679                0.00301806                0.00002152                0.00055361
               8.00000000                8.00000000               20.00000000                0.47437248               -0.10102009               -0.10102008                0.33485473                0.00071568                0.00081287                0.00081283
               9.00000000                8.00000000               20.00000000                0.59017759               -0.10198698               -0.10178886                0.33921110               -0.00005124                0.00052681                0.00125174
              10.00000000                8.00000000               20.00000000                0.83356905               -0.10263793               -0.10203312                0.34355253               -0.00054646                0.00025414                0.00158772
               0.00000000                9.00000000               20.00000000                0.84670535               -0.08486102               -0.08450936                0.27991512                0.00114794               -0.00007080               -0.00097122
               1.00000000                9.00000000               20.00000000                0.44907738               -0.08556121               -0.08544474                0.28641691                0.00124186               -0.00120891                0.00115265
               2.00000000                9.00000000               20.00000000                0.15490665               -0.08196695               -0.08677365                0.29335184                0.03800287               -0.03040520                0.00199017
               3.00000000                9.00000000               20.00000000                0.17272560               -0.08921556               -0.09612473                0.30794335                0.04158071               -0.04987065                0.00747000
               4.00000000                9.00000000               20.00000000                0.22911701               -0.10119076               -0.09661386                0.31829354                0.02740925               -0.02618515                0.00297851
               5.00000000                9.00000000               20.00000000                0.29717245               -0.10101658               -0.09776670                0.32491483                0.01070970               -0.00868736                0.00087348
               6.00000000                9.00000000               20.00000000                0.37803913               -0.10040418               -0.09932824                0.33013267                0.00383801               -0.00181774                0.00030285
               7.00000000                9.00000000               20.00000000                0.47446727               -0.10079593               -0.10075188                0.33478153                0.00104048                0.00071943                0.00031360
               8.00000000                9.00000000               20.00000000                0.59018028               -0.10178836               -0.10198639                0.33920922               -0.00005124                0.00125232                0.00052680
               9.00000000                9.00000000               20.00000000                0.73025371               -0.10305564               -0.10305561                0.34357956               -0.00025656                0.00076349                0.00076327
              10.00000000                9.00000000               20.00000000                0.91122570               -0.10372832               -0.10411587                0.34794053               -0.00076070                0.00035730                0.00087286
               0.00000000               10.00000000               20.00000000                0.95343007               -0.08738783               -0.08516689                0.28699768                0.00008462               -0.00098254               -0.00091406
               1.00000000               10.00000000               20.00000000                0.76616690               -0.08974413               -0.08676312                0.29351759                0.00026739               -0.00261733                0.00085743
               2.00000000               10.00000000               20.00000000                0.59609259               -0.11206645               -0.08774893                0.30045016                0.03485978               -0.02626461                0.00117920
               3.00000000               10.00000000               20.00000000                0.60338025               -0.11366013               -0.09018519                0.31361629                0.01934050               -0.03572466                0.00357755
               4.00000000               10.00000000               20.00000000                0.63432369               -0.09210236               -0.09754990                0.32318543                0.01319649               -0.01698983                0.00145596
               5.00000000               10.00000000               20.00000000                0.67181510               -0.09110251               -0.09935488                0.32942758                0.00556891               -0.00393350                0.00040755
               6.00000000               10.00000000               20.00000000                0.71638663               -0.09543885               -0.10054104                0.33449373                0.00176560                0.00038887                0.00015229
               7.00000000               10.00000000               20.00000000                0.76959661               -0.09920962               -0.10158184                0.33910878                0.00014315                0.00163057                0.00015790
               8.00000000               10.00000000               20.00000000                0.83357129               -0.10203211               -0.10263705                0.34354876               -0.00054678                0.00158905                0.00025415
               9.00000000               10.00000000               20.00000000                0.91122651               -0.10411531               -0.10372801                0.34793859               -0.00076101                0.00087364                0.00035726
              10.00000000               10.00000000               20.00000000                0.98104647               -0.10499601               -0.10499633                0.35231059               -0.00144248                0.00039288                0.00039244
               0.00000000                0.00000000               21.00000000                0.74946004               -0.06548495               -0.06548465                0.21785097                0.00256182               -0.00000903               -0.00000913
               1.00000000                0.00000000               21.00000000                0.49465814               -0.06409423               -0.06933362                0.22479840                0.00383417               -0.00049936                0.00015787
               2.00000000                0.00000000               21.00000000                0.49706109               -0.06485477               -0.07018421                0.23175245                0.00119910               -0.00184645                0.00041413
               3.00000000                0.00000000               21.00000000                0.51736870               -0.06908356               -0.07246599                0.23872121                0.00133819               -0.00258830                0.00021342
               4.00000000                0.00000000               21.00000000                0.54631494               -0.07301451               -0.07453961                0.24568085                0.00133145               -0.00275061                0.00007166
               5.00000000                0.00000000               21.00000000                0.58434668               -0.07641095               -0.07663707                0.25260118                0.00139785               -0.00245199               -0.00002554
               6.00000000                0.00000000               21.00000000                0.63224836               -0.07918047               -0.07870781                0.25947933                0.00143580               -0.00196449               -0.00007288
               7.00000000                0.00000000               21.00000000                0.69103535               -0.08135096               -0.08075295                0.26634155                0.00140639               -0.00153104               -0.00007967
               8.00000000                0.00000000               21.00000000                0.76200797               -0.08303837               -0.08279230                0.27323673                0.00127217               -0.00132158               -0.00006964
               9.00000000                0.00000000               21.00000000                0.84682167               -0.08450522               -0.08488784                0.28022063                0.00113138               -0.00109575               -0.00003169
              10.00000000                0.00000000               21.00000000                0.95349570               -0.08522869               -0.08737856                0.28730857                0.00016284               -0.00094639               -0.00091269
               0.00000000                1.00000000               21.00000000                0.49465832               -0.06933334               -0.06409370                0.22479657                0.00383386                0.00015766               -0.00049936
               1.00000000                1.00000000               21.00000000                0.01000001               -0.07310353               -0.07310348                0.23173008                0.00810458                0.00048593                0.00048651
               2.00000000                1.00000000               21.00000000                0.01000000               -0.07696762               -0.06498067                0.23856183                0.02188625                0.00172705               -0.00565850
               3.00000000                1.00000000               21.00000000                0.01000001               -0.07691328               -0.05888325                0.24534363                0.02343408                0.00258804               -0.01067227
               4.00000000                1.00000000               21.00000000                0.04135204               -0.07685677               -0.07292481                0.25209463                0.00479478                0.00298434                0.00098215
               5.00000000                1.00000000               21.00000000                0.09190688               -0.07734626               -0.07676069                0.25883426                0.00437670                0.00294374                0.00127123
               6.00000000                1.00000000               21.00000000                0.15566128               -0.07850067               -0.07924618                0.26558466                0.00409295                0.00258885                0.00051050
               7.00000000                1.00000000               21.00000000                0.23458411               -0.08036368               -0.08129316                0.27237682                0.00321697                0.00205912               -0.00016929
               8.00000000                1.00000000               21.00000000                0.33127986               -0.08282349               -0.08334248                0.27924600                0.00203252                0.00153835               -0.00057781
               9.00000000                1.00000000               21.00000000                0.44919162               -0.08545530               -0.08555678                0.28621773                0.00108105                0.00103394               -0.00094603
              10.00000000                1.00000000               21.00000000                0.76622956               -0.08673366               -0.08951204                0.29330689                0.00019978                0.00078332               -0.00232300
               0.00000000                2.00000000               21.00000000                0.49706172               -0.07018337               -0.06485377                0.23174880                0.00119883                0.00041414               -0.00184635
               1.00000000                2.00000000               21.00000000                0.01000000               -0.06498050               -0.07696691                0.23855992                0.02188652               -0.00565912                0.00172783
               2.00000000                2.00000000               21.00000000                0.01000001               -0.07142706               -0.07142613                0.24763624                0.06431638               -0.01130565               -0.01130476
               3.00000000                2.00000000               21.00000000                0.01000000               -0.10144747               -0.05149570                0.25609143                0.06203158                0.00850860               -0.02709598
               4.00000000                2.00000000               21.00000000                0.01000000               -0.09990967               -0.04789165                0.25890021                0.06255488                0.01896318               -0.04403198
               5.00000000                2.00000000               21.00000000                0.01000001               -0.07911536               -0.04188539                0.26518943                0.07506670                0.00643153               -0.06058455
               6.00000000                2.00000000               21.00000000                0.02636458               -0.07903100               -0.04585391                0.27190789                0.06703444                0.00450586               -0.05430725
               7.00000000                2.00000000               21.00000000                0.05978890               -0.08126367               -0.05949599                0.27875203                0.05506361                0.00369427               -0.04197515
               8.00000000                2.00000000               21.00000000                0.10183245               -0.08421865               -0.07179777                0.28565616                0.04305122                0.00306494               -0.03250917
               9.00000000                2.00000000               21.00000000                0.15489576               -0.08670552               -0.08318419                0.29263919                0.03337234                0.00191987               -0.02590518
              10.00000000                2.00000000               21.00000000                0.59608565               -0.08766891               -0.11001263                0.29975313                0.03067031                0.00110309               -0.02248413
               0.00000000                3.00000000               21.00000000                0.51737002               -0.07246462               -0.06908212                0.23871581                0.00133795                0.00021342               -0.00258825
               1.00000000                3.00000000               21.00000000                0.01000001               -0.05888165               -0.07691197                0.24533993                0.02343460               -0.01067315                0.00258854
               2.00000000                3.00000000               21.00000000                0.01000000               -0.05149511               -0.10144655                0.25608966                0.06203116               -0.02709739                0.00850929
               3.00000000                3.00000000               21.00000000                0.01000000               -0.06236891               -0.06236955                0.26731841                0.09898505               -0.03655592               -0.03655759
               4.00000000                3.00000000               21.00000000                0.01203926               -0.07318859               -0.04247827                0.28050296                0.12042120               -0.04081986               -0.07648646
               5.00000000                3.00000000               21.00000000                0.02064355               -0.08818662               -0.04378138                0.29257411                0.10942878               -0.01629313               -0.08058166
               6.00000000                3.00000000               21.00000000                0.04920555               -0.09937779               -0.05245750                0.29690662                0.08007644                0.01320805               -0.07284585
               7.00000000                3.00000000               21.00000000                0.08337930               -0.10247755               -0.06364028                0.29935328                0.06172318                0.01706224               -0.06205646
               8.00000000                3.00000000               21.00000000                0.12411493               -0.10173674               -0.07564120                0.30285106                0.05577361                0.01220071               -0.05181081
               9.00000000                3.00000000               21.00000000                0.17265561               -0.09498012               -0.09054149                0.30735224                0.03655231                0.00660531               -0.04260123
              10.00000000                3.00000000               21.00000000                0.60334464               -0.08972864               -0.11253209                0.31309291                0.01682605                0.00303950               -0.03027440
               0.00000000                4.00000000               21.00000000                0.54631739               -0.07453774               -0.07301259                0.24567376                0.00133121                0.00007167               -0.00275066
               1.00000000                4.00000000               21.00000000                0.04135548               -0.07292343               -0.07685492                0.25208922                0.00479479                0.00098125                0.00298461
               2.00000000                4.00000000               21.00000000                0.01000000               -0.04788525               -0.09990817                0.25889670                0.06255209               -0.04403612                0.01896391
               3.00000000                4.00000000               21.00000000                0.01204021               -0.04246896               -0.07319398                0.28050181                0.12041865               -0.07648862               -0.04082146
               4.00000000                4.00000000               21.00000000                0.02064220               -0.07580697               -0.07581112                0.29545587                0.06888817               -0.03520302               -0.03520354
               5.00000000                4.00000000               21.00000000                0.04919856               -0.09424177               -0.08897209                0.30182542                0.04505566               -0.00173523               -0.01709286
               6.00000000                4.00000000               21.00000000                0.08330991               -0.09744581               -0.09592395                0.30572536                0.03653919                0.00749923               -0.01827827
               7.00000000                4.00000000               21.00000000                0.12385237               -0.09734118               -0.09504739                0.30952029                0.03492658                0.00752468               -0.02357768
               8.00000000                4.00000000               21.00000000                0.17193539               -0.09616289               -0.09669972                0.31354197                0.03371883                0.00576559               -0.02491438
               9.00000000                4.00000000               21.00000000                0.22897228               -0.09605198               -0.10122787                0.31798704                0.02416951                0.00268375               -0.02240920
              10.00000000                4.00000000               21.00000000                0.63424984               -0.09691509               -0.09372522                0.32298587                0.01125160                0.00127776               -0.01430160
               0.00000000                5.00000000               21.00000000                0.58435082               -0.07663466               -0.07640849                0.25259230                0.00139761               -0.00002552               -0.00245212
               1.00000000                5.00000000               21.00000000                0.09191271               -0.07675856               -0.07734390                0.25882704                0.00437696                0.00127038                0.00294378
               2.00000000                5.00000000               21.00000000                0.01000001               -0.04187650               -0.07911298                0.26518345                0.07505933               -0.06058884                0.00643183
               3.00000000                5.00000000               21.00000000                0.02064568               -0.04377272               -0.08819169                0.29257082                0.10941381               -0.08058423               -0.01628841
               4.00000000                5.00000000               21.00000000                0.04919975               -0.08897103               -0.09424177                0.30182351                0.04504948               -0.01709229               -0.00173339
               5.00000000                5.00000000               21.00000000                0.08336777               -0.09740845               -0.09740868                0.30705701                0.03143237               -0.00160557               -0.00160408
               6.00000000                5.00000000               21.00000000                0.12397862               -0.09717642               -0.09884768                0.31163533                0.02492961                0.00171348               -0.00583914
               7.00000000                5.00000000               21.00000000                0.17212421               -0.09638627               -0.10026425                0.31596740                0.02052038                0.00266950               -0.00830635
               8.00000000                5.00000000               21.00000000                0.22919394               -0.09600862               -0.10175475                0.32029067                0.01623010                0.00213607               -0.00888435
               9.00000000                5.00000000               21.00000000                0.29696995               -0.09751126               -0.10096213                0.32475119                0.00946211                0.00083348               -0.00730963
              10.00000000                5.00000000               21.00000000                0.67171333               -0.09897473               -0.09260854                0.32938039                0.00468489                0.00039202               -0.00305273
               0.00000000                6.00000000               21.00000000                0.63225438               -0.07870485               -0.07917741                0.25946865                0.00143555               -0.00007288               -0.00196465
               1.00000000                6.00000000               21.00000000                0.15566980               -0.07924344               -0.07849784                0.26557564                0.00409311                0.00050989                0.00258870
               2.00000000                6.00000000               21.00000000                0.02636905               -0.04584966               -0.07902869                0.27190060                0.06702504               -0.05430847                0.00450600
               3.00000000                6.00000000               21.00000000                0.04920917               -0.05245128               -0.09937711                0.29690013                0.08005701               -0.07284766                0.01321238
               4.00000000                6.00000000               21.00000000                0.08331263               -0.09591957               -0.09744406                0.30572125                0.03653229               -0.01828038                0.00750076
               5.00000000                6.00000000               21.00000000                0.12398027               -0.09884612               -0.09717586                0.31163332                0.02492781               -0.00584019                0.00171452
               6.00000000                6.00000000               21.00000000                0.17219327               -0.09840405               -0.09840441                0.31660266                0.01691318               -0.00121244               -0.00121157
               7.00000000                6.00000000               21.00000000                0.22931700               -0.09771019               -0.10009993                0.32116901                0.01137374                0.00058489               -0.00242765
               8.00000000                6.00000000               21.00000000                0.29710534               -0.09774481               -0.10121420                0.32560022                0.00709587                0.00081921               -0.00240778
               9.00000000                6.00000000               21.00000000                0.37783034               -0.09918189               -0.10042463                0.33003749                0.00339621                0.00033159               -0.00131851
              10.00000000                6.00000000               21.00000000                0.71628832               -0.10032480               -0.09633111                0.33450558                0.00141385                0.00017304                0.00071663
               0.00000000                7.00000000               21.00000000                0.69104376               -0.08074943               -0.08134728                0.26632904                0.00140613               -0.00007967               -0.00153122
               1.00000000                7.00000000               21.00000000                0.23459594               -0.08128989               -0.08036038                0.27236598                0.00321693               -0.00016970                0.00205884
               2.00000000                7.00000000               21.00000000                0.05979522               -0.05949353               -0.08126109                0.27874308                0.05505416               -0.04197676                0.00369404
               3.00000000                7.00000000               21.00000000                0.08338474               -0.06363613               -0.10247415                0.29934483                0.06170792               -0.06205838                0.01706294
               4.00000000                7.00000000               21.00000000                0.12385698               -0.09504257               -0.09733911                0.30951427                0.03491991               -0.02357942                0.00752589
               5.00000000                7.00000000               21.00000000                0.17212751               -0.10026184               -0.09638521                0.31596347                0.02051818               -0.00830707                0.00267016
               6.00000000                7.00000000               21.00000000                0.22931892               -0.10009887               -0.09770979                0.32116706                0.01137320               -0.00242794                0.00058540
               7.00000000                7.00000000               21.00000000                0.29714683               -0.09944962               -0.09944979                0.32583921                0.00590635               -0.00002071               -0.00002054
               8.00000000                7.00000000               21.00000000                0.37784284               -0.09955422               -0.10066988                0.33030411                0.00268306                0.00060062                0.00019811
               9.00000000                7.00000000               21.00000000                0.47433522               -0.10066227               -0.10083576                0.33472385                0.00092106                0.00035074                0.00089015
              10.00000000                7.00000000               21.00000000                0.76955243               -0.10147169               -0.09966491                0.33914149                0.00001674                0.00017660                0.00177834
               0.00000000                8.00000000               21.00000000                0.76201881               -0.08278823               -0.08303406                0.27322236                0.00127190               -0.00006966               -0.00132169
               1.00000000                8.00000000               21.00000000                0.33129523               -0.08333872               -0.08281971                0.27923333                0.00203230               -0.00057829                0.00153805
               2.00000000                8.00000000               21.00000000                0.10184095               -0.07179583               -0.08421554                0.28564543                0.04304249               -0.03251097                0.00306455
               3.00000000                8.00000000               21.00000000                0.12412266               -0.07563854               -0.10173215                0.30284133                0.05576039               -0.05181283                0.01220118
               4.00000000                8.00000000               21.00000000                0.17194232               -0.09669549               -0.09616039                0.31353403                0.03371253               -0.02491584                0.00576645
               5.00000000                8.00000000               21.00000000                0.22919960               -0.10175197               -0.09600701                0.32028493                0.01622817               -0.00888483                0.00213675
               6.00000000                8.00000000               21.00000000                0.29710949               -0.10121271               -0.09774376                0.32559649                0.00709544               -0.00240772                0.00081958
               7.00000000                8.00000000               21.00000000                0.37784515               -0.10066921               -0.09955368                0.33030218                0.00268298                0.00019831                0.00060078
               8.00000000                8.00000000               21.00000000                0.47427619               -0.10094664               -0.10094665                0.33477016                0.00063496                0.00087153                0.00087141
               9.00000000                8.00000000               21.00000000                0.59022720               -0.10194465               -0.10181701                0.33918114               -0.00004616                0.00055748                0.00131331
              10.00000000                8.00000000               21.00000000                0.83364401               -0.10259662               -0.10223096                0.34359463               -0.00057617                0.00025962                0.00167269
               0.00000000                9.00000000               21.00000000                0.84683523               -0.08488329               -0.08450036                0.28020453                0.00113110               -0.00003177               -0.00109573
               1.00000000                9.00000000               21.00000000                0.44921102               -0.08555255               -0.08545101                0.28620334                0.00108080               -0.00094652                0.00103377
               2.00000000                9.00000000               21.00000000                0.15490696               -0.08318215               -0.08670180                0.29262654                0.03336494               -0.02590733                0.00191971
               3.00000000                9.00000000               21.00000000                0.17266585               -0.09053947               -0.09497519                0.30734077                0.03654364               -0.04260376                0.00660544
               4.00000000                9.00000000               21.00000000                0.22898185               -0.10122448               -0.09604852                0.31797732                0.02416472               -0.02241054                0.00268418
               5.00000000                9.00000000               21.00000000                0.29697848               -0.10095970               -0.09750871                0.32474335                0.00946086               -0.00730976                0.00083385
               6.00000000                9.00000000               21.00000000                0.37783715               -0.10042303               -0.09918008                0.33003178                0.00339601               -0.00131795                0.00033180
               7.00000000                9.00000000               21.00000000                0.47434019               -0.10083473               -0.10066108                0.33472005                0.00092104                0.00089088                0.00035090
               8.00000000                9.00000000               21.00000000                0.59022985               -0.10181649               -0.10194404                0.33917919               -0.00004618                0.00131384                0.00055750
               9.00000000                9.00000000               21.00000000                0.73057467               -0.10307005               -0.10307002                0.34358701               -0.00022715                0.00079163                0.00079142
              10.00000000                9.00000000               21.00000000                0.91147845               -0.10373743               -0.10419232                0.34800804               -0.00076141                0.00035008                0.00091861
               0.00000000               10.00000000               21.00000000                0.95350348               -0.08737344               -0.08522358                0.28729070                0.00016227               -0.00091276               -0.00094633
               1.00000000               10.00000000               21.00000000                0.76624064               -0.08950705               -0.08672912                0.29329073                0.00019932               -0.00232340                0.00078321
               2.00000000               10.00000000               21.00000000                0.59609216               -0.11000678               -0.08766488                0.29973859                0.03066364               -0.02248678                0.00110295
               3.00000000               10.00000000               21.00000000                0.60335072               -0.11252935               -0.08972380                0.31307963                0.01682148               -0.03027835                0.00303941
               4.00000000               10.00000000               21.00000000                0.63425551               -0.09372593               -0.09691091                0.32297442                0.01124792               -0.01430325                0.00127791
               5.00000000               10.00000000               21.00000000                0.67171842               -0.09260801               -0.09897157                0.32937063                0.00468343               -0.00305249                0.00039214
               6.00000000               10.00000000               21.00000000                0.71629263               -0.09632985               -0.10032257                0.33449797                0.00141321                0.00071782                0.00017312
               7.00000000               10.00000000               21.00000000                0.76955582               -0.09966362               -0.10147019                0.33913587                0.00001636                0.00177974                0.00017672
               8.00000000               10.00000000               21.00000000                0.83364609               -0.10222994               -0.10259570                0.34359079               -0.00057649                0.00167382                0.00025966
               9.00000000               10.00000000               21.00000000                0.91147916               -0.10419175               -0.10373711                0.34800608               -0.00076173                0.00091928                0.00035001
              10.00000000               10.00000000               21.00000000                0.98123304               -0.10504111               -0.10504142                0.35243291               -0.00145887                0.00038307                0.00038268
               0.00000000                0.00000000               22.00000000                0.74947045               -0.06558651               -0.06558622                0.21784853                0.00251658               -0.00001759               -0.00001771
               1.00000000                0.00000000               22.00000000                0.49466766               -0.06448095               -0.06923073                0.22479333                0.00346111               -0.00050219                0.00013708
               2.00000000                0.00000000               22.00000000                0.49705961               -0.06534967               -0.07023943                0.23173554                0.00115221               -0.00178525                0.00038011
               3.00000000                0.00000000               22.00000000                0.51736321               -0.06925367               -0.07248915                0.23869759                0.00126589               -0.00251535                0.00020477
               4.00000000                0.00000000               22.00000000                0.54630779               -0.07293433               -0.07455738                0.24566467                0.00125872               -0.00272509                0.00008018
               5.00000000                0.00000000               22.00000000                0.58434339               -0.07617866               -0.07664718                0.25261045                0.00131879               -0.00250909               -0.00000571
               6.00000000                0.00000000               22.00000000                0.63225740               -0.07889830               -0.07871555                0.25953155                0.00135722               -0.00209788               -0.00004709
               7.00000000                0.00000000               22.00000000                0.69106688               -0.08110793               -0.08076381                0.26644797                0.00133896               -0.00169794               -0.00005126
               8.00000000                0.00000000               22.00000000                0.76206915               -0.08289748               -0.08280956                0.27339629                0.00122869               -0.00145651               -0.00003943
               9.00000000                0.00000000               22.00000000                0.84690924               -0.08448150               -0.08490309                0.28041692                0.00111644               -0.00114869                0.00000032
              10.00000000                0.00000000               22.00000000                0.95354366               -0.08525937               -0.08735887                0.28749886                0.00021438               -0.00093564               -0.00082664
               0.00000000                1.00000000               22.00000000                0.49466753               -0.06923045               -0.06448043                0.22479156                0.00346082                0.00013696               -0.00050221
               1.00000000                1.00000000               22.00000000                0.01000001               -0.07264418               -0.07264414                0.23172149                0.00704115                0.00039204                0.00039249
               2.00000000                1.00000000               22.00000000                0.01000000               -0.07628875               -0.06575052                0.23852693                0.01916885                0.00145296               -0.00459352
               3.00000000                1.00000000               22.00000000                0.01000001               -0.07652449               -0.06049406                0.24527037                0.02046898                0.00220995               -0.00867970
               4.00000000                1.00000000               22.00000000                0.04134615               -0.07673428               -0.07327469                0.25198281                0.00384837                0.00255955                0.00112165
               5.00000000                1.00000000               22.00000000                0.09190641               -0.07740752               -0.07685884                0.25869380                0.00357797                0.00251817                0.00130225
               6.00000000                1.00000000               22.00000000                0.15567600               -0.07865743               -0.07925423                0.26543107                0.00343252                0.00220242                0.00061068
               7.00000000                1.00000000               22.00000000                0.23462542               -0.08052784               -0.08129003                0.27222387                0.00273728                0.00174620                0.00000790
               8.00000000                1.00000000               22.00000000                0.33135495               -0.08292399               -0.08334573                0.27909831                0.00174646                0.00131906               -0.00035638
               9.00000000                1.00000000               22.00000000                0.44929392               -0.08547317               -0.08555194                0.28606541                0.00094141                0.00091286               -0.00069923
              10.00000000                1.00000000               22.00000000                0.76628397               -0.08671505               -0.08930201                0.29313540                0.00012223                0.00070378               -0.00200280
               0.00000000                2.00000000               22.00000000                0.49706016               -0.07023861               -0.06534869                0.23173199                0.00115196                0.00038013               -0.00178509
               1.00000000                2.00000000               22.00000000                0.01000000               -0.06575031               -0.07628809                0.23852508                0.01916907               -0.00459406                0.00145367
               2.00000000                2.00000000               22.00000000                0.01000001               -0.07177241               -0.07177161                0.24741109                0.05674321               -0.00922506               -0.00922448
               3.00000000                2.00000000               22.00000000                0.01000000               -0.09877250               -0.05416964                0.25569108                0.05471765                0.00746657               -0.02239861
               4.00000000                2.00000000               22.00000000                0.01000000               -0.09755802               -0.05115832                0.25846945                0.05514705                0.01641676               -0.03631938
               5.00000000                2.00000000               22.00000000                0.01000001               -0.07917143               -0.04595487                0.26473266                0.06632018                0.00581845               -0.05005140
               6.00000000                2.00000000               22.00000000                0.02635447               -0.07930950               -0.04979158                0.27142912                0.05912148                0.00417696               -0.04478691
               7.00000000                2.00000000               22.00000000                0.05978352               -0.08149396               -0.06231520                0.27825625                0.04847696                0.00346635               -0.03450323
               8.00000000                2.00000000               22.00000000                0.10183473               -0.08429620               -0.07361398                0.28514742                0.03784144                0.00289070               -0.02664032
               9.00000000                2.00000000               22.00000000                0.15490290               -0.08668860               -0.08404782                0.29211659                0.02931482                0.00181022               -0.02120706
              10.00000000                2.00000000               22.00000000                0.59608864               -0.08764270               -0.10797956                0.29923119                0.02692348                0.00101304               -0.01842430
               0.00000000                3.00000000               22.00000000                0.51736434               -0.07248786               -0.06925225                0.23869239                0.00126566                0.00020478               -0.00251519
               1.00000000                3.00000000               22.00000000                0.01000001               -0.06049250               -0.07652326                0.24526685                0.02046944               -0.00868072                0.00221051
               2.00000000                3.00000000               22.00000000                0.01000000               -0.05416903               -0.09877151                0.25568931                0.05471733               -0.02239990                0.00746823
               3.00000000                3.00000000               22.00000000                0.01000000               -0.06425395               -0.06425465                0.26664971                0.08797636               -0.03032883               -0.03033083
               4.00000000                3.00000000               22.00000000                0.01201516               -0.07432916               -0.04663850                0.27942742                0.10715466               -0.03374736               -0.06375544
               5.00000000                3.00000000               22.00000000                0.02060962               -0.08792289               -0.04805834                0.29145358                0.09719754               -0.01329013               -0.06726896
               6.00000000                3.00000000               22.00000000                0.04916403               -0.09792712               -0.05615663                0.29599707                0.07078543                0.01136966               -0.06070436
               7.00000000                3.00000000               22.00000000                0.08333419               -0.10068846               -0.06653321                0.29856123                0.05435901                0.01458916               -0.05150261
               8.00000000                3.00000000               22.00000000                0.12407001               -0.10005185               -0.07764889                0.30216337                0.04906615                0.01047571               -0.04280447
               9.00000000                3.00000000               22.00000000                0.17261075               -0.09412193               -0.09129660                0.30675905                0.03211886                0.00569197               -0.03500395
              10.00000000                3.00000000               22.00000000                0.60332203               -0.08951727               -0.11108662                0.31257442                0.01460509                0.00253065               -0.02439627
               0.00000000                4.00000000               22.00000000                0.54631032               -0.07455557               -0.07293243                0.24565776                0.00125847                0.00008018               -0.00272508
               1.00000000                4.00000000               22.00000000                0.04134974               -0.07327326               -0.07673252                0.25197757                0.00384856                0.00112200                0.00255984
               2.00000000                4.00000000               22.00000000                0.01000000               -0.05115228               -0.09755674                0.25846574                0.05514437               -0.03632334                0.01641777
               3.00000000                4.00000000               22.00000000                0.01201606               -0.04662985               -0.07433424                0.27942687                0.10715244               -0.06375841               -0.03374938
               4.00000000                4.00000000               22.00000000                0.02059900               -0.07682297               -0.07682685                0.29427621                0.06140943               -0.02946561               -0.02946644
               5.00000000                4.00000000               22.00000000                0.04913502               -0.09354247               -0.08883226                0.30089019                0.04019666               -0.00141756               -0.01450186
               6.00000000                4.00000000               22.00000000                0.08322867               -0.09652939               -0.09526397                0.30491308                0.03255564                0.00647853               -0.01547714
               7.00000000                4.00000000               22.00000000                0.12375882               -0.09654092               -0.09474275                0.30882788                0.03102942                0.00652620               -0.01979425
               8.00000000                4.00000000               22.00000000                0.17183464               -0.09559602               -0.09655069                0.31297279                0.02984452                0.00502355               -0.02074136
               9.00000000                4.00000000               22.00000000                0.22886482               -0.09560165               -0.10095204                0.31754217                0.02129853                0.00235329               -0.01840973
              10.00000000                4.00000000               22.00000000                0.63419476               -0.09641942               -0.09479881                0.32266650                0.00960150                0.00109627               -0.01134103
               0.00000000                5.00000000               22.00000000                0.58434737               -0.07664483               -0.07617622                0.25260176                0.00131854               -0.00000571               -0.00250919
               1.00000000                5.00000000               22.00000000                0.09191213               -0.07685681               -0.07740525                0.25868677                0.00357813                0.00130168                0.00251821
               2.00000000                5.00000000               22.00000000                0.01000001               -0.04594628               -0.07916953                0.26472798                0.06631332               -0.05005582                0.00581764
               3.00000000                5.00000000               22.00000000                0.02061168               -0.04804991               -0.08792737                0.29145024                0.09718429               -0.06727164               -0.01328584
               4.00000000                5.00000000               22.00000000                0.04913616               -0.08883123               -0.09354261                0.30088878                0.04019115               -0.01450083               -0.00141615
               5.00000000                5.00000000               22.00000000                0.08327237               -0.09659530               -0.09659555                0.30623614                0.02806646               -0.00136009               -0.00135904
               6.00000000                5.00000000               22.00000000                0.12385566               -0.09654669               -0.09808800                0.31093013                0.02223647                0.00152587               -0.00493858
               7.00000000                5.00000000               22.00000000                0.17198204               -0.09599162               -0.09957491                0.31538627                0.01826260                0.00237081               -0.00695918
               8.00000000                5.00000000               22.00000000                0.22904156               -0.09580300               -0.10115321                0.31983953                0.01439707                0.00191557               -0.00733286
               9.00000000                5.00000000               22.00000000                0.29681054               -0.09727910               -0.10074636                0.32443344                0.00835666                0.00077070               -0.00585267
              10.00000000                5.00000000               22.00000000                0.67163279               -0.09864627               -0.09373890                0.32920645                0.00393169                0.00036438               -0.00209104
               0.00000000                6.00000000               22.00000000                0.63226344               -0.07871266               -0.07889528                0.25952107                0.00135697               -0.00004709               -0.00209806
               1.00000000                6.00000000               22.00000000                0.15568447               -0.07925156               -0.07865468                0.26542225                0.00343252                0.00061013                0.00220226
               2.00000000                6.00000000               22.00000000                0.02635884               -0.04978709               -0.07930727                0.27142168                0.05911309               -0.04478822                0.00417681
               3.00000000                6.00000000               22.00000000                0.04916762               -0.05615039               -0.09792641                0.29599074                0.07076773               -0.06070647                0.01137381
               4.00000000                6.00000000               22.00000000                0.08323123               -0.09525993               -0.09652795                0.30490989                0.03254907               -0.01547940                0.00647978
               5.00000000                6.00000000               22.00000000                0.12385710               -0.09808651               -0.09654625                0.31092819                0.02223482               -0.00493945                0.00152664
               6.00000000                6.00000000               22.00000000                0.17203592               -0.09786502               -0.09786544                0.31601126                0.01507927               -0.00096000               -0.00095966
               7.00000000                6.00000000               22.00000000                0.22914040               -0.09740920               -0.09958975                0.32069893                0.01012534                0.00059626               -0.00194689
               8.00000000                6.00000000               22.00000000                0.29692555               -0.09760022               -0.10080319                0.32525730                0.00630153                0.00079441               -0.00184876
               9.00000000                6.00000000               22.00000000                0.37765688               -0.09903476               -0.10035088                0.32982579                0.00300507                0.00034400               -0.00081897
              10.00000000                6.00000000               22.00000000                0.71620674               -0.10012767               -0.09701794                0.33443653                0.00110931                0.00018236                0.00102367
               0.00000000                7.00000000               22.00000000                0.69107481               -0.08076038               -0.08110432                0.26643572                0.00133871               -0.00005126               -0.00169818
               1.00000000                7.00000000               22.00000000                0.23463709               -0.08128683               -0.08052465                0.27221328                0.00273718                0.00000739                0.00174590
               2.00000000                7.00000000               22.00000000                0.05978964               -0.06231242               -0.08149131                0.27824713                0.04846838               -0.03450511                0.00346617
               3.00000000                7.00000000               22.00000000                0.08333952               -0.06652888               -0.10068545                0.29855391                0.05434484               -0.05150463                0.01458977
               4.00000000                7.00000000               22.00000000                0.12376342               -0.09473811               -0.09653899                0.30882210                0.03102314               -0.01979586                0.00652711
               5.00000000                7.00000000               22.00000000                0.17198517               -0.09957254               -0.09599064                0.31538257                0.01826057               -0.00695996                0.00237166
               6.00000000                7.00000000               22.00000000                0.22914221               -0.09958870               -0.09740887                0.32069721                0.01012487               -0.00194705                0.00059672
               7.00000000                7.00000000               22.00000000                0.29696080               -0.09916932               -0.09916953                0.32548430                0.00525541                0.00011428                0.00011437
               8.00000000                7.00000000               22.00000000                0.37767750               -0.09942302               -0.10046244                0.33006782                0.00238356                0.00063156                0.00036005
               9.00000000                7.00000000               22.00000000                0.47421417               -0.10057185               -0.10082826                0.33460958                0.00081596                0.00037168                0.00102522
              10.00000000                7.00000000               22.00000000                0.76951054               -0.10137395               -0.10002869                0.33916017               -0.00009766                0.00018617                0.00186423
               0.00000000                8.00000000               22.00000000                0.76207962               -0.08280560               -0.08289327                0.27338224                0.00122842               -0.00003942               -0.00145664
               1.00000000                8.00000000               22.00000000                0.33137030               -0.08334204               -0.08292031                0.27908594                0.00174633               -0.00035670                0.00131880
               2.00000000                8.00000000               22.00000000                0.10184330               -0.07361172               -0.08429309                0.28513663                0.03783350               -0.02664227                0.00289046
               3.00000000                8.00000000               22.00000000                0.12407765               -0.07764590               -0.10004752                0.30215364                0.04905389               -0.04280702                0.01047616
               4.00000000                8.00000000               22.00000000                0.17184132               -0.09654652               -0.09559356                0.31296489                0.02983874               -0.02074281                0.00502412
               5.00000000                8.00000000               22.00000000                0.22904721               -0.10115047               -0.09580137                0.31983378                0.01439522               -0.00733306                0.00191611
               6.00000000                8.00000000               22.00000000                0.29692979               -0.10080168               -0.09759917                0.32525348                0.00630109               -0.00184862                0.00079481
               7.00000000                8.00000000               22.00000000                0.37767985               -0.10046176               -0.09942251                0.33006588                0.00238352                0.00036021                0.00063170
               8.00000000                8.00000000               22.00000000                0.47417744               -0.10086095               -0.10086095                0.33464150                0.00056335                0.00090265                0.00090255
               9.00000000                8.00000000               22.00000000                0.59024417               -0.10191073               -0.10183529                0.33916272               -0.00004116                0.00056688                0.00133014
              10.00000000                8.00000000               22.00000000                0.83369597               -0.10257446               -0.10241142                0.34369797               -0.00060889                0.00025740                0.00169120
               0.00000000                9.00000000               22.00000000                0.84692272               -0.08489856               -0.08447669                0.28040096                0.00111616                0.00000027               -0.00114867
               1.00000000                9.00000000               22.00000000                0.44931294               -0.08554775               -0.08546894                0.28605119                0.00094129               -0.00069963                0.00091274
               2.00000000                9.00000000               22.00000000                0.15491377               -0.08404553               -0.08668499                0.29210426                0.02930816               -0.02120950                0.00180996
               3.00000000                9.00000000               22.00000000                0.17262090               -0.09129420               -0.09411720                0.30674754                0.03211085               -0.03500693                0.00569194
               4.00000000                9.00000000               22.00000000                0.22887415               -0.10094855               -0.09559828                0.31753248                0.02129416               -0.01841112                0.00235377
               5.00000000                9.00000000               22.00000000                0.29681865               -0.10074393               -0.09727664                0.32442583                0.00835552               -0.00585263                0.00077086
               6.00000000                9.00000000               22.00000000                0.37766367               -0.10034923               -0.09903296                0.32982006                0.00300482               -0.00081829                0.00034411
               7.00000000                9.00000000               22.00000000                0.47421895               -0.10082719               -0.10057066                0.33460574                0.00081593                0.00102586                0.00037175
               8.00000000                9.00000000               22.00000000                0.59024663               -0.10183478               -0.10191014                0.33916087               -0.00004115                0.00133062                0.00056684
               9.00000000                9.00000000               22.00000000                0.73082227               -0.10310246               -0.10310243                0.34366775               -0.00020094                0.00079038                0.00079016
              10.00000000                9.00000000               22.00000000                0.91168562               -0.10377632               -0.10429590                0.34820208               -0.00077053                0.00033587                0.00092425
               0.00000000               10.00000000               22.00000000                0.95355130               -0.08735375               -0.08525427                0.28748103                0.00021380               -0.00082670               -0.00093561
               1.00000000               10.00000000               22.00000000                0.76629486               -0.08929706               -0.08671054                0.29311936                0.00012179               -0.00200323                0.00070370
               2.00000000               10.00000000               22.00000000                0.59609497               -0.10797380               -0.08763886                0.29921715                0.02691741               -0.01842730                0.00101285
               3.00000000               10.00000000               22.00000000                0.60332805               -0.11108354               -0.08951267                0.31256122                0.01460092               -0.02440050                0.00253047
               4.00000000               10.00000000               22.00000000                0.63420033               -0.09479903               -0.09641539                0.32265507                0.00959812               -0.01134276                0.00109648
               5.00000000               10.00000000               22.00000000                0.67163790               -0.09373821               -0.09864331                0.32919709                0.00393035               -0.00209081                0.00036432
               6.00000000               10.00000000               22.00000000                0.71621095               -0.09701660               -0.10012550                0.33442905                0.00110871                0.00102491                0.00018234
               7.00000000               10.00000000               22.00000000                0.76951368               -0.10002734               -0.10137243                0.33915450               -0.00009805                0.00186547                0.00018619
               8.00000000               10.00000000               22.00000000                0.83369811               -0.10241042               -0.10257360                0.34369427               -0.00060921                0.00169221                0.00025737
               9.00000000               10.00000000               22.00000000                0.91168622               -0.10429536               -0.10377603                0.34820021               -0.00077082                0.00092488                0.00033580
              10.00000000               10.00000000               22.00000000                0.98139169               -0.10512960               -0.10512989                0.35273653               -0.00149183                0.00036590                0.00036554
               0.00000000                0.00000000               23.00000000                0.74948178               -0.06568278               -0.06568251                0.21786588                0.00247626               -0.00002784               -0.00002792
               1.00000000                0.00000000               23.00000000                0.49467904               -0.06483502               -0.06914392                0.22480532                0.00313247               -0.00051036                0.00011417
               2.00000000                0.00000000               23.00000000                0.49706024               -0.06580997               -0.07029014                0.23173529                0.00111482               -0.00172273                0.00034154
               3.00000000                0.00000000               23.00000000                0.51736066               -0.06943287               -0.07251191                0.23868825                0.00120778               -0.00242301                0.00019102
               4.00000000                0.00000000               23.00000000                0.54630453               -0.07289190               -0.07457548                0.24565596                0.00120024               -0.00265699                0.00008360
               5.00000000                0.00000000               23.00000000                0.58434321               -0.07599689               -0.07665825                0.25261545                0.00125416               -0.00250058                0.00000903
               6.00000000                0.00000000               23.00000000                0.63226571               -0.07866452               -0.07872373                0.25956315                0.00129201               -0.00214793               -0.00002668
               7.00000000                0.00000000               23.00000000                0.69109015               -0.08089901               -0.08077325                0.26651396                0.00128235               -0.00177453               -0.00002883
               8.00000000                0.00000000               23.00000000                0.76211082               -0.08276835               -0.08282240                0.27349467                0.00119192               -0.00150909               -0.00001550
               9.00000000                0.00000000               23.00000000                0.84696466               -0.08444658               -0.08491161                0.28053377                0.00110343               -0.00114769                0.00002563
              10.00000000                0.00000000               23.00000000                0.95357196               -0.08526847               -0.08733466                0.28760197                0.00024468               -0.00089382               -0.00073133
               0.00000000                1.00000000               23.00000000                0.49467887               -0.06914367               -0.06483453                0.22480366                0.00313223                0.00011401               -0.00051036
               1.00000000                1.00000000               23.00000000                0.01000001               -0.07224170               -0.07224168                0.23172812                0.00610359                0.00028614                0.00028660
               2.00000000                1.00000000               23.00000000                0.01000000               -0.07569003               -0.06640676                0.23851568                0.01679000                0.00114830               -0.00362940
               3.00000000                1.00000000               23.00000000                0.01000001               -0.07618156               -0.06188720                0.24523446                0.01788995                0.00179282               -0.00684590
               4.00000000                1.00000000               23.00000000                0.04134558               -0.07662966               -0.07358126                0.25192225                0.00306847                0.00209910                0.00116194
               5.00000000                1.00000000               23.00000000                0.09191174               -0.07746874               -0.07695282                0.25861446                0.00290968                0.00206959                0.00125919
               6.00000000                1.00000000               23.00000000                0.15569391               -0.07880511               -0.07927244                0.26534205                0.00287306                0.00180897                0.00065407
               7.00000000                1.00000000               23.00000000                0.23466306               -0.08068249               -0.08129696                0.27213239                0.00232948                0.00143811                0.00014068
               8.00000000                1.00000000               23.00000000                0.33141651               -0.08302204               -0.08335465                0.27900476                0.00150360                0.00110605               -0.00016788
               9.00000000                1.00000000               23.00000000                0.44937139               -0.08549783               -0.08555007                0.28596029                0.00082213                0.00079123               -0.00047272
              10.00000000                1.00000000               23.00000000                0.76632372               -0.08670731               -0.08911833                0.29300686                0.00004003                0.00062143               -0.00167342
               0.00000000                2.00000000               23.00000000                0.49706060               -0.07028943               -0.06580904                0.23173198                0.00111458                0.00034156               -0.00172254
               1.00000000                2.00000000               23.00000000                0.01000000               -0.06640658               -0.07568945                0.23851407                0.01679026               -0.00362990                0.00114903
               2.00000000                2.00000000               23.00000000                0.01000001               -0.07202018               -0.07201964                0.24719604                0.05009130               -0.00734553               -0.00734478
               3.00000000                2.00000000               23.00000000                0.01000000               -0.09634804               -0.05646820                0.25531716                0.04824605                0.00631435               -0.01801686
               4.00000000                2.00000000               23.00000000                0.01000000               -0.09546262               -0.05397650                0.25819171                0.04861343                0.01381478               -0.02904013
               5.00000000                2.00000000               23.00000000                0.01000001               -0.07924343               -0.04946038                0.26444817                0.05866084                0.00512288               -0.03994151
               6.00000000                2.00000000               23.00000000                0.02635016               -0.07957887               -0.05315116                0.27112692                0.05224022                0.00377398               -0.03553553
               7.00000000                2.00000000               23.00000000                0.05978396               -0.08172366               -0.06466122                0.27793574                0.04278349                0.00317769               -0.02717945
               8.00000000                2.00000000               23.00000000                0.10184234               -0.08439737               -0.07505766                0.28480978                0.03335294                0.00266871               -0.02081676
               9.00000000                2.00000000               23.00000000                0.15491478               -0.08671154               -0.08464528                0.29176074                0.02580893                0.00167152               -0.01646285
              10.00000000                2.00000000               23.00000000                0.59609430               -0.08765901               -0.10604985                0.29886592                0.02362874                0.00091449               -0.01424149
               0.00000000                3.00000000               23.00000000                0.51736211               -0.07251065               -0.06943146                0.23868315                0.00120751                0.00019101               -0.00242281
               1.00000000                3.00000000               23.00000000                0.01000001               -0.06188568               -0.07618039                0.24523103                0.01789031               -0.00684670                0.00179338
               2.00000000                3.00000000               23.00000000                0.01000000               -0.05646740               -0.09634739                0.25531568                0.04824567               -0.01801814                0.00631488
               3.00000000                3.00000000               23.00000000                0.01000000               -0.06582214               -0.06582299                0.26598953                0.07819017               -0.02448567               -0.02448632
               4.00000000                3.00000000               23.00000000                0.01199914               -0.07522010               -0.05019664                0.27837463                0.09538577               -0.02703812               -0.05150758
               5.00000000                3.00000000               23.00000000                0.02058715               -0.08759890               -0.05168715                0.29025752                0.08641137               -0.01038089               -0.05430212
               6.00000000                3.00000000               23.00000000                0.04913627               -0.09660078               -0.05922959                0.29499661                0.06264211                0.00953916               -0.04880120
               7.00000000                3.00000000               23.00000000                0.08330338               -0.09912768               -0.06884729                0.29774120                0.04793900                0.01208139               -0.04108108
               8.00000000                3.00000000               23.00000000                0.12403854               -0.09864358               -0.07913692                0.30148844                0.04323282                0.00871399               -0.03382224
               9.00000000                3.00000000               23.00000000                0.17257795               -0.09349387               -0.09164430                0.30620055                0.02826823                0.00476111               -0.02731985
              10.00000000                3.00000000               23.00000000                0.60330499               -0.08948219               -0.10949174                0.31209287                0.01267378                0.00205496               -0.01831053
               0.00000000                4.00000000               23.00000000                0.54630694               -0.07457366               -0.07288997                0.24564908                0.00119999                0.00008360               -0.00265698
               1.00000000                4.00000000               23.00000000                0.04134897               -0.07357983               -0.07662794                0.25191703                0.00306846                0.00116093                0.00209937
               2.00000000                4.00000000               23.00000000                0.01000000               -0.05397063               -0.09546131                0.25818733                0.04861087               -0.02904303                0.01381585
               3.00000000                4.00000000               23.00000000                0.01200016               -0.05018814               -0.07522474                0.27837278                0.09538335               -0.05150923               -0.02703972
               4.00000000                4.00000000               23.00000000                0.02056980               -0.07761408               -0.07761788                0.29296879                0.05469518               -0.02378186               -0.02378180
               5.00000000                4.00000000               23.00000000                0.04909098               -0.09282958               -0.08860250                0.29976707                0.03582386               -0.00102480               -0.01182840
               6.00000000                4.00000000               23.00000000                0.08317089               -0.09565354               -0.09456297                0.30394810                0.02897203                0.00546215               -0.01262260
               7.00000000                4.00000000               23.00000000                0.12369058               -0.09580492               -0.09432860                0.30801807                0.02754871                0.00550822               -0.01595930
               8.00000000                4.00000000               23.00000000                0.17175811               -0.09510410               -0.09623476                0.31231555                0.02642380                0.00425490               -0.01650579
               9.00000000                4.00000000               23.00000000                0.22877976               -0.09524690               -0.10048058                0.31702990                0.01879354                0.00200288               -0.01432251
              10.00000000                4.00000000               23.00000000                0.63415067               -0.09604038               -0.09546043                0.32228806                0.00821764                0.00091680               -0.00822636
               0.00000000                5.00000000               23.00000000                0.58434723               -0.07665592               -0.07599444                0.25260688                0.00125392                0.00000903               -0.00250069
               1.00000000                5.00000000               23.00000000                0.09191754               -0.07695078               -0.07746652                0.25860755                0.00290981                0.00125906                0.00206962
               2.00000000                5.00000000               23.00000000                0.01000001               -0.04945235               -0.07924141                0.26444291                0.05865446               -0.03994525                0.00512327
               3.00000000                5.00000000               23.00000000                0.02058920               -0.05167897               -0.08760292                0.29025427                0.08639875               -0.05430507               -0.01037887
               4.00000000                5.00000000               23.00000000                0.04909228               -0.08860111               -0.09282945                0.29976450                0.03581840               -0.01182774               -0.00102351
               5.00000000                5.00000000               23.00000000                0.08320443               -0.09578301               -0.09578327                0.30523604                0.02503809               -0.00107300               -0.00107174
               6.00000000                5.00000000               23.00000000                0.12376524               -0.09591988               -0.09732358                0.31006959                0.01982009                0.00135323               -0.00399862
               7.00000000                5.00000000               23.00000000                0.17187412               -0.09559696               -0.09886788                0.31467591                0.01624857                0.00206952               -0.00557550
               8.00000000                5.00000000               23.00000000                0.22892119               -0.09559824               -0.10051440                0.31928360                0.01277648                0.00168004               -0.00574814
               9.00000000                5.00000000               23.00000000                0.29668005               -0.09707400               -0.10043245                0.32403112                0.00739170                0.00069132               -0.00436187
              10.00000000                5.00000000               23.00000000                0.67156641               -0.09836836               -0.09457156                0.32896163                0.00329754                0.00032818               -0.00107922
               0.00000000                6.00000000               23.00000000                0.63227154               -0.07872087               -0.07866153                0.25955283                0.00129177               -0.00002668               -0.00214806
               1.00000000                6.00000000               23.00000000                0.15570189               -0.07926981               -0.07880243                0.26533338                0.00287309                0.00065321                0.00180886
               2.00000000                6.00000000               23.00000000                0.02635455               -0.05314678               -0.07957680                0.27111986                0.05223245               -0.03553754                0.00377352
               3.00000000                6.00000000               23.00000000                0.04913981               -0.05922346               -0.09659996                0.29499026                0.06262588               -0.04880281                0.00954248
               4.00000000                6.00000000               23.00000000                0.08317375               -0.09455889               -0.09565186                0.30394386                0.02896575               -0.01262389                0.00546256
               5.00000000                6.00000000               23.00000000                0.12376674               -0.09732204               -0.09591937                0.31006761                0.01981836               -0.00399983                0.00135386
               6.00000000                6.00000000               23.00000000                0.17191687               -0.09731865               -0.09731904                0.31528175                0.01343996               -0.00068928               -0.00068863
               7.00000000                6.00000000               23.00000000                0.22900161               -0.09709461               -0.09907153                0.32011522                0.00901507                0.00060958               -0.00145164
               8.00000000                6.00000000               23.00000000                0.29677878               -0.09744304               -0.10037492                0.32482564                0.00560018                0.00075977               -0.00128375
               9.00000000                6.00000000               23.00000000                0.37751014               -0.09889443               -0.10021757                0.32954856                0.00266367                0.00034378               -0.00032342
              10.00000000                6.00000000               23.00000000                0.71613683               -0.09995308               -0.09753967                0.33432133                0.00084930                0.00018299                0.00131777
               0.00000000                7.00000000               23.00000000                0.69109826               -0.08076989               -0.08089545                0.26650193                0.00128210               -0.00002884               -0.00177467
               1.00000000                7.00000000               23.00000000                0.23467454               -0.08129384               -0.08067938                0.27212202                0.00232932                0.00014009                0.00143792
               2.00000000                7.00000000               23.00000000                0.05979014               -0.06465834               -0.08172122                0.27792712                0.04277570               -0.02718109                0.00317779
               3.00000000                7.00000000               23.00000000                0.08330878               -0.06884287               -0.09912476                0.29773353                0.04792625               -0.04108351                0.01208213
               4.00000000                7.00000000               23.00000000                0.12369499               -0.09432405               -0.09580300                0.30801218                0.02754279               -0.01596111                0.00550825
               5.00000000                7.00000000               23.00000000                0.17187742               -0.09886551               -0.09559590                0.31467205                0.01624647               -0.00557584                0.00206984
               6.00000000                7.00000000               23.00000000                0.22900366               -0.09907044               -0.09709423                0.32011323                0.00901455               -0.00145186                0.00060984
               7.00000000                7.00000000               23.00000000                0.29680932               -0.09887781               -0.09887802                0.32504139                0.00467865                0.00024797                0.00024815
               8.00000000                7.00000000               23.00000000                0.37753564               -0.09928279               -0.10024224                0.32977232                0.00211982                0.00065107                0.00051182
               9.00000000                7.00000000               23.00000000                0.47410348               -0.10048520               -0.10078952                0.33446391                0.00072475                0.00038042                0.00113684
              10.00000000                7.00000000               23.00000000                0.76947077               -0.10128936               -0.10031680                0.33917184               -0.00019894                0.00018867                0.00190975
               0.00000000                8.00000000               23.00000000                0.76212119               -0.08281852               -0.08276420                0.27348087                0.00119163               -0.00001554               -0.00150927
               1.00000000                8.00000000               23.00000000                0.33143156               -0.08335102               -0.08301843                0.27899262                0.00150338               -0.00016845                0.00110580
               2.00000000                8.00000000               23.00000000                0.10185064               -0.07505513               -0.08439431                0.28479906                0.03334577               -0.02081930                0.00266868
               3.00000000                8.00000000               23.00000000                0.12404597               -0.07913372               -0.09863953                0.30147888                0.04322176               -0.03382511                0.00871388
               4.00000000                8.00000000               23.00000000                0.17176465               -0.09623071               -0.09510180                0.31230806                0.02641847               -0.01650708                0.00425536
               5.00000000                8.00000000               23.00000000                0.22892672               -0.10051169               -0.09559663                0.31927783                0.01277471               -0.00574832                0.00168033
               6.00000000                8.00000000               23.00000000                0.29678270               -0.10037338               -0.09744200                0.32482182                0.00559969               -0.00128361                0.00075976
               7.00000000                8.00000000               23.00000000                0.37753778               -0.10024154               -0.09928228                0.32977041                0.00211973                0.00051207                0.00065110
               8.00000000                8.00000000               23.00000000                0.47408217               -0.10077014               -0.10077016                0.33448765                0.00050077                0.00091594                0.00091579
               9.00000000                8.00000000               23.00000000                0.59024165               -0.10188361               -0.10184590                0.33915221               -0.00003625                0.00056178                0.00131829
              10.00000000                8.00000000               23.00000000                0.83373278               -0.10256596               -0.10257262                0.34383781               -0.00064219                0.00024992                0.00166607
               0.00000000                9.00000000               23.00000000                0.84697772               -0.08490717               -0.08444185                0.28051809                0.00110315                0.00002563               -0.00114782
               1.00000000                9.00000000               23.00000000                0.44939061               -0.08554593               -0.08549367                0.28594629                0.00082198               -0.00047303                0.00079106
               2.00000000                9.00000000               23.00000000                0.15492548               -0.08464273               -0.08670790                0.29174835                0.02580287               -0.01646577                0.00167165
               3.00000000                9.00000000               23.00000000                0.17258793               -0.09164161               -0.09348943                0.30618924                0.02826087               -0.02732340                0.00476125
               4.00000000                9.00000000               23.00000000                0.22878893               -0.10047708               -0.09524372                0.31702046                0.01878955               -0.01432380                0.00200323
               5.00000000                9.00000000               23.00000000                0.29668818               -0.10043003               -0.09707165                0.32402371                0.00739063               -0.00436188                0.00069157
               6.00000000                9.00000000               23.00000000                0.37751673               -0.10021589               -0.09889269                0.32954291                0.00266338               -0.00032294                0.00034389
               7.00000000                9.00000000               23.00000000                0.47410826               -0.10078843               -0.10048406                0.33446015                0.00072471                0.00113756                0.00038052
               8.00000000                9.00000000               23.00000000                0.59024441               -0.10184537               -0.10188304                0.33915034               -0.00003626                0.00131879                0.00056183
               9.00000000                9.00000000               23.00000000                0.73101542               -0.10314542               -0.10314540                0.34379386               -0.00017785                0.00076949                0.00076939
              10.00000000                9.00000000               23.00000000                0.91185661               -0.10383349               -0.10441335                0.34847288               -0.00078483                0.00031726                0.00090261
               0.00000000               10.00000000               23.00000000                0.95357979               -0.08732964               -0.08526346                0.28758447                0.00024412               -0.00073130               -0.00089394
               1.00000000               10.00000000               23.00000000                0.76633440               -0.08911346               -0.08670287                0.29299107                0.00003963               -0.00167359                0.00062131
               2.00000000               10.00000000               23.00000000                0.59610052               -0.10604413               -0.08765511                0.29885184                0.02362316               -0.01424481                0.00091464
               3.00000000               10.00000000               23.00000000                0.60331088               -0.10948841               -0.08947783                0.31207980                0.01266984               -0.01831547                0.00205496
               4.00000000               10.00000000               23.00000000                0.63415623               -0.09546027               -0.09603655                0.32227676                0.00821452               -0.00822806                0.00091691
               5.00000000               10.00000000               23.00000000                0.67157141               -0.09457070               -0.09836557                0.32895253                0.00329631               -0.00107898                0.00032834
               6.00000000               10.00000000               23.00000000                0.71614101               -0.09753825               -0.09995096                0.33431385                0.00084874                0.00131871                0.00018312
               7.00000000               10.00000000               23.00000000                0.76947381               -0.10031543               -0.10128790                0.33916622               -0.00019932                0.00191094                0.00018877
               8.00000000               10.00000000               23.00000000                0.83373459               -0.10257159               -0.10256510                0.34383407               -0.00064250                0.00166702                0.00025003
               9.00000000               10.00000000               23.00000000                0.91185699               -0.10441279               -0.10383319                0.34847097               -0.00078513                0.00090306                0.00031730
              10.00000000               10.00000000               23.00000000                0.98152696               -0.10524345               -0.10524376                0.35314931               -0.00153456                0.00034397                0.00034374
               0.00000000                0.00000000               24.00000000                0.74949435               -0.06577366               -0.06577339                0.21790498                0.00244066               -0.00003899               -0.00003905
               1.00000000                0.00000000               24.00000000                0.49469250               -0.06515343               -0.06907403                0.22483603                0.00284886               -0.00052241                0.00009048
               2.00000000                0.00000000               24.00000000                0.49706300               -0.06622846               -0.07033702                0.23175235                0.00108557               -0.00166198                0.00030105
               3.00000000                0.00000000               24.00000000                0.51736101               -0.06961237               -0.07253431                0.23869281                0.00116196               -0.00232030                0.00017392
               4.00000000                0.00000000               24.00000000                0.54630418               -0.07287864               -0.07459336                0.24565431                0.00115424               -0.00256099                0.00008307
               5.00000000                0.00000000               24.00000000                0.58434440               -0.07585861               -0.07666960                0.25261729                0.00120246               -0.00244549                0.00001937
               6.00000000                0.00000000               24.00000000                0.63227277               -0.07847439               -0.07873170                0.25957768                0.00123896               -0.00213665               -0.00001112
               7.00000000                0.00000000               24.00000000                0.69110639               -0.08072201               -0.08078076                0.26654609                0.00123567               -0.00178406               -0.00001175
               8.00000000                0.00000000               24.00000000                0.76213728               -0.08265155               -0.08283072                0.27354185                0.00116130               -0.00150106                0.00000278
               9.00000000                0.00000000               24.00000000                0.84699524               -0.08440359               -0.08491393                0.28058473                0.00109222               -0.00110791                0.00004497
              10.00000000                0.00000000               24.00000000                0.95358615               -0.08526027               -0.08730678                0.28763338                0.00025832               -0.00083099               -0.00063208
               0.00000000                1.00000000               24.00000000                0.49469258               -0.06907377               -0.06515293                0.22483435                0.00284860                0.00009028               -0.00052234
               1.00000000                1.00000000               24.00000000                0.01000001               -0.07189791               -0.07189790                0.23175090                0.00529441                0.00017504                0.00017558
               2.00000000                1.00000000               24.00000000                0.01000000               -0.07517395               -0.06696183                0.23852584                0.01474482                0.00083149               -0.00276498
               3.00000000                1.00000000               24.00000000                0.01000001               -0.07588542               -0.06308076                0.24522872                0.01568310                0.00136049               -0.00517349
               4.00000000                1.00000000               24.00000000                0.04134847               -0.07654142               -0.07384546                0.25190101                0.00243914                0.00162619                0.00112780
               5.00000000                1.00000000               24.00000000                0.09192012               -0.07752654               -0.07703990                0.25858125                0.00236216                0.00161615                0.00116131
               6.00000000                1.00000000               24.00000000                0.15571264               -0.07893940               -0.07929705                0.26530128                0.00240851                0.00141946                0.00065303
               7.00000000                1.00000000               24.00000000                0.23469640               -0.08082317               -0.08131082                0.27208630                0.00198905                0.00113913                0.00023619
               8.00000000                1.00000000               24.00000000                0.33146622               -0.08311340               -0.08336717                0.27895076                0.00130057                0.00090043               -0.00001026
               9.00000000                1.00000000               24.00000000                0.44943002               -0.08552526               -0.08555004                0.28588967                0.00072152                0.00067066               -0.00026826
              10.00000000                1.00000000               24.00000000                0.76635222               -0.08670649               -0.08895948                0.29290998               -0.00004269                0.00053843               -0.00134667
               0.00000000                2.00000000               24.00000000                0.49706349               -0.07033628               -0.06622750                0.23174901                0.00108532                0.00030105               -0.00166181
               1.00000000                2.00000000               24.00000000                0.01000000               -0.06696157               -0.07517337                0.23852418                0.01474503               -0.00276553                0.00083221
               2.00000000                2.00000000               24.00000000                0.01000001               -0.07219751               -0.07219677                0.24701193                0.04434492               -0.00565994               -0.00565909
               3.00000000                2.00000000               24.00000000                0.01000000               -0.09419531               -0.05842704                0.25499366                0.04262206                0.00511622               -0.01396858
               4.00000000                2.00000000               24.00000000                0.01000000               -0.09362464               -0.05638657                0.25803002                0.04294709                0.01123728               -0.02222885
               5.00000000                2.00000000               24.00000000                0.01000001               -0.07932189               -0.05245280                0.26429505                0.05205402                0.00438327               -0.03035475
               6.00000000                2.00000000               24.00000000                0.02634963               -0.07983039               -0.05599332                0.27096099                0.04634025                0.00332471               -0.02668042
               7.00000000                2.00000000               24.00000000                0.05978807               -0.08194360               -0.06660081                0.27775277                0.03792684                0.00284751               -0.02011964
               8.00000000                2.00000000               24.00000000                0.10185298               -0.08451080               -0.07619822                0.28460690                0.02953498                0.00241307               -0.01514914
               9.00000000                2.00000000               24.00000000                0.15493011               -0.08676093               -0.08504478                0.29153634                0.02281947                0.00151350               -0.01178257
              10.00000000                2.00000000               24.00000000                0.59610196               -0.08770368               -0.10427547                0.29862409                0.02077632                0.00081234               -0.01005229
               0.00000000                3.00000000               24.00000000                0.51736228               -0.07253302               -0.06961094                0.23868772                0.00116172                0.00017392               -0.00232019
               1.00000000                3.00000000               24.00000000                0.01000001               -0.06307926               -0.07588428                0.24522530                0.01568365               -0.00517421                0.00136095
               2.00000000                3.00000000               24.00000000                0.01000000               -0.05842627               -0.09419465                0.25499176                0.04262159               -0.01396979                0.00511707
               3.00000000                3.00000000               24.00000000                0.01000000               -0.06712173               -0.06712266                0.26538120                0.06963716               -0.01903498               -0.01903674
               4.00000000                3.00000000               24.00000000                0.01198877               -0.07590757               -0.05321370                0.27738717                0.08511684               -0.02072278               -0.03987312
               5.00000000                3.00000000               24.00000000                0.02057250               -0.08724219               -0.05474107                0.28906055                0.07704935               -0.00761136               -0.04186874
               6.00000000                3.00000000               24.00000000                0.04911796               -0.09541127               -0.06176582                0.29397930                0.05561275                0.00774481               -0.03732975
               7.00000000                3.00000000               24.00000000                0.08328275               -0.09778479               -0.07068705                0.29693918                0.04242319                0.00959745               -0.03097816
               8.00000000                3.00000000               24.00000000                0.12401665               -0.09747882               -0.08022356                0.30085396                0.03823132                0.00695885               -0.02504227
               9.00000000                3.00000000               24.00000000                0.17255461               -0.09304464               -0.09171242                0.30569228                0.02497053                0.00383646               -0.01972353
              10.00000000                3.00000000               24.00000000                0.60329279               -0.08956433               -0.10787111                0.31165911                0.01101836                0.00161401               -0.01218318
               0.00000000                4.00000000               24.00000000                0.54630643               -0.07459160               -0.07287673                0.24564756                0.00115400                0.00008307               -0.00256092
               1.00000000                4.00000000               24.00000000                0.04135173               -0.07384415               -0.07653977                0.25189593                0.00243917                0.00112733                0.00162650
               2.00000000                4.00000000               24.00000000                0.01000000               -0.05638121               -0.09362360                0.25802864                0.04294464               -0.02223280                0.01123803
               3.00000000                4.00000000               24.00000000                0.01198961               -0.05320523               -0.07591214                0.27738572                0.08511413               -0.03987528               -0.02072468
               4.00000000                4.00000000               24.00000000                0.02055009               -0.07822055               -0.07822472                0.29163644                0.04879166               -0.01826663               -0.01826818
               5.00000000                4.00000000               24.00000000                0.04906082               -0.09213638               -0.08832224                0.29856559                0.03196629               -0.00059208               -0.00916316
               6.00000000                4.00000000               24.00000000                0.08313018               -0.09484128               -0.09386568                0.30292064                0.02580901                0.00446592               -0.00979221
               7.00000000                4.00000000               24.00000000                0.12364022               -0.09514272               -0.09386161                0.30716506                0.02449515                0.00449408               -0.01216875
               8.00000000                4.00000000               24.00000000                0.17169984               -0.09468283               -0.09582403                0.31162922                0.02345202                0.00348183               -0.01230872
               9.00000000                4.00000000               24.00000000                0.22871298               -0.09497057               -0.09990176                0.31649557                0.01663970                0.00164501               -0.01024647
              10.00000000                4.00000000               24.00000000                0.63411576               -0.09575476               -0.09582166                0.32188694                0.00706973                0.00074293               -0.00504756
               0.00000000                5.00000000               24.00000000                0.58434845               -0.07666731               -0.07585619                0.25260884                0.00120221                0.00001937               -0.00244552
               1.00000000                5.00000000               24.00000000                0.09192576               -0.07703786               -0.07752440                0.25857446                0.00236237                0.00116075                0.00161626
               2.00000000                5.00000000               24.00000000                0.01000001               -0.05244531               -0.07932003                0.26428948                0.05204804               -0.03035877                0.00438339
               3.00000000                5.00000000               24.00000000                0.02057455               -0.05473316               -0.08724601                0.28905720                0.07703740               -0.04187169               -0.00760848
               4.00000000                5.00000000               24.00000000                0.04906205               -0.08832045               -0.09213604                0.29856168                0.03196087               -0.00916230               -0.00059160
               5.00000000                5.00000000               24.00000000                0.08315582               -0.09500608               -0.09500636                0.30415937                0.02236473               -0.00076442               -0.00076447
               6.00000000                5.00000000               24.00000000                0.12369884               -0.09532148               -0.09658877                0.30914187                0.01769123                0.00119329               -0.00305261
               7.00000000                5.00000000               24.00000000                0.17179205               -0.09521874               -0.09817976                0.31390970                0.01448284                0.00177057               -0.00419314
               8.00000000                5.00000000               24.00000000                0.22882682               -0.09540251               -0.09987864                0.31868129                0.01136678                0.00143797               -0.00416848
               9.00000000                5.00000000               24.00000000                0.29657434               -0.09689563               -0.10006717                0.32358997                0.00656164                0.00060112               -0.00287061
              10.00000000                5.00000000               24.00000000                0.67151238               -0.09813613               -0.09517088                0.32868084                0.00276969                0.00028664               -0.00004090
               0.00000000                6.00000000               24.00000000                0.63227852               -0.07872889               -0.07847142                0.25956749                0.00123871               -0.00001112               -0.00213677
               1.00000000                6.00000000               24.00000000                0.15572046               -0.07929449               -0.07893678                0.26529277                0.00240856                0.00065245                0.00141938
               2.00000000                6.00000000               24.00000000                0.02635391               -0.05598914               -0.07982842                0.27095491                0.04633294               -0.02668269                0.00332482
               3.00000000                6.00000000               24.00000000                0.04912151               -0.06175983               -0.09541023                0.29397287                0.05559782               -0.03733245                0.00774756
               4.00000000                6.00000000               24.00000000                0.08313290               -0.09386150               -0.09483940                0.30291530                0.02580315               -0.00979355                0.00446695
               5.00000000                6.00000000               24.00000000                0.12370022               -0.09658715               -0.09532085                0.30913958                0.01768945               -0.00305275                0.00119358
               6.00000000                6.00000000               24.00000000                0.17182652               -0.09679051               -0.09679085                0.31449074                0.01200000               -0.00041112               -0.00041122
               7.00000000                6.00000000               24.00000000                0.22889293               -0.09678408               -0.09856995                0.31948005                0.00804397                0.00062407               -0.00095488
               8.00000000                6.00000000               24.00000000                0.29665911               -0.09728412               -0.09995347                0.32435338                0.00499066                0.00071806               -0.00072297
               9.00000000                6.00000000               24.00000000                0.37738748               -0.09876470               -0.10005039                0.32923985                0.00236995                0.00033397                0.00016418
              10.00000000                6.00000000               24.00000000                0.71607845               -0.09980107               -0.09792936                0.33418074                0.00063003                0.00017734                0.00160427
               0.00000000                7.00000000               24.00000000                0.69111457               -0.08077739               -0.08071846                0.26653410                0.00123541               -0.00001175               -0.00178422
               1.00000000                7.00000000               24.00000000                0.23470787               -0.08130770               -0.08082008                0.27207598                0.00198895                0.00023581                0.00113894
               2.00000000                7.00000000               24.00000000                0.05979420               -0.06659790               -0.08194122                0.27774415                0.03791975               -0.02012208                0.00284743
               3.00000000                7.00000000               24.00000000                0.08328816               -0.07068266               -0.09778168                0.29693044                0.04241139               -0.03098105                0.00959804
               4.00000000                7.00000000               24.00000000                0.12364469               -0.09385715               -0.09514079                0.30715886                0.02448953               -0.01217014                0.00449489
               5.00000000                7.00000000               24.00000000                0.17179518               -0.09817741               -0.09521767                0.31390569                0.01448077               -0.00419361                0.00177099
               6.00000000                7.00000000               24.00000000                0.22889476               -0.09856887               -0.09678365                0.31947794                0.00804346               -0.00095480                0.00062419
               7.00000000                7.00000000               24.00000000                0.29668611               -0.09859105               -0.09859124                0.32455830                0.00417552                0.00037958                0.00037939
               8.00000000                7.00000000               24.00000000                0.37741524               -0.09914241               -0.10002289                0.32944995                0.00189091                0.00066272                0.00065619
               9.00000000                7.00000000               24.00000000                0.47400520               -0.10040493               -0.10073171                0.33430413                0.00064675                0.00038051                0.00123415
              10.00000000                7.00000000               24.00000000                0.76943470               -0.10121746               -0.10054242                0.33917934               -0.00028709                0.00018606                0.00193154
               0.00000000                8.00000000               24.00000000                0.76214724               -0.08282686               -0.08264744                0.27352817                0.00116104                0.00000275               -0.00150123
               1.00000000                8.00000000               24.00000000                0.33148062               -0.08336360               -0.08310984                0.27893879                0.00130032               -0.00001082                0.00090019
               2.00000000                8.00000000               24.00000000                0.10186120               -0.07619570               -0.08450793                0.28459692                0.02952846               -0.01515187                0.00241280
               3.00000000                8.00000000               24.00000000                0.12402404               -0.08022031               -0.09747496                0.30084465                0.03822111               -0.02504544                0.00695909
               4.00000000                8.00000000               24.00000000                0.17170647               -0.09581991               -0.09468054                0.31162146                0.02344682               -0.01231016                0.00348212
               5.00000000                8.00000000               24.00000000                0.22883232               -0.09987587               -0.09540093                0.31867545                0.01136509               -0.00416874                0.00143827
               6.00000000                8.00000000               24.00000000                0.29666322               -0.09995194               -0.09728307                0.32434952                0.00499021               -0.00072272                0.00071829
               7.00000000                8.00000000               24.00000000                0.37741735               -0.10002221               -0.09914194                0.32944819                0.00189081                0.00065644                0.00066271
               8.00000000                8.00000000               24.00000000                0.47399499               -0.10067972               -0.10067977                0.33432341                0.00044670                0.00091827                0.00091812
               9.00000000                8.00000000               24.00000000                0.59022931               -0.10186223               -0.10185099                0.33914761               -0.00003162                0.00054721                0.00128957
              10.00000000                8.00000000               24.00000000                0.83375918               -0.10256705               -0.10271426                0.34399667               -0.00067435                0.00023893                0.00161443
               0.00000000                9.00000000               24.00000000                0.84700808               -0.08490959               -0.08439897                0.28056939                0.00109193                0.00004491               -0.00110798
               1.00000000                9.00000000               24.00000000                0.44944873               -0.08554600               -0.08552120                0.28587601                0.00072126               -0.00026877                0.00067053
               2.00000000                9.00000000               24.00000000                0.15494058               -0.08504214               -0.08675740                0.29152420                0.02281397               -0.01178578                0.00151348
               3.00000000                9.00000000               24.00000000                0.17256434               -0.09170962               -0.09304053                0.30568142                0.02496393               -0.01972738                0.00383645
               4.00000000                9.00000000               24.00000000                0.22872221               -0.09989820               -0.09496742                0.31648597                0.01663594               -0.01024794                0.00164512
               5.00000000                9.00000000               24.00000000                0.29658248               -0.10006462               -0.09689321                0.32358220                0.00656060               -0.00287065                0.00060132
               6.00000000                9.00000000               24.00000000                0.37739391               -0.10004869               -0.09876297                0.32923423                0.00236967                0.00016466                0.00033399
               7.00000000                9.00000000               24.00000000                0.47401004               -0.10073062               -0.10040380                0.33430039                0.00064666                0.00123471                0.00038052
               8.00000000                9.00000000               24.00000000                0.59023197               -0.10185043               -0.10186166                0.33914567               -0.00003162                0.00128995                0.00054718
               9.00000000                9.00000000               24.00000000                0.73116868               -0.10319369               -0.10319368                0.34394533               -0.00015776                0.00073659                0.00073643
              10.00000000                9.00000000               24.00000000                0.91199865               -0.10390059               -0.10453524                0.34878429               -0.00080199                0.00029633                0.00086376
               0.00000000               10.00000000               24.00000000                0.95359349               -0.08730188               -0.08525540                0.28761627                0.00025775               -0.00063215               -0.00083103
               1.00000000               10.00000000               24.00000000                0.76636276               -0.08895469               -0.08670216                0.29289450               -0.00004311               -0.00134713                0.00053835
               2.00000000               10.00000000               24.00000000                0.59610808               -0.10426989               -0.08769977                0.29860991                0.02077125               -0.01005603                0.00081234
               3.00000000               10.00000000               24.00000000                0.60329843               -0.10786775               -0.08956024                0.31164645                0.01101483               -0.01218835                0.00161388
               4.00000000               10.00000000               24.00000000                0.63412111               -0.09582112               -0.09575099                0.32187559                0.00706696               -0.00504936                0.00074297
               5.00000000               10.00000000               24.00000000                0.67151711               -0.09516974               -0.09813319                0.32867128                0.00276850               -0.00004080                0.00028682
               6.00000000               10.00000000               24.00000000                0.71608254               -0.09792789               -0.09979896                0.33417332                0.00062940                0.00160506                0.00017728
               7.00000000               10.00000000               24.00000000                0.76943796               -0.10054104               -0.10121598                0.33917363               -0.00028749                0.00193255                0.00018607
               8.00000000               10.00000000               24.00000000                0.83376117               -0.10271318               -0.10256614                0.34399274               -0.00067466                0.00161520                0.00023895
               9.00000000               10.00000000               24.00000000                0.91199913               -0.10453466               -0.10390027                0.34878232               -0.00080231                0.00086419                0.00029628
              10.00000000               10.00000000               24.00000000                0.98164249               -0.10536970               -0.10537002                0.35361889               -0.00158213                0.00031976                0.00031952
               0.00000000                0.00000000               25.00000000                0.74950796               -0.06585932               -0.06585901                0.21796671                0.00240954               -0.00005049               -0.00005054
               1.00000000                0.00000000               25.00000000                0.49470788               -0.06543519               -0.06902115                0.22488621                0.00260906               -0.00053737                0.00006698
               2.00000000                0.00000000               25.00000000                0.49706766               -0.06660115               -0.07038079                0.23178669                0.00106315               -0.00160565                0.00026053
               3.00000000                0.00000000               25.00000000                0.51736261               -0.06978561               -0.07255667                0.23871110                0.00112670               -0.00221485                0.00015494
               4.00000000                0.00000000               25.00000000                0.54630531               -0.07288726               -0.07461115                0.24566019                0.00111886               -0.00244899                0.00007959
               5.00000000                0.00000000               25.00000000                0.58434691               -0.07575700               -0.07668085                0.25261727                0.00116189               -0.00235948                0.00002603
               6.00000000                0.00000000               25.00000000                0.63227864               -0.07832263               -0.07873880                0.25957820                0.00119661               -0.00208276                0.00000021
               7.00000000                0.00000000               25.00000000                0.69111698               -0.08057413               -0.08078585                0.26655036                0.00119790               -0.00174624                0.00000070
               8.00000000                0.00000000               25.00000000                0.76215162               -0.08254722               -0.08283455                0.27354735                0.00113629               -0.00145043                0.00001621
               9.00000000                0.00000000               25.00000000                0.84700732               -0.08435532               -0.08491060                0.28058256                0.00108265               -0.00104159                0.00005904
              10.00000000                0.00000000               25.00000000                0.95358970               -0.08523870               -0.08727595                0.28760730                0.00025933               -0.00075490               -0.00053324
               0.00000000                1.00000000               25.00000000                0.49470812               -0.06902088               -0.06543465                0.22488442                0.00260877                0.00006679               -0.00053731
               1.00000000                1.00000000               25.00000000                0.01000001               -0.07161210               -0.07161207                0.23179032                0.00461074                0.00006359                0.00006408
               2.00000000                1.00000000               25.00000000                0.01000000               -0.07473944               -0.06742762                0.23855511                0.01301841                0.00051564               -0.00199155
               3.00000000                1.00000000               25.00000000                0.01000001               -0.07563538               -0.06409291                0.24524738                0.01382803                0.00093002               -0.00365289
               4.00000000                1.00000000               25.00000000                0.04135314               -0.07646834               -0.07406985                0.25190988                0.00194380                0.00115795                0.00104049
               5.00000000                1.00000000               25.00000000                0.09193019               -0.07757875               -0.07711841                0.25858173                0.00192406                0.00117138                0.00102613
               6.00000000                1.00000000               25.00000000                0.15573058               -0.07905751               -0.07932493                0.26529458                0.00203080                0.00104177                0.00061859
               7.00000000                1.00000000               25.00000000                0.23472536               -0.08094694               -0.08132865                0.27207159                0.00171034                0.00085239                0.00030109
               8.00000000                1.00000000               25.00000000                0.33150507               -0.08319510               -0.08338134                0.27892383                0.00113390                0.00070337                0.00011992
               9.00000000                1.00000000               25.00000000                0.44947209               -0.08555233               -0.08555074                0.28584274                0.00063802                0.00055279               -0.00008629
              10.00000000                1.00000000               25.00000000                0.76637105               -0.08670936               -0.08882338                0.29283488               -0.00012271                0.00045676               -0.00103179
               0.00000000                2.00000000               25.00000000                0.49706785               -0.07038003               -0.06660016                0.23178327                0.00106291                0.00026053               -0.00160544
               1.00000000                2.00000000               25.00000000                0.01000000               -0.06742736               -0.07473886                0.23855337                0.01301858               -0.00199205                0.00051635
               2.00000000                2.00000000               25.00000000                0.01000001               -0.07232379               -0.07232341                0.24686567                0.03946502               -0.00414930               -0.00414879
               3.00000000                2.00000000               25.00000000                0.01000000               -0.09232114               -0.06007954                0.25472563                0.03782423                0.00391568               -0.01024561
               4.00000000                2.00000000               25.00000000                0.01000000               -0.09203995               -0.05842652                0.25796327                0.03812056                0.00873813               -0.01589226
               5.00000000                2.00000000               25.00000000                0.01000001               -0.07940085               -0.05498040                0.26424032                0.04644737                0.00362981               -0.02133967
               6.00000000                2.00000000               25.00000000                0.02635136               -0.08005806               -0.05837356                0.27089741                0.04135955                0.00285004               -0.01829163
               7.00000000                2.00000000               25.00000000                0.05979424               -0.08214645               -0.06819084                0.27767195                0.03384519                0.00249254               -0.01339395
               8.00000000                2.00000000               25.00000000                0.10186519               -0.08462723               -0.07709212                0.28450606                0.02633440                0.00213648               -0.00970651
               9.00000000                2.00000000               25.00000000                0.15494706               -0.08682602               -0.08529912                0.29141218                0.02030836                0.00134362               -0.00723952
              10.00000000                2.00000000               25.00000000                0.59611081               -0.08776554               -0.10268829                0.29847620                0.01834793                0.00070964               -0.00593813
               0.00000000                3.00000000               25.00000000                0.51736413               -0.07255546               -0.06978417                0.23870610                0.00112645                0.00015492               -0.00221460
               1.00000000                3.00000000               25.00000000                0.01000001               -0.06409145               -0.07563428                0.24524406                0.01382826               -0.00365382                0.00093060
               2.00000000                3.00000000               25.00000000                0.01000000               -0.06007875               -0.09232058                0.25472422                0.03782394               -0.01024682                0.00391804
               3.00000000                3.00000000               25.00000000                0.01000000               -0.06819041               -0.06819143                0.26484212                0.06229069               -0.01397306               -0.01397379
               4.00000000                3.00000000               25.00000000                0.01198192               -0.07642972               -0.05574477                0.27648652                0.07630837               -0.01481333               -0.02891399
               5.00000000                3.00000000               25.00000000                0.02056303               -0.08687629               -0.05728634                0.28791560                0.06905872               -0.00500263               -0.03007833
               6.00000000                3.00000000               25.00000000                0.04910619               -0.09436411               -0.06384166                0.29299425                0.04964480                0.00600687               -0.02640592
               7.00000000                3.00000000               25.00000000                0.08326924               -0.09664552               -0.07213829                0.29618419                0.03775996                0.00717780               -0.02130737
               8.00000000                3.00000000               25.00000000                0.12400200               -0.09652682               -0.08100266                0.30027624                0.03401022                0.00524244               -0.01657845
               9.00000000                3.00000000               25.00000000                0.17253818               -0.09273267               -0.09159864                0.30524241                0.02219077                0.00293392               -0.01233181
              10.00000000                3.00000000               25.00000000                0.60328419               -0.08971841               -0.10631267                0.31127844                0.00962235                0.00120665               -0.00612967
               0.00000000                4.00000000               25.00000000                0.54630774               -0.07460940               -0.07288534                0.24565345                0.00111861                0.00007957               -0.00244889
               1.00000000                4.00000000               25.00000000                0.04135671               -0.07406840               -0.07646673                0.25190480                0.00194380                0.00104156                0.00115829
               2.00000000                4.00000000               25.00000000                0.01000000               -0.05842142               -0.09203877                0.25795917                0.03811815               -0.01589464                0.00873920
               3.00000000                4.00000000               25.00000000                0.01198288               -0.05573744               -0.07643410                0.27648591                0.07630686               -0.02891758               -0.01481477
               4.00000000                4.00000000               25.00000000                0.02053695               -0.07867670               -0.07868039                0.29034422                0.04370260               -0.01299645               -0.01299727
               5.00000000                4.00000000               25.00000000                0.04904028               -0.09148569               -0.08802021                0.29736073                0.02862941               -0.00014839               -0.00656384
               6.00000000                4.00000000               25.00000000                0.08310137               -0.09410702               -0.09320309                0.30189461                0.02307156                0.00350392               -0.00703986
               7.00000000                4.00000000               25.00000000                0.12360361               -0.09455860               -0.09338304                0.30632033                0.02186566                0.00350318               -0.00848483
               8.00000000                4.00000000               25.00000000                0.17165582               -0.09432650               -0.09537192                0.31095382                0.02091409                0.00271930               -0.00821959
               9.00000000                4.00000000               25.00000000                0.22866110               -0.09475791               -0.09928113                0.31597088                0.01481714                0.00128753               -0.00625054
              10.00000000                4.00000000               25.00000000                0.63408838               -0.09554340               -0.09596974                0.32148944                0.00613023                0.00057622               -0.00186951
               0.00000000                5.00000000               25.00000000                0.58435093               -0.07667860               -0.07575457                0.25260888                0.00116165                0.00002600               -0.00235955
               1.00000000                5.00000000               25.00000000                0.09193571               -0.07711642               -0.07757665                0.25857500                0.00192417                0.00102560                0.00117147
               2.00000000                5.00000000               25.00000000                0.01000001               -0.05497289               -0.07939908                0.26423538                0.04644163               -0.02134335                0.00362874
               3.00000000                5.00000000               25.00000000                0.02056501               -0.05727879               -0.08687962                0.28791208                0.06904830               -0.03008217               -0.00500192
               4.00000000                5.00000000               25.00000000                0.04904117               -0.08801897               -0.09148600                0.29735977                0.02862527               -0.00656346               -0.00014821
               5.00000000                5.00000000               25.00000000                0.08312147               -0.09428680               -0.09428711                0.30307619                0.02004927               -0.00044933               -0.00045033
               6.00000000                5.00000000               25.00000000                0.12364962               -0.09476819               -0.09590664                0.30820904                0.01585029                0.00104324               -0.00212178
               7.00000000                5.00000000               25.00000000                0.17172952               -0.09486802               -0.09753576                0.31313976                0.01296224                0.00147827               -0.00284014
               8.00000000                5.00000000               25.00000000                0.22875234               -0.09522122               -0.09927445                0.31807507                0.01016125                0.00119446               -0.00262171
               9.00000000                5.00000000               25.00000000                0.29648943               -0.09674268               -0.09968511                0.32314266                0.00585891                0.00050471               -0.00140256
              10.00000000                5.00000000               25.00000000                0.67146849               -0.09794429               -0.09558890                0.32838870                0.00233620                0.00024254                0.00100612
               0.00000000                6.00000000               25.00000000                0.63228440               -0.07873602               -0.07831966                0.25956808                0.00119636                0.00000020               -0.00208292
               1.00000000                6.00000000               25.00000000                0.15573865               -0.07932237               -0.07905493                0.26528614                0.00203081                0.00061853                0.00104168
               2.00000000                6.00000000               25.00000000                0.02635541               -0.05836917               -0.08005606                0.27089067                0.04135291               -0.01829478                0.00285005
               3.00000000                6.00000000               25.00000000                0.04910965               -0.06383579               -0.09436303                0.29298762                0.04963063               -0.02640963                0.00600845
               4.00000000                6.00000000               25.00000000                0.08310391               -0.09319942               -0.09410558                0.30189080                0.02306606               -0.00704035                0.00350540
               5.00000000                6.00000000               25.00000000                0.12365107               -0.09590520               -0.09476780                0.30820709                0.01584893               -0.00212139                0.00104340
               6.00000000                6.00000000               25.00000000                0.17175737               -0.09629814               -0.09629860                0.31369399                0.01075770               -0.00013471               -0.00013478
               7.00000000                6.00000000               25.00000000                0.22880733               -0.09648997               -0.09810219                0.31883876                0.00720915                0.00063872               -0.00046662
               8.00000000                6.00000000               25.00000000                0.29656272               -0.09713091               -0.09955580                0.32387490                0.00446977                0.00067226               -0.00017321
               9.00000000                6.00000000               25.00000000                0.37728598               -0.09864785               -0.09986862                0.32892454                0.00212135                0.00031715                0.00064180
              10.00000000                6.00000000               25.00000000                0.71603018               -0.09967106               -0.09821426                0.33403086                0.00044759                0.00016689                0.00188706
               0.00000000                7.00000000               25.00000000                0.69112477               -0.08078253               -0.08057061                0.26653850                0.00119765                0.00000070               -0.00174638
               1.00000000                7.00000000               25.00000000                0.23473635               -0.08132557               -0.08094391                0.27206143                0.00171026                0.00030052                0.00085226
               2.00000000                7.00000000               25.00000000                0.05980016               -0.06818784               -0.08214405                0.27766343                0.03383858               -0.01339739                0.00249232
               3.00000000                7.00000000               25.00000000                0.08327443               -0.07213395               -0.09664265                0.29617647                0.03774864               -0.02131080                0.00717883
               4.00000000                7.00000000               25.00000000                0.12360793               -0.09337876               -0.09455667                0.30631430                0.02186032               -0.00848554                0.00350391
               5.00000000                7.00000000               25.00000000                0.17173273               -0.09753346               -0.09486702                0.31313581                0.01296033               -0.00284000                0.00147840
               6.00000000                7.00000000               25.00000000                0.22880918               -0.09810110               -0.09648966                0.31883702                0.00720867               -0.00046647                0.00063864
               7.00000000                7.00000000               25.00000000                0.29658626               -0.09832029               -0.09832053                0.32407025                0.00374416                0.00050777                0.00050769
               8.00000000                7.00000000               25.00000000                0.37731416               -0.09900827               -0.09981413                0.32912459                0.00169555                0.00066940                0.00079476
               9.00000000                7.00000000               25.00000000                0.47392075               -0.10033276               -0.10066416                0.33414317                0.00058104                0.00037467                0.00132324
              10.00000000                7.00000000               25.00000000                0.76940374               -0.10115759               -0.10071689                0.33918536               -0.00036263                0.00017991                0.00194149
               0.00000000                8.00000000               25.00000000                0.76216176               -0.08283076               -0.08254318                0.27353389                0.00113604                0.00001622               -0.00145050
               1.00000000                8.00000000               25.00000000                0.33151982               -0.08337783               -0.08319162                0.27891210                0.00113372                0.00011967                0.00070327
               2.00000000                8.00000000               25.00000000                0.10187342               -0.07708954               -0.08462440                0.28449617                0.02632839               -0.00970974                0.00213659
               3.00000000                8.00000000               25.00000000                0.12400941               -0.08099937               -0.09652299                0.30026652                0.03400065               -0.01658266                0.00524336
               4.00000000                8.00000000               25.00000000                0.17166219               -0.09536793               -0.09432414                0.31094598                0.02090921               -0.00822106                0.00271964
               5.00000000                8.00000000               25.00000000                0.22875779               -0.09927177               -0.09521960                0.31806922                0.01015955               -0.00262173                0.00119443
               6.00000000                8.00000000               25.00000000                0.29656683               -0.09955421               -0.09712980                0.32387078                0.00446929               -0.00017278                0.00067220
               7.00000000                8.00000000               25.00000000                0.37731661               -0.09981338               -0.09900774                0.32912250                0.00169544                0.00079513                0.00066930
               8.00000000                8.00000000               25.00000000                0.47391769               -0.10059386               -0.10059388                0.33416027                0.00040078                0.00091441                0.00091431
               9.00000000                8.00000000               25.00000000                0.59021293               -0.10184606               -0.10185257                0.33914848               -0.00002734                0.00052716                0.00125195
              10.00000000                8.00000000               25.00000000                0.83377927               -0.10257498               -0.10283710                0.34416301               -0.00070437                0.00022599                0.00154826
               0.00000000                9.00000000               25.00000000                0.84702006               -0.08490631               -0.08435076                0.28056739                0.00108237                0.00005898               -0.00104167
               1.00000000                9.00000000               25.00000000                0.44949035               -0.08554676               -0.08554835                0.28582931                0.00063785               -0.00008676                0.00055263
               2.00000000                9.00000000               25.00000000                0.15495742               -0.08529648               -0.08682261                0.29140044                0.02030343               -0.00724299                0.00134332
               3.00000000                9.00000000               25.00000000                0.17254783               -0.09159582               -0.09272859                0.30523158                0.02218465               -0.01233650                0.00293419
               4.00000000                9.00000000               25.00000000                0.22866996               -0.09927759               -0.09475477                0.31596129                0.01481354               -0.00625247                0.00128769
               5.00000000                9.00000000               25.00000000                0.29649736               -0.09968255               -0.09674023                0.32313483                0.00585796               -0.00140248                0.00050472
               6.00000000                9.00000000               25.00000000                0.37729248               -0.09986687               -0.09864604                0.32891873                0.00212111                0.00064241                0.00031723
               7.00000000                9.00000000               25.00000000                0.47392538               -0.10066301               -0.10033155                0.33413919                0.00058091                0.00132379                0.00037452
               8.00000000                9.00000000               25.00000000                0.59021562               -0.10185201               -0.10184546                0.33914653               -0.00002737                0.00125232                0.00052708
               9.00000000                9.00000000               25.00000000                0.73129222               -0.10324399               -0.10324396                0.34410899               -0.00014057                0.00069705                0.00069693
              10.00000000                9.00000000               25.00000000                0.91211789               -0.10397205               -0.10465545                0.34911152               -0.00082042                0.00027448                0.00081507
               0.00000000               10.00000000               25.00000000                0.95359675               -0.08727109               -0.08523387                0.28759037                0.00025876               -0.00053334               -0.00075501
               1.00000000               10.00000000               25.00000000                0.76638149               -0.08881869               -0.08670511                0.29281968               -0.00012312               -0.00103237                0.00045655
               2.00000000               10.00000000               25.00000000                0.59611677               -0.10268297               -0.08776182                0.29846263                0.01834337               -0.00594208                0.00070927
               3.00000000               10.00000000               25.00000000                0.60328986               -0.10630933               -0.08971445                0.31126621                0.00961916               -0.00613540                0.00120665
               4.00000000               10.00000000               25.00000000                0.63409356               -0.09596891               -0.09553972                0.32147822                0.00612763               -0.00187189                0.00057622
               5.00000000               10.00000000               25.00000000                0.67147338               -0.09558759               -0.09794136                0.32837911                0.00233513                0.00100630                0.00024248
               6.00000000               10.00000000               25.00000000                0.71603401               -0.09821271               -0.09966895                0.33402350                0.00044704                0.00188786                0.00016701
               7.00000000               10.00000000               25.00000000                0.76940688               -0.10071546               -0.10115606                0.33917963               -0.00036305                0.00194224                0.00017980
               8.00000000               10.00000000               25.00000000                0.83378133               -0.10283604               -0.10257409                0.34415917               -0.00070472                0.00154896                0.00022590
               9.00000000               10.00000000               25.00000000                0.91211861               -0.10465490               -0.10397175                0.34910961               -0.00082072                0.00081542                0.00027447
              10.00000000               10.00000000               25.00000000                0.98174125               -0.10549956               -0.10549985                0.35410866               -0.00163102                0.00029478                0.00029462
               0.00000000                0.00000000               26.00000000                0.74952284               -0.06594007               -0.06593978                0.21805112                0.00238247               -0.00006192               -0.00006202
               1.00000000                0.00000000               26.00000000                0.49472591               -0.06568085               -0.06898479                0.22495574                0.00241066               -0.00055461                0.00004434
               2.00000000                0.00000000               26.00000000                0.49707355               -0.06692666               -0.07042210                0.23183785                0.00104640               -0.00155575                0.00022137
               3.00000000                0.00000000               26.00000000                0.51736660               -0.06994786               -0.07257935                0.23874270                0.00110026               -0.00211224                0.00013509
               4.00000000                0.00000000               26.00000000                0.54630793               -0.07291142               -0.07462883                0.24567357                0.00109235               -0.00233101                0.00007391
               5.00000000                0.00000000               26.00000000                0.58434965               -0.07568569               -0.07669182                0.25261666                0.00113081               -0.00225613                0.00002965
               6.00000000                0.00000000               26.00000000                0.63228277               -0.07820410               -0.07874481                0.25956797                0.00116352               -0.00200162                0.00000801
               7.00000000                0.00000000               26.00000000                0.69112252               -0.08045245               -0.08078846                0.26653268                0.00116794               -0.00167688                0.00000929
               8.00000000                0.00000000               26.00000000                0.76215655               -0.08245516               -0.08283417                0.27352005                0.00111618               -0.00137173                0.00002559
               9.00000000                0.00000000               26.00000000                0.84700581               -0.08430406               -0.08490217                0.28053853                0.00107450               -0.00095871                0.00006883
              10.00000000                0.00000000               26.00000000                0.95358489               -0.08520708               -0.08724261                0.28753591                0.00025118               -0.00067183               -0.00043752
               0.00000000                1.00000000               26.00000000                0.49472583               -0.06898451               -0.06568032                0.22495397                0.00241038                0.00004426               -0.00055445
               1.00000000                1.00000000               26.00000000                0.01000001               -0.07138180               -0.07138179                0.23184620                0.00404624               -0.00004495               -0.00004448
               2.00000000                1.00000000               26.00000000                0.01000000               -0.07438307               -0.06781507                0.23860135                0.01159008                0.00020974               -0.00129762
               3.00000000                1.00000000               26.00000000                0.01000001               -0.07542955               -0.06494078                0.24528559                0.01229881                0.00051351               -0.00227078
               4.00000000                1.00000000               26.00000000                0.04135954               -0.07640908               -0.07425709                0.25194087                0.00156537                0.00070578                0.00092266
               5.00000000                1.00000000               26.00000000                0.09194024               -0.07762411               -0.07718752                0.25860571                0.00158295                0.00074381                0.00086632
               6.00000000                1.00000000               26.00000000                0.15574726               -0.07915809               -0.07935367                0.26531066                0.00173102                0.00068125                0.00056076
               7.00000000                1.00000000               26.00000000                0.23474946               -0.08105231               -0.08134811                0.27207712                0.00148718                0.00058032                0.00034126
               8.00000000                1.00000000               26.00000000                0.33153519               -0.08326526               -0.08339545                0.27891383                0.00099995                0.00051605                0.00022674
               9.00000000                1.00000000               26.00000000                0.44950152               -0.08557659               -0.08555093                0.28581015                0.00057014                0.00043903                0.00007516
              10.00000000                1.00000000               26.00000000                0.76638247               -0.08671317               -0.08870759                0.29277273               -0.00019737                0.00037791               -0.00073329
               0.00000000                2.00000000               26.00000000                0.49707453               -0.07042130               -0.06692566                0.23183434                0.00104613                0.00022134               -0.00155535
               1.00000000                2.00000000               26.00000000                0.01000000               -0.06781470               -0.07438251                0.23859953                0.01159021               -0.00129813                0.00021051
               2.00000000                2.00000000               26.00000000                0.01000001               -0.07241430               -0.07241375                0.24675770                0.03539840               -0.00279265               -0.00279162
               3.00000000                2.00000000               26.00000000                0.01000000               -0.09072293               -0.06145612                0.25451203                0.03381329                0.00274657               -0.00682663
               4.00000000                2.00000000               26.00000000                0.01000000               -0.09069854               -0.06013048                0.25796352                0.03408999                0.00635014               -0.01001258
               5.00000000                2.00000000               26.00000000                0.01000001               -0.07947597               -0.05708665                0.26425749                0.04177664                0.00287988               -0.01290233
               6.00000000                2.00000000               26.00000000                0.02635398               -0.08025829               -0.06034063                0.27090644                0.03723041                0.00236851               -0.01039836
               7.00000000                2.00000000               26.00000000                0.05980142               -0.08232737               -0.06947872                0.27766378                0.03047484                0.00212669               -0.00703550
               8.00000000                2.00000000               26.00000000                0.10187788               -0.08473943               -0.07778372                0.28447801                0.02369804                0.00185107               -0.00452684
               9.00000000                2.00000000               26.00000000                0.15496427               -0.08689783               -0.08544774                0.29136015                0.01823665                0.00116924               -0.00287740
              10.00000000                2.00000000               26.00000000                0.59611978               -0.08783519               -0.10130427                0.29839604                0.01631948                0.00060935               -0.00195040
               0.00000000                3.00000000               26.00000000                0.51736806               -0.07257801               -0.06994640                0.23873754                0.00110000                0.00013507               -0.00211203
               1.00000000                3.00000000               26.00000000                0.01000001               -0.06493933               -0.07542846                0.24528209                0.01229925               -0.00227122                0.00051401
               2.00000000                3.00000000               26.00000000                0.01000000               -0.06145514               -0.09072222                0.25451018                0.03381268               -0.00682779                0.00274662
               3.00000000                3.00000000               26.00000000                0.01000000               -0.06905951               -0.06906051                0.26437716                0.05609931               -0.00928038               -0.00928072
               4.00000000                3.00000000               26.00000000                0.01197768               -0.07681705               -0.05784060                0.27568302                0.06889539               -0.00930064               -0.01865280
               5.00000000                3.00000000               26.00000000                0.02055721               -0.08651784               -0.05938059                0.28684920                0.06236588               -0.00256528               -0.01897699
               6.00000000                3.00000000               26.00000000                0.04909869               -0.09345981               -0.06552073                0.29207370                0.04467221                0.00433606               -0.01608562
               7.00000000                3.00000000               26.00000000                0.08326032               -0.09569485               -0.07326957                0.29549611                0.03389064                0.00485003               -0.01212913
               8.00000000                3.00000000               26.00000000                0.12399246               -0.09575987               -0.08154640                0.29976262                0.03051356                0.00358611               -0.00849704
               9.00000000                3.00000000               26.00000000                0.17252731               -0.09252468               -0.09137469                0.30485282                0.01989078                0.00206510               -0.00521721
              10.00000000                3.00000000               26.00000000                0.60327858               -0.08991066               -0.10487474                0.31095146                0.00846710                0.00083168               -0.00022594
               0.00000000                4.00000000               26.00000000                0.54631046               -0.07462699               -0.07290948                0.24566676                0.00109210                0.00007392               -0.00233092
               1.00000000                4.00000000               26.00000000                0.04136266               -0.07425568               -0.07640749                0.25193572                0.00156550                0.00092152                0.00070610
               2.00000000                4.00000000               26.00000000                0.01000000               -0.06012583               -0.09069772                0.25796199                0.03408779               -0.01001548                0.00635053
               3.00000000                4.00000000               26.00000000                0.01197854               -0.05783366               -0.07682071                0.27567984                0.06889370               -0.01865424               -0.00930234
               4.00000000                4.00000000               26.00000000                0.02052825               -0.07900978               -0.07901333                0.28913090                0.03940737               -0.00800734               -0.00800742
               5.00000000                4.00000000               26.00000000                0.04902593               -0.09089353               -0.08771805                0.29620865                0.02580341                0.00029044               -0.00407165
               6.00000000                4.00000000               26.00000000                0.08308087               -0.09345901               -0.09259629                0.30091628                0.02075118                0.00258355               -0.00439674
               7.00000000                4.00000000               26.00000000                0.12357675               -0.09405294               -0.09292153                0.30551800                0.01964716                0.00254618               -0.00494697
               8.00000000                4.00000000               26.00000000                0.17162222               -0.09402907               -0.09491659                0.31031624                0.01878865                0.00197874               -0.00428079
               9.00000000                4.00000000               26.00000000                0.22862100               -0.09459669               -0.09866527                0.31547699                0.01330328                0.00093769               -0.00237894
              10.00000000                4.00000000               26.00000000                0.63406698               -0.09539061               -0.09597099                0.32111312                0.00537422                0.00041839                0.00126241
               0.00000000                5.00000000               26.00000000                0.58435401               -0.07668946               -0.07568324                0.25260814                0.00113058                0.00002966               -0.00225614
               1.00000000                5.00000000               26.00000000                0.09194565               -0.07718550               -0.07762202                0.25859885                0.00158295                0.00086591                0.00074397
               2.00000000                5.00000000               26.00000000                0.01000001               -0.05707955               -0.07947432                0.26425309                0.04177162               -0.01290643                0.00288089
               3.00000000                5.00000000               26.00000000                0.02055917               -0.05937347               -0.08652085                0.28684580                0.06235669               -0.01897959               -0.00256490
               4.00000000                5.00000000               26.00000000                0.04902703               -0.08771690               -0.09089383                0.29620838                0.02579948               -0.00407072                0.00029040
               5.00000000                5.00000000               26.00000000                0.08309667               -0.09363928               -0.09363968                0.30203596                0.01808408               -0.00013926               -0.00013885
               6.00000000                5.00000000               26.00000000                0.12361345               -0.09427042               -0.09529193                0.30731383                0.01429075                0.00090334               -0.00122034
               7.00000000                5.00000000               26.00000000                0.17168164               -0.09455139               -0.09695213                0.31240151                0.01167873                0.00119517               -0.00153234
               8.00000000                5.00000000               26.00000000                0.22869410               -0.09505751               -0.09872107                0.31749429                0.00914995                0.00095411               -0.00112442
               9.00000000                5.00000000               26.00000000                0.29642138               -0.09661368               -0.09931120                0.32271268                0.00527497                0.00040470                0.00002694
              10.00000000                5.00000000               26.00000000                0.67143374               -0.09778843               -0.09586719                0.32810377                0.00198613                0.00019660                0.00204911
               0.00000000                6.00000000               26.00000000                0.63228834               -0.07874199               -0.07820115                0.25955788                0.00116332                0.00000803               -0.00200180
               1.00000000                6.00000000               26.00000000                0.15575499               -0.07935109               -0.07915556                0.26530224                0.00173105                0.00056020                0.00068118
               2.00000000                6.00000000               26.00000000                0.02635822               -0.06033630               -0.08025625                0.27089942                0.03722430               -0.01040219                0.00236863
               3.00000000                6.00000000               26.00000000                0.04910202               -0.06551511               -0.09345891                0.29206765                0.04465903               -0.01608910                0.00433796
               4.00000000                6.00000000               26.00000000                0.08308340               -0.09259285               -0.09345778                0.30091308                0.02074594               -0.00439696                0.00258307
               5.00000000                6.00000000               26.00000000                0.12361474               -0.09529051               -0.09427018                0.30731225                0.01428947               -0.00122015                0.00090316
               6.00000000                6.00000000               26.00000000                0.17170466               -0.09585252               -0.09585297                0.31292860                0.00970703                0.00013504                0.00013472
               7.00000000                6.00000000               26.00000000                0.22874028               -0.09622037               -0.09767912                0.31822260                0.00650518                0.00065227                0.00000741
               8.00000000                6.00000000               26.00000000                0.29648517               -0.09698850               -0.09919310                0.32341435                0.00403277                0.00062354                0.00036049
               9.00000000                6.00000000               26.00000000                0.37720310               -0.09854523               -0.09968629                0.32862052                0.00191476                0.00029566                0.00110769
              10.00000000                6.00000000               26.00000000                0.71599069               -0.09956228               -0.09841651                0.33388383                0.00029843                0.00015361                0.00216881
               0.00000000                7.00000000               26.00000000                0.69113018               -0.08078521               -0.08044901                0.26652107                0.00116773                0.00000932               -0.00167703
               1.00000000                7.00000000               26.00000000                0.23476014               -0.08134513               -0.08104937                0.27206724                0.00148710                0.00034079                0.00058024
               2.00000000                7.00000000               26.00000000                0.05980721               -0.06947574               -0.08232510                0.27765601                0.03046874               -0.00703898                0.00212692
               3.00000000                7.00000000               26.00000000                0.08326564               -0.07326536               -0.09569215                0.29548881                0.03388005               -0.01213313                0.00485102
               4.00000000                7.00000000               26.00000000                0.12358110               -0.09291744               -0.09405109                0.30551232                0.01964208               -0.00494815                0.00254649
               5.00000000                7.00000000               26.00000000                0.17168487               -0.09694982               -0.09455035                0.31239736                0.01167701               -0.00153220                0.00119518
               6.00000000                7.00000000               26.00000000                0.22874219               -0.09767802               -0.09622005                0.31822063                0.00650476                0.00000779                0.00065189
               7.00000000                7.00000000               26.00000000                0.29650568               -0.09807305               -0.09807326                0.32360141                0.00338120                0.00063179                0.00063145
               8.00000000                7.00000000               26.00000000                0.37723095               -0.09888473               -0.09962243                0.32881258                0.00153183                0.00067277                0.00092895
               9.00000000                7.00000000               26.00000000                0.47385000               -0.10026968               -0.10059375                0.33398998                0.00052655                0.00036494                0.00140852
              10.00000000                7.00000000               26.00000000                0.76937766               -0.10110901               -0.10084970                0.33919220               -0.00042633                0.00017142                0.00194753
               0.00000000                8.00000000               26.00000000                0.76216657               -0.08283044               -0.08245118                0.27350676                0.00111594                0.00002559               -0.00137187
               1.00000000                8.00000000               26.00000000                0.33154958               -0.08339200               -0.08326185                0.27890229                0.00099981                0.00022630                0.00051594
               2.00000000                8.00000000               26.00000000                0.10188569               -0.07778113               -0.08473660                0.28446810                0.02369260               -0.00453100                0.00185112
               3.00000000                8.00000000               26.00000000                0.12399971               -0.08154318               -0.09575619                0.29975315                0.03050474               -0.00850167                0.00358662
               4.00000000                8.00000000               26.00000000                0.17162871               -0.09491269               -0.09402669                0.31030833                0.01878418               -0.00428200                0.00197889
               5.00000000                8.00000000               26.00000000                0.22869941               -0.09871840               -0.09505584                0.31748824                0.00914835               -0.00112461                0.00095404
               6.00000000                8.00000000               26.00000000                0.29648877               -0.09919156               -0.09698747                0.32341052                0.00403226                0.00036081                0.00062331
               7.00000000                8.00000000               26.00000000                0.37723309               -0.09962171               -0.09888421                0.32881055                0.00153173                0.00092953                0.00067250
               8.00000000                8.00000000               26.00000000                0.47385103               -0.10051554               -0.10051558                0.33400713                0.00036251                0.00090817                0.00090778
               9.00000000                8.00000000               26.00000000                0.59019667               -0.10183484               -0.10185250                0.33915543               -0.00002356                0.00050438                0.00121154
              10.00000000                8.00000000               26.00000000                0.83379557               -0.10258797               -0.10294266                0.34432979               -0.00073180                0.00021205                0.00147660
               0.00000000                9.00000000               26.00000000                0.84701815               -0.08489793               -0.08429954                0.28052351                0.00107426                0.00006877               -0.00095886
               1.00000000                9.00000000               26.00000000                0.44951906               -0.08554701               -0.08557266                0.28579695                0.00057006                0.00007459                0.00043887
               2.00000000                9.00000000               26.00000000                0.15497453               -0.08544510               -0.08689446                0.29134880                0.01823214               -0.00288151                0.00116912
               3.00000000                9.00000000               26.00000000                0.17253675               -0.09137187               -0.09252075                0.30484218                0.01988514               -0.00522247                0.00206578
               4.00000000                9.00000000               26.00000000                0.22862966               -0.09866182               -0.09459364                0.31546762                0.01330004               -0.00238099                0.00093766
               5.00000000                9.00000000               26.00000000                0.29642908               -0.09930868               -0.09661136                0.32270519                0.00527390                0.00002693                0.00040459
               6.00000000                9.00000000               26.00000000                0.37720986               -0.09968453               -0.09854344                0.32861464                0.00191445                0.00110822                0.00029587
               7.00000000                9.00000000               26.00000000                0.47385422               -0.10059262               -0.10026851                0.33398618                0.00052649                0.00140908                0.00036495
               8.00000000                9.00000000               26.00000000                0.59019963               -0.10185193               -0.10183425                0.33915346               -0.00002363                0.00121199                0.00050428
               9.00000000                9.00000000               26.00000000                0.73139502               -0.10329422               -0.10329422                0.34427633               -0.00012617                0.00065513                0.00065500
              10.00000000                9.00000000               26.00000000                0.91221916               -0.10404412               -0.10477013                0.34943791               -0.00083891                0.00025300                0.00076224
               0.00000000               10.00000000               26.00000000                0.95359196               -0.08723785               -0.08520229                0.28751923                0.00025062               -0.00043761               -0.00067200
               1.00000000               10.00000000               26.00000000                0.76639292               -0.08870304               -0.08670899                0.29275792               -0.00019775               -0.00073392                0.00037771
               2.00000000               10.00000000               26.00000000                0.59612581               -0.10129917               -0.08783162                0.29838320                0.01631527               -0.00195477                0.00060917
               3.00000000               10.00000000               26.00000000                0.60328400               -0.10487139               -0.08990682                0.31093944                0.00846415               -0.00023228                0.00083195
               4.00000000               10.00000000               26.00000000                0.63407225               -0.09597005               -0.09538709                0.32110233                0.00537181                0.00125962                0.00041827
               5.00000000               10.00000000               26.00000000                0.67143841               -0.09586583               -0.09778574                0.32809475                0.00198507                0.00204918                0.00019644
               6.00000000               10.00000000               26.00000000                0.71599483               -0.09841486               -0.09956007                0.33387611                0.00029790                0.00216952                0.00015385
               7.00000000               10.00000000               26.00000000                0.76938087               -0.10084828               -0.10110754                0.33918671               -0.00042672                0.00194808                0.00017145
               8.00000000               10.00000000               26.00000000                0.83379732               -0.10294161               -0.10258708                0.34432599               -0.00073216                0.00147712                0.00021202
               9.00000000               10.00000000               26.00000000                0.91221986               -0.10476953               -0.10404381                0.34943588               -0.00083925                0.00076245                0.00025302
              10.00000000               10.00000000               26.00000000                0.98182595               -0.10562690               -0.10562724                0.35459339               -0.00167866                0.00027038                0.00027034
               0.00000000                0.00000000               27.00000000                0.74953917               -0.06601633               -0.06601605                0.21815744                0.00235913               -0.00007332               -0.00007332
               1.00000000                0.00000000               27.00000000                0.49474498               -0.06589210               -0.06896408                0.22504421                0.00225054               -0.00057387                0.00002302
               2.00000000                0.00000000               27.00000000                0.49708166               -0.06720561               -0.07046166                0.23190530                0.00103413               -0.00151379                0.00018448
               3.00000000                0.00000000               27.00000000                0.51737200               -0.07009589               -0.07260225                0.23878651                0.00108099               -0.00201729                0.00011523
               4.00000000                0.00000000               27.00000000                0.54631180               -0.07294583               -0.07464620                0.24569407                0.00107316               -0.00221464                0.00006681
               5.00000000                0.00000000               27.00000000                0.58435318               -0.07563898               -0.07670227                0.25261643                0.00110774               -0.00214550                0.00003090
               6.00000000                0.00000000               27.00000000                0.63228555               -0.07811404               -0.07874960                0.25954998                0.00113837               -0.00190551                0.00001291
               7.00000000                0.00000000               27.00000000                0.69112435               -0.08035408               -0.08078864                0.26649837                0.00114471               -0.00158876                0.00001470
               8.00000000                0.00000000               27.00000000                0.76215472               -0.08237486               -0.08282981                0.27346747                0.00110027               -0.00127653                0.00003164
               9.00000000                0.00000000               27.00000000                0.84699464               -0.08425151               -0.08488901                0.28046210                0.00106755               -0.00086713                0.00007509
              10.00000000                0.00000000               27.00000000                0.95357476               -0.08516808               -0.08720707                0.28742951                0.00023678               -0.00058664               -0.00034696
               0.00000000                1.00000000               27.00000000                0.49474490               -0.06896380               -0.06589158                0.22504250                0.00225025                0.00002291               -0.00057376
               1.00000000                1.00000000               27.00000000                0.01000001               -0.07120351               -0.07120352                0.23191819                0.00359211               -0.00014865               -0.00014827
               2.00000000                1.00000000               27.00000000                0.01000000               -0.07409994               -0.06813361                0.23866280                0.01043592               -0.00008065               -0.00067119
               3.00000000                1.00000000               27.00000000                0.01000001               -0.07526513               -0.06563999                0.24533873                0.01106772                0.00011806               -0.00100979
               4.00000000                1.00000000               27.00000000                0.04136642               -0.07636232               -0.07441028                0.25198728                0.00128730                0.00027702                0.00078335
               5.00000000                1.00000000               27.00000000                0.09195023               -0.07766209               -0.07724685                0.25864491                0.00132629                0.00033937                0.00069460
               6.00000000                1.00000000               27.00000000                0.15576185               -0.07924092               -0.07938140                0.26534057                0.00150026                0.00034112                0.00048681
               7.00000000                1.00000000               27.00000000                0.23476849               -0.08113885               -0.08136735                0.27209412                0.00131346                0.00032419                0.00036219
               8.00000000                1.00000000               27.00000000                0.33155713               -0.08332278               -0.08340798                0.27891237                0.00089515                0.00033907                0.00031371
               9.00000000                1.00000000               27.00000000                0.44951858               -0.08559612               -0.08554941                0.28578405                0.00051644                0.00033031                0.00021749
              10.00000000                1.00000000               27.00000000                0.76638762               -0.08671567               -0.08860949                0.29271612               -0.00026479                0.00030277               -0.00045468
               0.00000000                2.00000000               27.00000000                0.49708198               -0.07046083               -0.06720462                0.23190187                0.00103387                0.00018453               -0.00151348
               1.00000000                2.00000000               27.00000000                0.01000000               -0.06813321               -0.07409940                0.23866101                0.01043602               -0.00067161               -0.00008001
               2.00000000                2.00000000               27.00000000                0.01000001               -0.07247965               -0.07247949                0.24668523                0.03208414               -0.00156649               -0.00156621
               3.00000000                2.00000000               27.00000000                0.01000000               -0.08939110               -0.06258333                0.25434813                0.03053774                0.00162228               -0.00368331
               4.00000000                2.00000000               27.00000000                0.01000000               -0.08958755               -0.06152894                0.25801098                0.03080243                0.00409220               -0.00456184
               5.00000000                2.00000000               27.00000000                0.01000001               -0.07954427               -0.05881106                0.26432452                0.03797206                0.00215439               -0.00503072
               6.00000000                2.00000000               27.00000000                0.02635730               -0.08042920               -0.06193755                0.27096338                0.03388261                0.00189174               -0.00299772
               7.00000000                2.00000000               27.00000000                0.05980849               -0.08248364               -0.07050329                0.27770495                0.02775303                0.00176170               -0.00104922
               8.00000000                2.00000000               27.00000000                0.10188998               -0.08484204               -0.07830740                0.28449821                0.02157441                0.00156569                0.00037614
               9.00000000                2.00000000               27.00000000                0.15498069               -0.08696929               -0.08551912                0.29135639                0.01656535                0.00099556                0.00128240
              10.00000000                2.00000000               27.00000000                0.59612835               -0.08790531               -0.10012721                0.29836141                0.01466322                0.00051329                0.00188230
               0.00000000                3.00000000               27.00000000                0.51737319               -0.07260097               -0.07009445                0.23878152                0.00108077                0.00011528               -0.00201696
               1.00000000                3.00000000               27.00000000                0.01000001               -0.06563851               -0.07526408                0.24533537                0.01106775               -0.00101080                0.00011864
               2.00000000                3.00000000               27.00000000                0.01000000               -0.06258269               -0.08939079                0.25434686                0.03053748               -0.00368424                0.00162612
               3.00000000                3.00000000               27.00000000                0.01000000               -0.06975395               -0.06975472                0.26398341                0.05099775               -0.00493089               -0.00493296
               4.00000000                3.00000000               27.00000000                0.01197499               -0.07709329               -0.05954503                0.27497487                0.06279287               -0.00417028               -0.00906912
               5.00000000                3.00000000               27.00000000                0.02055340               -0.08617968               -0.06107315                0.28588154                0.05688328               -0.00029413               -0.00856800
               6.00000000                3.00000000               27.00000000                0.04909406               -0.09269520               -0.06685545                0.29123835                0.04062267                0.00274734               -0.00637962
               7.00000000                3.00000000               27.00000000                0.08325499               -0.09491696               -0.07413461                0.29488353                0.03075382                0.00262895               -0.00346242
               8.00000000                3.00000000               27.00000000                0.12398643               -0.09515421               -0.08190920                0.29931626                0.02768321                0.00200178               -0.00082446
               9.00000000                3.00000000               27.00000000                0.17252062               -0.09239491               -0.09109119                0.30452109                0.01803131                0.00123684                0.00158484
              10.00000000                3.00000000               27.00000000                0.60327501               -0.09011627               -0.10359224                0.31067399                0.00753303                0.00048665                0.00548533
               0.00000000                4.00000000               27.00000000                0.54631392               -0.07464450               -0.07294393                0.24568751                0.00107294                0.00006684               -0.00221458
               1.00000000                4.00000000               27.00000000                0.04137036               -0.07440893               -0.07636079                0.25198236                0.00128705                0.00078635                0.00027732
               2.00000000                4.00000000               27.00000000                0.01000000               -0.06152469               -0.08958630                0.25800640                0.03080047               -0.00456570                0.00409339
               3.00000000                4.00000000               27.00000000                0.01197555               -0.05953848               -0.07709732                0.27497709                0.06279194               -0.00907421               -0.00417202
               4.00000000                4.00000000               27.00000000                0.02052259               -0.07924317               -0.07924686                0.28802204                0.03586737               -0.00331054               -0.00331258
               5.00000000                4.00000000               27.00000000                0.04901616               -0.09036823               -0.08742998                0.29514295                0.02346569                0.00071595               -0.00169824
               6.00000000                4.00000000               27.00000000                0.08306645               -0.09289973               -0.09205726                0.30001265                0.01883021                0.00170716               -0.00188126
               7.00000000                4.00000000               27.00000000                0.12355713               -0.09362395               -0.09249576                0.30478081                0.01781901                0.00163022               -0.00157618
               8.00000000                4.00000000               27.00000000                0.17159750               -0.09378475               -0.09448356                0.30973318                0.01704965                0.00126696               -0.00051501
               9.00000000                4.00000000               27.00000000                0.22859024               -0.09447695               -0.09808543                0.31502689                0.01207486                0.00059851                0.00134394
              10.00000000                4.00000000               27.00000000                0.63405084               -0.09528389               -0.09587445                0.32076914                0.00477991                0.00026894                0.00432059
               0.00000000                5.00000000               27.00000000                0.58435665               -0.07670008               -0.07563658                0.25260823                0.00110751                0.00003094               -0.00214559
               1.00000000                5.00000000               27.00000000                0.09195573               -0.07724487               -0.07766007                0.25863836                0.00132645                0.00069480                0.00033949
               2.00000000                5.00000000               27.00000000                0.01000001               -0.05880437               -0.07954234                0.26431854                0.03796709               -0.00503426                0.00215127
               3.00000000                5.00000000               27.00000000                0.02055536               -0.06106639               -0.08618268                0.28588115                0.05687452               -0.00857158               -0.00029339
               4.00000000                5.00000000               27.00000000                0.04901730               -0.08742865               -0.09036848                0.29514062                0.02346220               -0.00169756                0.00071551
               5.00000000                5.00000000               27.00000000                0.08307872               -0.09307157               -0.09307191                0.30107291                0.01645522                0.00016196                0.00016187
               6.00000000                5.00000000               27.00000000                0.12358643               -0.09383381               -0.09475242                0.30648414                0.01300008                0.00077120               -0.00035785
               7.00000000                5.00000000               27.00000000                0.17164548               -0.09427232               -0.09643807                0.31171763                0.01062039                0.00092374               -0.00028014
               8.00000000                5.00000000               27.00000000                0.22864872               -0.09491282               -0.09822967                0.31695659                0.00832087                0.00071975                0.00031269
               9.00000000                5.00000000               27.00000000                0.29636784               -0.09650672               -0.09896206                0.32231495                0.00480039                0.00030378                0.00140898
              10.00000000                5.00000000               27.00000000                0.67140633               -0.09766437               -0.09603807                0.32783865                0.00170960                0.00015048                0.00308012
               0.00000000                6.00000000               27.00000000                0.63229086               -0.07874694               -0.07811115                0.25954024                0.00113815                0.00001296               -0.00190559
               1.00000000                6.00000000               27.00000000                0.15576940               -0.07937897               -0.07923846                0.26533251                0.00150033                0.00048640                0.00034123
               2.00000000                6.00000000               27.00000000                0.02636128               -0.06193348               -0.08042732                0.27095727                0.03387683               -0.00300202                0.00189164
               3.00000000                6.00000000               27.00000000                0.04909742               -0.06685001               -0.09269388                0.29123200                0.04061054               -0.00638346                0.00274823
               4.00000000                6.00000000               27.00000000                0.08306903               -0.09205378               -0.09289830                0.30000859                0.01882549               -0.00188094                0.00170669
               5.00000000                6.00000000               27.00000000                0.12358787               -0.09475099               -0.09383342                0.30648234                0.01299868               -0.00035758                0.00077062
               6.00000000                6.00000000               27.00000000                0.17166430               -0.09545974               -0.09546014                0.31221839                0.00883895                0.00039447                0.00039420
               7.00000000                6.00000000               27.00000000                0.22868732               -0.09598013               -0.09730691                0.31765171                0.00592528                0.00066474                0.00046312
               8.00000000                6.00000000               27.00000000                0.29642286               -0.09686035               -0.09887229                0.32298866                0.00367445                0.00057397                0.00087515
               9.00000000                6.00000000               27.00000000                0.37713697               -0.09845733               -0.09951313                0.32833953                0.00174667                0.00027154                0.00156081
              10.00000000                6.00000000               27.00000000                0.71595942               -0.09947321               -0.09855361                0.33374700                0.00017875                0.00013886                0.00245072
               0.00000000                7.00000000               27.00000000                0.69113170               -0.08078552               -0.08035066                0.26648703                0.00114448                0.00001473               -0.00158891
               1.00000000                7.00000000               27.00000000                0.23477928               -0.08136445               -0.08113594                0.27208449                0.00131348                0.00036201                0.00032420
               2.00000000                7.00000000               27.00000000                0.05981441               -0.07050034               -0.08248132                0.27769692                0.02774765               -0.00105349                0.00176191
               3.00000000                7.00000000               27.00000000                0.08326016               -0.07413045               -0.09491414                0.29487540                0.03074419               -0.00346729                0.00263008
               4.00000000                7.00000000               27.00000000                0.12356133               -0.09249183               -0.09362215                0.30477502                0.01781416               -0.00157713                0.00162985
               5.00000000                7.00000000               27.00000000                0.17164839               -0.09643591               -0.09427135                0.31171391                0.01061863               -0.00027983                0.00092298
               6.00000000                7.00000000               27.00000000                0.22868946               -0.09730581               -0.09597974                0.31764947                0.00592479                0.00046381                0.00066431
               7.00000000                7.00000000               27.00000000                0.29644126               -0.09785379               -0.09785399                0.32316784                0.00308245                0.00075148                0.00075100
               8.00000000                7.00000000               27.00000000                0.37716271               -0.09877474               -0.09945224                0.32852607                0.00139761                0.00067438                0.00105982
               9.00000000                7.00000000               27.00000000                0.47379188               -0.10021647               -0.10052564                0.33385177                0.00048251                0.00035323                0.00149281
              10.00000000                7.00000000               27.00000000                0.76935719               -0.10107118               -0.10094884                0.33920230               -0.00047903                0.00016179                0.00195502
               0.00000000                8.00000000               27.00000000                0.76216466               -0.08282616               -0.08237090                0.27345436                0.00110005                0.00003164               -0.00127675
               1.00000000                8.00000000               27.00000000                0.33157105               -0.08340462               -0.08331938                0.27890105                0.00089515                0.00031330                0.00033898
               2.00000000                8.00000000               27.00000000                0.10189778               -0.07830483               -0.08483930                0.28448888                0.02156950                0.00037146                0.00156564
               3.00000000                8.00000000               27.00000000                0.12399320               -0.08190601               -0.09515089                0.29930774                0.02767503               -0.00083014                0.00200267
               4.00000000                8.00000000               27.00000000                0.17160356               -0.09447978               -0.09378260                0.30972583                0.01704533               -0.00051659                0.00126694
               5.00000000                8.00000000               27.00000000                0.22865387               -0.09822707               -0.09491126                0.31695089                0.00831939                0.00031311                0.00071969
               6.00000000                8.00000000               27.00000000                0.29642657               -0.09887078               -0.09685935                0.32298489                0.00367403                0.00087591                0.00057356
               7.00000000                8.00000000               27.00000000                0.37716488               -0.09945154               -0.09877422                0.32852412                0.00139747                0.00106033                0.00067407
               8.00000000                8.00000000               27.00000000                0.47379593               -0.10044675               -0.10044679                0.33386997                0.00033120                0.00090177                0.00090138
               9.00000000                8.00000000               27.00000000                0.59018370               -0.10182836               -0.10185222                0.33916895               -0.00002024                0.00048095                0.00117245
              10.00000000                8.00000000               27.00000000                0.83380971               -0.10260474               -0.10303260                0.34449264               -0.00075621                0.00019802                0.00140530
               0.00000000                9.00000000               27.00000000                0.84700650               -0.08488490               -0.08424706                0.28044739                0.00106733                0.00007507               -0.00086734
               1.00000000                9.00000000               27.00000000                0.44953576               -0.08554563               -0.08559228                0.28577123                0.00051636                0.00021704                0.00033022
               2.00000000                9.00000000               27.00000000                0.15499084               -0.08551647               -0.08696616                0.29134571                0.01656113                0.00127783                0.00099568
               3.00000000                9.00000000               27.00000000                0.17252990               -0.09108832               -0.09239137                0.30451106                0.01802606                0.00157857                0.00123757
               4.00000000                9.00000000               27.00000000                0.22859860               -0.09808203               -0.09447415                0.31501803                0.01207189                0.00134154                0.00059882
               5.00000000                9.00000000               27.00000000                0.29637548               -0.09895957               -0.09650450                0.32230767                0.00479950                0.00140893                0.00030396
               6.00000000                9.00000000               27.00000000                0.37714286               -0.09951143               -0.09845569                0.32833408                0.00174644                0.00156138                0.00027123
               7.00000000                9.00000000               27.00000000                0.47379637               -0.10052457               -0.10021541                0.33384828                0.00048243                0.00149345                0.00035311
               8.00000000                9.00000000               27.00000000                0.59018613               -0.10185166               -0.10182781                0.33916708               -0.00002032                0.00117279                0.00048076
               9.00000000                9.00000000               27.00000000                0.73148158               -0.10334318               -0.10334319                0.34444198               -0.00011431                0.00061332                0.00061306
              10.00000000                9.00000000               27.00000000                0.91230524               -0.10411447               -0.10487701                0.34975285               -0.00085676                0.00023243                0.00070857
               0.00000000               10.00000000               27.00000000                0.95358176               -0.08720247               -0.08516341                0.28741328                0.00023622               -0.00034704               -0.00058688
               1.00000000               10.00000000               27.00000000                0.76639770               -0.08860510               -0.08671163                0.29270181               -0.00026523               -0.00045519                0.00030265
               2.00000000               10.00000000               27.00000000                0.59613428               -0.10012229               -0.08790197                0.29834909                0.01465924                0.00187741                0.00051339
               3.00000000               10.00000000               27.00000000                0.60328044               -0.10358890               -0.09011272                0.31066225                0.00753026                0.00547811                0.00048693
               4.00000000               10.00000000               27.00000000                0.63405597               -0.09587333               -0.09528059                0.32075870                0.00477775                0.00431750                0.00026908
               5.00000000               10.00000000               27.00000000                0.67141061               -0.09603663               -0.09766177                0.32782985                0.00170864                0.00307969                0.00015058
               6.00000000               10.00000000               27.00000000                0.71596327               -0.09855202               -0.09947121                0.33373980                0.00017823                0.00245117                0.00013851
               7.00000000               10.00000000               27.00000000                0.76936011               -0.10094749               -0.10106987                0.33919717               -0.00047940                0.00195570                0.00016174
               8.00000000               10.00000000               27.00000000                0.83381152               -0.10303157               -0.10260391                0.34448899               -0.00075652                0.00140551                0.00019793
               9.00000000               10.00000000               27.00000000                0.91230602               -0.10487641               -0.10411418                0.34975090               -0.00085708                0.00070871                0.00023220
              10.00000000               10.00000000               27.00000000                0.98189851               -0.10574818               -0.10574851                0.35505748               -0.00172355                0.00024710                0.00024697
               0.00000000                0.00000000               28.00000000                0.74955582               -0.06608879               -0.06608853                0.21828528                0.00233904               -0.00008399               -0.00008406
               1.00000000                0.00000000               28.00000000                0.49476694               -0.06607128               -0.06895809                0.22515117                0.00212512               -0.00059474                0.00000332
               2.00000000                0.00000000               28.00000000                0.49709040               -0.06743979               -0.07050005                0.23198815                0.00102544               -0.00148124                0.00015041
               3.00000000                0.00000000               28.00000000                0.51737812               -0.07022786               -0.07262588                0.23884243                0.00106758               -0.00193344                0.00009610
               4.00000000                0.00000000               28.00000000                0.54631634               -0.07298648               -0.07466371                0.24572217                0.00105982               -0.00210574                0.00005888
               5.00000000                0.00000000               28.00000000                0.58435622               -0.07561195               -0.07671230                0.25261784                0.00109114               -0.00203587                0.00003037
               6.00000000                0.00000000               28.00000000                0.63228707               -0.07804798               -0.07875310                0.25952685                0.00111982               -0.00180384                0.00001555
               7.00000000                0.00000000               28.00000000                0.69112321               -0.08027606               -0.08078640                0.26645171                0.00112720               -0.00149174                0.00001762
               8.00000000                0.00000000               28.00000000                0.76214734               -0.08230556               -0.08282171                0.27339582                0.00108797               -0.00117385                0.00003504
               9.00000000                0.00000000               28.00000000                0.84697510               -0.08419911               -0.08487169                0.28036159                0.00106160               -0.00077286                0.00007883
              10.00000000                0.00000000               28.00000000                0.95355976               -0.08512412               -0.08716977                0.28729727                0.00021844               -0.00050299               -0.00026232
               0.00000000                1.00000000               28.00000000                0.49476607               -0.06895785               -0.06607082                0.22514962                0.00212492                0.00000331               -0.00059459
               1.00000000                1.00000000               28.00000000                0.01000001               -0.07107305               -0.07107308                0.23200582                0.00323854               -0.00024630               -0.00024597
               2.00000000                1.00000000               28.00000000                0.01000000               -0.07388406               -0.06839151                0.23873765                0.00953065               -0.00035302               -0.00010129
               3.00000000                1.00000000               28.00000000                0.01000001               -0.07513904               -0.06620458                0.24540408                0.01010587               -0.00025249                0.00014601
               4.00000000                1.00000000               28.00000000                0.04137426               -0.07632706               -0.07453307                0.25204469                0.00109369               -0.00012447                0.00063809
               5.00000000                1.00000000               28.00000000                0.09195990               -0.07769271               -0.07729644                0.25869329                0.00114265               -0.00003930                0.00051899
               6.00000000                1.00000000               28.00000000                0.15577376               -0.07930635               -0.07940677                0.26537748                0.00133007                0.00002305                0.00040288
               7.00000000                1.00000000               28.00000000                0.23478294               -0.08120670               -0.08138478                0.27211548                0.00118358                0.00008456                0.00036942
               8.00000000                1.00000000               28.00000000                0.33157031               -0.08336714               -0.08341774                0.27891291                0.00081626                0.00017271                0.00038456
               9.00000000                1.00000000               28.00000000                0.44952567               -0.08560974               -0.08554537                0.28575866                0.00047523                0.00022741                0.00034392
              10.00000000                1.00000000               28.00000000                0.76638697               -0.08671539               -0.08852665                0.29265960               -0.00032402                0.00023213               -0.00019583
               0.00000000                2.00000000               28.00000000                0.49709091               -0.07049943               -0.06743893                0.23198517                0.00102523                0.00015042               -0.00148077
               1.00000000                2.00000000               28.00000000                0.01000000               -0.06839115               -0.07388365                0.23873626                0.00953075               -0.00010170               -0.00035228
               2.00000000                2.00000000               28.00000000                0.01000001               -0.07252739               -0.07252745                0.24664468                0.02945807               -0.00045091               -0.00044969
               3.00000000                2.00000000               28.00000000                0.01000000               -0.08831224               -0.06348595                0.25422814                0.02793986                0.00055823               -0.00078559
               4.00000000                2.00000000               28.00000000                0.01000000               -0.08869157               -0.06264980                0.25808859                0.02819966                0.00197185                0.00049554
               5.00000000                2.00000000               28.00000000                0.01000001               -0.07960326               -0.06018898                0.26441980                0.03496148                0.00145856                0.00231655
               6.00000000                2.00000000               28.00000000                0.02636055               -0.08057025               -0.06320123                0.27105040                0.03124650                0.00143026                0.00393461
               7.00000000                2.00000000               28.00000000                0.05981537               -0.08261371               -0.07129591                0.27777552                0.02561944                0.00140628                0.00457757
               8.00000000                2.00000000               28.00000000                0.10190098               -0.08493174               -0.07868929                0.28454883                0.01991458                0.00128743                0.00500755
               9.00000000                2.00000000               28.00000000                0.15499508               -0.08703569               -0.08553305                0.29138238                0.01525711                0.00082790                0.00523590
              10.00000000                2.00000000               28.00000000                0.59613603               -0.08797077               -0.09915213                0.29835370                0.01334942                0.00042389                0.00554843
               0.00000000                3.00000000               28.00000000                0.51737937               -0.07262477               -0.07022654                0.23883781                0.00106731                0.00009612               -0.00193309
               1.00000000                3.00000000               28.00000000                0.01000001               -0.06620317               -0.07513810                0.24540105                0.01010590                0.00014600               -0.00025186
               2.00000000                3.00000000               28.00000000                0.01000000               -0.06348507               -0.08831226                0.25422675                0.02793944               -0.00078669                0.00055737
               3.00000000                3.00000000               28.00000000                0.01000000               -0.07029380               -0.07029499                0.26365786                0.04690884               -0.00089715               -0.00089414
               4.00000000                3.00000000               28.00000000                0.01197308               -0.07727804               -0.06089643                0.27436364                0.05790857                0.00061051               -0.00012972
               5.00000000                3.00000000               28.00000000                0.02055101               -0.08587093               -0.06240672                0.28502993                0.05251867                0.00182353                0.00117607
               6.00000000                3.00000000               28.00000000                0.04909136               -0.09206393               -0.06788803                0.29049694                0.03742173                0.00123976                0.00273091
               7.00000000                3.00000000               28.00000000                0.08325185               -0.09429582               -0.07477456                0.29434817                0.02828689                0.00052174                0.00470232
               8.00000000                3.00000000               28.00000000                0.12398281               -0.09468908               -0.08213021                0.29893505                0.02546071                0.00049614                0.00643920
               9.00000000                3.00000000               28.00000000                0.17251639               -0.09232464               -0.09078160                0.30424366                0.01657337                0.00045106                0.00806455
              10.00000000                3.00000000               28.00000000                0.60327292               -0.09031971               -0.10248226                0.31044226                0.00680064                0.00016767                0.01098576
               0.00000000                4.00000000               28.00000000                0.54631888               -0.07466200               -0.07298460                0.24571572                0.00105957                0.00005891               -0.00210566
               1.00000000                4.00000000               28.00000000                0.04137748               -0.07453176               -0.07632557                0.25203985                0.00109327                0.00063566               -0.00012413
               2.00000000                4.00000000               28.00000000                0.01000000               -0.06264553               -0.08869052                0.25808390                0.02819741                0.00049650                0.00197145
               3.00000000                4.00000000               28.00000000                0.01197405               -0.06088980               -0.07728158                0.27436460                0.05790728               -0.00012905                0.00061085
               4.00000000                4.00000000               28.00000000                0.02051876               -0.07939453               -0.07939788                0.28703306                0.03303256                0.00109349                0.00109601
               5.00000000                4.00000000               28.00000000                0.04900952               -0.08991387               -0.08716442                0.29418087                0.02158769                0.00112354                0.00054437
               6.00000000                4.00000000               28.00000000                0.08305597               -0.09242860               -0.09159175                0.29920007                0.01728663                0.00087719                0.00050081
               7.00000000                4.00000000               28.00000000                0.12354256               -0.09326837               -0.09211677                0.30412174                0.01635639                0.00075898                0.00162124
               8.00000000                4.00000000               28.00000000                0.17157861               -0.09358831               -0.09408860                0.30921434                0.01566811                0.00058773                0.00306880
               9.00000000                4.00000000               28.00000000                0.22856711               -0.09439103               -0.09756058                0.31462787                0.01110726                0.00027371                0.00490846
              10.00000000                4.00000000               28.00000000                0.63403830               -0.09521373               -0.09571496                0.32046367                0.00432812                0.00012872                0.00729125
               0.00000000                5.00000000               28.00000000                0.58436012               -0.07671015               -0.07560960                0.25260987                0.00109094                0.00003040               -0.00203594
               1.00000000                5.00000000               28.00000000                0.09196506               -0.07729453               -0.07769076                0.25868696                0.00114256                0.00051748               -0.00003911
               2.00000000                5.00000000               28.00000000                0.01000001               -0.06018274               -0.07960123                0.26441332                0.03495697                0.00231517                0.00146113
               3.00000000                5.00000000               28.00000000                0.02055315               -0.06240017               -0.08587303                0.28502573                0.05251046                0.00117404                0.00181880
               4.00000000                5.00000000               28.00000000                0.04901073               -0.08716279               -0.08991360                0.29417728                0.02158370                0.00054263                0.00112245
               5.00000000                5.00000000               28.00000000                0.08306584               -0.09258580               -0.09258602                0.30020364                0.01514285                0.00044960                0.00044912
               6.00000000                5.00000000               28.00000000                0.12356629               -0.09346019               -0.09429138                0.30573701                0.01196198                0.00064561                0.00046257
               7.00000000                5.00000000               28.00000000                0.17161760               -0.09403234               -0.09599792                0.31110272                0.00977248                0.00066385                0.00091280
               8.00000000                5.00000000               28.00000000                0.22861319               -0.09478794               -0.09780635                0.31647462                0.00766085                0.00049396                0.00168708
               9.00000000                5.00000000               28.00000000                0.29632582               -0.09642009               -0.09864813                0.32195904                0.00442610                0.00020439                0.00273979
              10.00000000                5.00000000               28.00000000                0.67138451               -0.09756838               -0.09612607                0.32760085                0.00149801                0.00010528                0.00409360
               0.00000000                6.00000000               28.00000000                0.63229262               -0.07875052               -0.07804515                0.25951736                0.00111960                0.00001557               -0.00180409
               1.00000000                6.00000000               28.00000000                0.15578151               -0.07940437               -0.07930396                0.26536964                0.00133009                0.00040262                0.00002306
               2.00000000                6.00000000               28.00000000                0.02636449               -0.06319727               -0.08056826                0.27104357                0.03124146                0.00392920                0.00143144
               3.00000000                6.00000000               28.00000000                0.04909448               -0.06788294               -0.09206259                0.29049127                0.03741084                0.00272614                0.00123713
               4.00000000                6.00000000               28.00000000                0.08305849               -0.09158844               -0.09242702                0.29919594                0.01728191                0.00050180                0.00087613
               5.00000000                6.00000000               28.00000000                0.12356780               -0.09428986               -0.09345954                0.30573437                0.01196032                0.00046349                0.00064489
               6.00000000                6.00000000               28.00000000                0.17163347               -0.09512255               -0.09512297                0.31157898                0.00814190                0.00064266                0.00064178
               7.00000000                6.00000000               28.00000000                0.22864663               -0.09577169               -0.09698833                0.31713831                0.00546102                0.00067669                0.00089969
               8.00000000                6.00000000               28.00000000                0.29637390               -0.09674823               -0.09859675                0.32260758                0.00338904                0.00052418                0.00137104
               9.00000000                6.00000000               28.00000000                0.37708447               -0.09838420               -0.09935555                0.32808936                0.00161407                0.00024516                0.00200184
              10.00000000                6.00000000               28.00000000                0.71593466               -0.09940262               -0.09863937                0.33362622                0.00008551                0.00012256                0.00273406
               0.00000000                7.00000000               28.00000000                0.69113074               -0.08078330               -0.08027266                0.26644046                0.00112696                0.00001759               -0.00149213
               1.00000000                7.00000000               28.00000000                0.23479340               -0.08138190               -0.08120381                0.27210592                0.00118355                0.00036888                0.00008444
               2.00000000                7.00000000               28.00000000                0.05982096               -0.07129292               -0.08261140                0.27776747                0.02561458                0.00457224                0.00140641
               3.00000000                7.00000000               28.00000000                0.08325688               -0.07477052               -0.09429343                0.29434091                0.02827824                0.00469706                0.00052338
               4.00000000                7.00000000               28.00000000                0.12354676               -0.09211308               -0.09326674                0.30411619                0.01635203                0.00162102                0.00075899
               5.00000000                7.00000000               28.00000000                0.17162052               -0.09599586               -0.09403143                0.31109930                0.00977067                0.00091322                0.00066317
               6.00000000                7.00000000               28.00000000                0.22864839               -0.09698725               -0.09577128                0.31713628                0.00546040                0.00090036                0.00067592
               7.00000000                7.00000000               28.00000000                0.29638979               -0.09766489               -0.09766513                0.32278002                0.00284374                0.00086706                0.00086607
               8.00000000                7.00000000               28.00000000                0.37710833               -0.09867988               -0.09930584                0.32827228                0.00129072                0.00067563                0.00118761
               9.00000000                7.00000000               28.00000000                0.47374586               -0.10017340               -0.10046336                0.33373312                0.00044786                0.00034028                0.00157832
              10.00000000                7.00000000               28.00000000                0.76934149               -0.10104357               -0.10102088                0.33921795               -0.00052174                0.00015120                0.00196817
               0.00000000                8.00000000               28.00000000                0.76215703               -0.08281813               -0.08230163                0.27338290                0.00108775                0.00003504               -0.00117422
               1.00000000                8.00000000               28.00000000                0.33158473               -0.08341440               -0.08336377                0.27890170                0.00081620                0.00038435                0.00017263
               2.00000000                8.00000000               28.00000000                0.10190845               -0.07868658               -0.08492893                0.28453902                0.01990997                0.00500271                0.00128790
               3.00000000                8.00000000               28.00000000                0.12398978               -0.08212702               -0.09468607                0.29892715                0.02545315                0.00643306                0.00049769
               4.00000000                8.00000000               28.00000000                0.17158460               -0.09408511               -0.09358640                0.30920769                0.01566417                0.00306694                0.00058785
               5.00000000                8.00000000               28.00000000                0.22861815               -0.09780392               -0.09478659                0.31646951                0.00765950                0.00168699                0.00049347
               6.00000000                8.00000000               28.00000000                0.29637745               -0.09859523               -0.09674719                0.32260370                0.00338862                0.00137159                0.00052394
               7.00000000                8.00000000               28.00000000                0.37711018               -0.09930511               -0.09867941                0.32827038                0.00129055                0.00118839                0.00067523
               8.00000000                8.00000000               28.00000000                0.47375102               -0.10038882               -0.10038885                0.33375332                0.00030639                0.00089683                0.00089618
               9.00000000                8.00000000               28.00000000                0.59017492               -0.10182659               -0.10185296                0.33918998               -0.00001748                0.00045828                0.00113710
              10.00000000                8.00000000               28.00000000                0.83382272               -0.10262451               -0.10310873                0.34464941               -0.00077754                0.00018442                0.00133857
               0.00000000                9.00000000               28.00000000                0.84698702               -0.08486765               -0.08419473                0.28034714                0.00106138                0.00007883               -0.00077305
               1.00000000                9.00000000               28.00000000                0.44954290               -0.08554162               -0.08560594                0.28574601                0.00047519                0.00034371                0.00022746
               2.00000000                9.00000000               28.00000000                0.15500536               -0.08553032               -0.08703247                0.29137148                0.01525307                0.00523101                0.00082806
               3.00000000                9.00000000               28.00000000                0.17252555               -0.09077872               -0.09232115                0.30423367                0.01656831                0.00805749                0.00045172
               4.00000000                9.00000000               28.00000000                0.22857534               -0.09755730               -0.09438842                0.31461952                0.01110448                0.00490550                0.00027369
               5.00000000                9.00000000               28.00000000                0.29633324               -0.09864575               -0.09641796                0.32195197                0.00442546                0.00273950                0.00020428
               6.00000000                9.00000000               28.00000000                0.37709048               -0.09935392               -0.09838270                0.32808432                0.00161390                0.00200244                0.00024516
               7.00000000                9.00000000               28.00000000                0.47375074               -0.10046227               -0.10017234                0.33372952                0.00044770                0.00157881                0.00034042
               8.00000000                9.00000000               28.00000000                0.59017712               -0.10185243               -0.10182606                0.33918824               -0.00001748                0.00113740                0.00045808
               9.00000000                9.00000000               28.00000000                0.73155765               -0.10339030               -0.10339028                0.34460303               -0.00010474                0.00057378                0.00057355
              10.00000000                9.00000000               28.00000000                0.91237970               -0.10418173               -0.10497498                0.35005015               -0.00087344                0.00021341                0.00065722
               0.00000000               10.00000000               28.00000000                0.95356654               -0.08716526               -0.08511953                0.28728132                0.00021792               -0.00026247               -0.00050310
               1.00000000               10.00000000               28.00000000                0.76639678               -0.08852234               -0.08671140                0.29264551               -0.00032436               -0.00019634                0.00023221
               2.00000000               10.00000000               28.00000000                0.59614196               -0.09914728               -0.08796738                0.29834149                0.01334562                0.00554296                0.00042393
               3.00000000               10.00000000               28.00000000                0.60327823               -0.10247893               -0.09031609                0.31043035                0.00679785                0.01097768                0.00016790
               4.00000000               10.00000000               28.00000000                0.63404328               -0.09571374               -0.09521061                0.32045353                0.00432602                0.00728767                0.00012864
               5.00000000               10.00000000               28.00000000                0.67138916               -0.09612464               -0.09756581                0.32759205                0.00149719                0.00409312                0.00010526
               6.00000000               10.00000000               28.00000000                0.71593840               -0.09863787               -0.09940092                0.33361981                0.00008504                0.00273458                0.00012258
               7.00000000               10.00000000               28.00000000                0.76934435               -0.10101950               -0.10104222                0.33921263               -0.00052207                0.00196847                0.00015141
               8.00000000               10.00000000               28.00000000                0.83382473               -0.10310772               -0.10262372                0.34464590               -0.00077782                0.00133854                0.00018439
               9.00000000               10.00000000               28.00000000                0.91238022               -0.10497449               -0.10418148                0.35004851               -0.00087368                0.00065726                0.00021324
              10.00000000               10.00000000               28.00000000                0.98196055               -0.10586129               -0.10586153                0.35549149               -0.00176470                0.00022575                0.00022570
               0.00000000                0.00000000               29.00000000                0.74957362               -0.06615810               -0.06615790                0.21843403                0.00232165               -0.00009453               -0.00009448
               1.00000000                0.00000000               29.00000000                0.49479040               -0.06622117               -0.06896563                0.22527589                0.00203089               -0.00061769               -0.00001472
               2.00000000                0.00000000               29.00000000                0.49710036               -0.06763204               -0.07053777                0.23208561                0.00101965               -0.00145876                0.00011949
               3.00000000                0.00000000               29.00000000                0.51738550               -0.07034303               -0.07265065                0.23891024                0.00105876               -0.00186291                0.00007794
               4.00000000                0.00000000               29.00000000                0.54632221               -0.07303009               -0.07468127                0.24575758                0.00105108               -0.00200879                0.00005056
               5.00000000                0.00000000               29.00000000                0.58435886               -0.07560046               -0.07672205                0.25262205                0.00107991               -0.00193335                0.00002855
               6.00000000                0.00000000               29.00000000                0.63228724               -0.07800215               -0.07875566                0.25950129                0.00110670               -0.00170411                0.00001642
               7.00000000                0.00000000               29.00000000                0.69111973               -0.08021571               -0.08078193                0.26639649                0.00111441               -0.00139350                0.00001862
               8.00000000                0.00000000               29.00000000                0.76213605               -0.08224635               -0.08281020                0.27331036                0.00107867               -0.00107016                0.00003659
               9.00000000                0.00000000               29.00000000                0.84695026               -0.08414784               -0.08485068                0.28024363                0.00105640               -0.00067987                0.00008070
              10.00000000                0.00000000               29.00000000                0.95354211               -0.08507705               -0.08713099                0.28714624                0.00019808               -0.00042279               -0.00018455
               0.00000000                1.00000000               29.00000000                0.49478992               -0.06896538               -0.06622079                0.22527450                0.00203069               -0.00001489               -0.00061742
               1.00000000                1.00000000               29.00000000                0.01000001               -0.07098589               -0.07098597                0.23210820                0.00297552               -0.00033796               -0.00033737
               2.00000000                1.00000000               29.00000000                0.01000000               -0.07372926               -0.06859575                0.23882452                0.00884929               -0.00060617                0.00042258
               3.00000000                1.00000000               29.00000000                0.01000001               -0.07504802               -0.06664728                0.24547947                0.00938539               -0.00059659                0.00121340
               4.00000000                1.00000000               29.00000000                0.04138193               -0.07630222               -0.07462872                0.25210910                0.00097019               -0.00049763                0.00048813
               5.00000000                1.00000000               29.00000000                0.09196930               -0.07771639               -0.07733678                0.25874645                0.00102065               -0.00039147                0.00034387
               6.00000000                1.00000000               29.00000000                0.15578353               -0.07935548               -0.07942902                0.26541671                0.00121222               -0.00027305                0.00031476
               7.00000000                1.00000000               29.00000000                0.23479296               -0.08125663               -0.08139924                0.27213605                0.00109205               -0.00013884                0.00036683
               8.00000000                1.00000000               29.00000000                0.33157774               -0.08339829               -0.08342376                0.27891040                0.00076003                0.00001718                0.00044438
               9.00000000                1.00000000               29.00000000                0.44952379               -0.08561656               -0.08553792                0.28572912                0.00044500                0.00013089                0.00045739
              10.00000000                1.00000000               29.00000000                0.76638100               -0.08671109               -0.08845661                0.29259835               -0.00037416                0.00016658                0.00004280
               0.00000000                2.00000000               29.00000000                0.49710118               -0.07053706               -0.06763122                0.23208269                0.00101943                0.00011954               -0.00145837
               1.00000000                2.00000000               29.00000000                0.01000000               -0.06859521               -0.07372889                0.23882313                0.00884931                0.00042200               -0.00060539
               2.00000000                2.00000000               29.00000000                0.01000001               -0.07256267               -0.07256239                0.24663238                0.02745594                0.00057402                0.00057466
               3.00000000                2.00000000               29.00000000                0.01000000               -0.08747035               -0.06418465                0.25414636                0.02595961               -0.00044711                0.00189900
               4.00000000                2.00000000               29.00000000                0.01000000               -0.08799479               -0.06351788                0.25818485                0.02621962               -0.00001197                0.00520448
               5.00000000                2.00000000               29.00000000                0.01000001               -0.07965168               -0.06125166                0.26452746                0.03267315                0.00080569                0.00918931
               6.00000000                2.00000000               29.00000000                0.02636354               -0.08068184               -0.06416301                0.27115181                0.02925619                0.00099131                0.01043648
               7.00000000                2.00000000               29.00000000                0.05982123               -0.08271726               -0.07188173                0.27785971                0.02401754                0.00106645                0.00987134
               8.00000000                2.00000000               29.00000000                0.10191030               -0.08500614               -0.07894850                0.28461352                0.01867276                0.00102185                0.00938402
               9.00000000                2.00000000               29.00000000                0.15500740               -0.08709295               -0.08550231                0.29142121                0.01427640                0.00066764                0.00899264
              10.00000000                2.00000000               29.00000000                0.59614232               -0.08802700               -0.09836773                0.29835667                0.01234803                0.00034061                0.00905155
               0.00000000                3.00000000               29.00000000                0.51738666               -0.07264942               -0.07034173                0.23890560                0.00105856                0.00007796               -0.00186287
               1.00000000                3.00000000               29.00000000                0.01000001               -0.06664585               -0.07504712                0.24547638                0.00938572                0.00121246               -0.00059624
               2.00000000                3.00000000               29.00000000                0.01000000               -0.06418328               -0.08746963                0.25414381                0.02595849                0.00189791               -0.00044483
               3.00000000                3.00000000               29.00000000                0.01000000               -0.07069755               -0.07069892                0.26339285                0.04375089                0.00285859                0.00285888
               4.00000000                3.00000000               29.00000000                0.01197168               -0.07738675               -0.06192814                0.27384974                0.05414403                0.00507634                0.00822734
               5.00000000                3.00000000               29.00000000                0.02054996               -0.08559437               -0.06341755                0.28428566                0.04917930                0.00380086                0.01030606
               6.00000000                3.00000000               29.00000000                0.04908964               -0.09155782               -0.06865267                0.28985374                0.03499593               -0.00018912                0.01128585
               7.00000000                3.00000000               29.00000000                0.08324997               -0.09381764               -0.07522048                0.29389150                0.02642920               -0.00147185                0.01239642
               8.00000000                3.00000000               29.00000000                0.12398096               -0.09434718               -0.08223699                0.29861507                0.02378988               -0.00092878                0.01331429
               9.00000000                3.00000000               29.00000000                0.17251474               -0.09229944               -0.09046645                0.30401394                0.01547912               -0.00029004                0.01423287
              10.00000000                3.00000000               29.00000000                0.60327194               -0.09051023               -0.10154858                0.31024946                0.00625038               -0.00012695                0.01627702
               0.00000000                4.00000000               29.00000000                0.54632362               -0.07467968               -0.07302836                0.24575151                0.00105089                0.00005062               -0.00200894
               1.00000000                4.00000000               29.00000000                0.04138558               -0.07462749               -0.07630086                0.25210462                0.00097038                0.00048967               -0.00049747
               2.00000000                4.00000000               29.00000000                0.01000000               -0.06351367               -0.08799403                0.25818307                0.02621719                0.00520356               -0.00001160
               3.00000000                4.00000000               29.00000000                0.01197265               -0.06192180               -0.07738938                0.27384431                0.05414178                0.00822446                0.00507426
               4.00000000                4.00000000               29.00000000                0.02051647               -0.07947670               -0.07947983                0.28616933                0.03084993                0.00523255                0.00523179
               5.00000000                4.00000000               29.00000000                0.04900523               -0.08952997               -0.08692581                0.29333025                0.02013605                0.00151060                0.00265713
               6.00000000                4.00000000               29.00000000                0.08304845               -0.09204267               -0.09120150                0.29848821                0.01609416                0.00009322                0.00275205
               7.00000000                4.00000000               29.00000000                0.12353199               -0.09298216               -0.09178984                0.30354691                0.01523227               -0.00006667                0.00464990
               8.00000000                4.00000000               29.00000000                0.17156470               -0.09343522               -0.09374046                0.30876474                0.01461468               -0.00005771                0.00647558
               9.00000000                4.00000000               29.00000000                0.22854958               -0.09433310               -0.09710078                0.31428331                0.01037691               -0.00003659                0.00831603
              10.00000000                4.00000000               29.00000000                0.63402933               -0.09517285               -0.09551649                0.32019934                0.00400196               -0.00000356                0.01016961
               0.00000000                5.00000000               29.00000000                0.58436237               -0.07671999               -0.07559822                0.25261435                0.00107967                0.00002857               -0.00193339
               1.00000000                5.00000000               29.00000000                0.09197369               -0.07733498               -0.07771455                0.25874037                0.00102078                0.00034232               -0.00039120
               2.00000000                5.00000000               29.00000000                0.01000001               -0.06124557               -0.07965041                0.26452368                0.03266921                0.00918470                0.00080427
               3.00000000                5.00000000               29.00000000                0.02055186               -0.06341120               -0.08559627                0.28427877                0.04917124                0.01030279                0.00379840
               4.00000000                5.00000000               29.00000000                0.04900614               -0.08692453               -0.08952998                0.29332934                0.02013238                0.00265864                0.00150956
               5.00000000                5.00000000               29.00000000                0.08305715               -0.09218038               -0.09218064                0.29943438                0.01412418                0.00072441                0.00072195
               6.00000000                5.00000000               29.00000000                0.12355143               -0.09314855               -0.09390822                0.30507945                0.01115799                0.00052683                0.00124007
               7.00000000                5.00000000               29.00000000                0.17159614               -0.09383165               -0.09563242                0.31056544                0.00911924                0.00041686                0.00204557
               8.00000000                5.00000000               29.00000000                0.22858623               -0.09468301               -0.09745307                0.31605504                0.00715636                0.00027747                0.00299785
               9.00000000                5.00000000               29.00000000                0.29629384               -0.09635203               -0.09837523                0.32165003                0.00414361                0.00010686                0.00401949
              10.00000000                5.00000000               29.00000000                0.67136813               -0.09749719               -0.09614982                0.32739487                0.00134401                0.00006083                0.00508853
               0.00000000                6.00000000               29.00000000                0.63229281               -0.07875305               -0.07799933                0.25949180                0.00110645                0.00001642               -0.00170432
               1.00000000                6.00000000               29.00000000                0.15579072               -0.07942664               -0.07935310                0.26540887                0.00121229                0.00031374               -0.00027293
               2.00000000                6.00000000               29.00000000                0.02636739               -0.06415926               -0.08068009                0.27114586                0.02925144                0.01043111                0.00099319
               3.00000000                6.00000000               29.00000000                0.04909290               -0.06864770               -0.09155688                0.28984862                0.03498524                0.01128164               -0.00018852
               4.00000000                6.00000000               29.00000000                0.08305108               -0.09119822               -0.09204127                0.29848391                0.01608979                0.00275252                0.00009350
               5.00000000                6.00000000               29.00000000                0.12355262               -0.09390696               -0.09314820                0.30507767                0.01115713                0.00124117                0.00052594
               6.00000000                6.00000000               29.00000000                0.17161026               -0.09484104               -0.09484132                0.31101766                0.00760262                0.00087852                0.00087704
               7.00000000                6.00000000               29.00000000                0.22861503               -0.09559573               -0.09672365                0.31668937                0.00510318                0.00068784                0.00131660
               8.00000000                6.00000000               29.00000000                0.29633586               -0.09665278               -0.09836743                0.32227617                0.00317079                0.00047595                0.00184725
               9.00000000                6.00000000               29.00000000                0.37704337               -0.09832563               -0.09921747                0.32787493                0.00151401                0.00021820                0.00243112
              10.00000000                6.00000000               29.00000000                0.71591624               -0.09934967               -0.09868459                0.33352634                0.00001589                0.00010571                0.00302001
               0.00000000                7.00000000               29.00000000                0.69112707               -0.08077879               -0.08021233                0.26638524                0.00111417                0.00001863               -0.00139390
               1.00000000                7.00000000               29.00000000                0.23480333               -0.08139637               -0.08125375                0.27212647                0.00109195                0.00036649               -0.00013893
               2.00000000                7.00000000               29.00000000                0.05982663               -0.07187894               -0.08271503                0.27785210                0.02401282                0.00986597                0.00106714
               3.00000000                7.00000000               29.00000000                0.08325526               -0.07521659               -0.09381514                0.29388389                0.02642096                0.01239046               -0.00147040
               4.00000000                7.00000000               29.00000000                0.12353623               -0.09178602               -0.09298034                0.30354055                0.01522817                0.00464932               -0.00006690
               5.00000000                7.00000000               29.00000000                0.17159932               -0.09563037               -0.09383073                0.31056148                0.00911790                0.00204612                0.00041652
               6.00000000                7.00000000               29.00000000                0.22861637               -0.09672283               -0.09559554                0.31668804                0.00510299                0.00131739                0.00068688
               7.00000000                7.00000000               29.00000000                0.29634996               -0.09750700               -0.09750722                0.32244318                0.00266020                0.00097883                0.00097788
               8.00000000                7.00000000               29.00000000                0.37706576               -0.09860076               -0.09918403                0.32805492                0.00120886                0.00067710                0.00131396
               9.00000000                7.00000000               29.00000000                0.47371129               -0.10014039               -0.10040911                0.33363648                0.00042168                0.00032756                0.00166648
              10.00000000                7.00000000               29.00000000                0.76933007               -0.10102557               -0.10107097                0.33924055               -0.00055526                0.00014087                0.00198895
               0.00000000                8.00000000               29.00000000                0.76214570               -0.08280661               -0.08224250                0.27329759                0.00107845                0.00003654               -0.00107051
               1.00000000                8.00000000               29.00000000                0.33159098               -0.08342043               -0.08339498                0.27889932                0.00075988                0.00044362                0.00001718
               2.00000000                8.00000000               29.00000000                0.10191806               -0.07894589               -0.08500336                0.28460391                0.01866844                0.00937909                0.00102212
               3.00000000                8.00000000               29.00000000                0.12398793               -0.08223388               -0.09434400                0.29860647                0.02378291                0.01330794               -0.00092764
               4.00000000                8.00000000               29.00000000                0.17157079               -0.09373685               -0.09343313                0.30875735                0.01461093                0.00647326               -0.00005762
               5.00000000                8.00000000               29.00000000                0.22859093               -0.09745061               -0.09468163                0.31604969                0.00715485                0.00299770                0.00027688
               6.00000000                8.00000000               29.00000000                0.29633900               -0.09836611               -0.09665205                0.32227320                0.00317039                0.00184786                0.00047565
               7.00000000                8.00000000               29.00000000                0.37706751               -0.09918342               -0.09860049                0.32805364                0.00120894                0.00131484                0.00067657
               8.00000000                8.00000000               29.00000000                0.47371714               -0.10034218               -0.10034228                0.33365918                0.00028745                0.00089449                0.00089395
               9.00000000                8.00000000               29.00000000                0.59017028               -0.10182951               -0.10185567                0.33921946               -0.00001534                0.00043688                0.00110730
              10.00000000                8.00000000               29.00000000                0.83383570               -0.10264701               -0.10317294                0.34479995               -0.00079591                0.00017131                0.00127857
               0.00000000                9.00000000               29.00000000                0.84696202               -0.08484665               -0.08414353                0.28022936                0.00105618                0.00008066               -0.00068012
               1.00000000                9.00000000               29.00000000                0.44954088               -0.08553418               -0.08561282                0.28571658                0.00044493                0.00045691                0.00013101
               2.00000000                9.00000000               29.00000000                0.15501735               -0.08549961               -0.08708971                0.29141032                0.01427270                0.00898710                0.00066840
               3.00000000                9.00000000               29.00000000                0.17252363               -0.09046365               -0.09229599                0.30400396                0.01547453                0.01422533               -0.00028987
               4.00000000                9.00000000               29.00000000                0.22855787               -0.09709757               -0.09433043                0.31427475                0.01037420                0.00831283               -0.00003652
               5.00000000                9.00000000               29.00000000                0.29630107               -0.09837285               -0.09634997                0.32164313                0.00414254                0.00401908                0.00010661
               6.00000000                9.00000000               29.00000000                0.37705005               -0.09921579               -0.09832407                0.32786965                0.00151366                0.00243158                0.00021839
               7.00000000                9.00000000               29.00000000                0.47371555               -0.10040804               -0.10013939                0.33363297                0.00042175                0.00166689                0.00032736
               8.00000000                9.00000000               29.00000000                0.59017278               -0.10185516               -0.10182902                0.33921777               -0.00001523                0.00110768                0.00043664
               9.00000000                9.00000000               29.00000000                0.73162515               -0.10343540               -0.10343538                0.34475836               -0.00009758                0.00053728                0.00053714
              10.00000000                9.00000000               29.00000000                0.91244440               -0.10424533               -0.10506390                0.35032722               -0.00088874                0.00019576                0.00060949
               0.00000000               10.00000000               29.00000000                0.95354929               -0.08712648               -0.08507251                0.28713044                0.00019757               -0.00018469               -0.00042303
               1.00000000               10.00000000               29.00000000                0.76639020               -0.08845231               -0.08670713                0.29258433               -0.00037448                0.00004234                0.00016667
               2.00000000               10.00000000               29.00000000                0.59614803               -0.09836302               -0.08802356                0.29834447                0.01234454                0.00904524                0.00034110
               3.00000000               10.00000000               29.00000000                0.60327734               -0.10154532               -0.09050671                0.31023794                0.00624786                0.01626808               -0.00012711
               4.00000000               10.00000000               29.00000000                0.63403429               -0.09551527               -0.09516974                0.32018929                0.00399992                0.01016590               -0.00000352
               5.00000000               10.00000000               29.00000000                0.67137262               -0.09614838               -0.09749470                0.32738628                0.00134303                0.00508795                0.00006075
               6.00000000               10.00000000               29.00000000                0.71591967               -0.09868296               -0.09934765                0.33351907                0.00001537                0.00302025                0.00010604
               7.00000000               10.00000000               29.00000000                0.76933321               -0.10106957               -0.10102415                0.33923501               -0.00055557                0.00198896                0.00014077
               8.00000000               10.00000000               29.00000000                0.83383779               -0.10317197               -0.10264620                0.34479646               -0.00079615                0.00127879                0.00017116
               9.00000000               10.00000000               29.00000000                0.91244474               -0.10506340               -0.10424505                0.35032553               -0.00088900                0.00060954                0.00019577
              10.00000000               10.00000000               29.00000000                0.98201375               -0.10596502               -0.10596529                0.35589036               -0.00180155                0.00020633                0.00020642
               0.00000000                0.00000000               30.00000000                0.74959224               -0.06622492               -0.06622468                0.21860235                0.00230678               -0.00010494               -0.00010496
               1.00000000                0.00000000               30.00000000                0.49481394               -0.06634498               -0.06898569                0.22541791                0.00196413               -0.00064289               -0.00003138
               2.00000000                0.00000000               30.00000000                0.49711207               -0.06778589               -0.07057553                0.23219755                0.00101584               -0.00144704                0.00009194
               3.00000000                0.00000000               30.00000000                0.51739398               -0.07044119               -0.07267629                0.23898863                0.00105353               -0.00180774                0.00006102
               4.00000000                0.00000000               30.00000000                0.54632696               -0.07307441               -0.07469927                0.24580075                0.00104601               -0.00192695                0.00004224
               5.00000000                0.00000000               30.00000000                0.58436208               -0.07560112               -0.07673166                0.25262996                0.00107284               -0.00184182                0.00002577
               6.00000000                0.00000000               30.00000000                0.63228692               -0.07797304               -0.07875711                0.25947459                0.00109800               -0.00161152                0.00001587
               7.00000000                0.00000000               30.00000000                0.69111379               -0.08017069               -0.08077544                0.26633580                0.00110550               -0.00129974                0.00001814
               8.00000000                0.00000000               30.00000000                0.76212188               -0.08219645               -0.08279552                0.27321534                0.00107171               -0.00097020                0.00003676
               9.00000000                0.00000000               30.00000000                0.84692257               -0.08409816               -0.08482592                0.28011261                0.00105177               -0.00059108                0.00008126
              10.00000000                0.00000000               30.00000000                0.95352263               -0.08502780               -0.08709030                0.28698062                0.00017709               -0.00034757               -0.00011366
               0.00000000                1.00000000               30.00000000                0.49481314               -0.06898548               -0.06634456                0.22541654                0.00196397               -0.00003156               -0.00064278
               1.00000000                1.00000000               30.00000000                0.01000001               -0.07093789               -0.07093793                0.23222535                0.00279242               -0.00042362               -0.00042312
               2.00000000                1.00000000               30.00000000                0.01000000               -0.07362939               -0.06875217                0.23892284                0.00836775               -0.00084061                0.00090918
               3.00000000                1.00000000               30.00000000                0.01000001               -0.07498862               -0.06697926                0.24556224                0.00888042               -0.00091525                0.00220647
               4.00000000                1.00000000               30.00000000                0.04138975               -0.07628698               -0.07470038                0.25217833                0.00090557               -0.00084326                0.00034493
               5.00000000                1.00000000               30.00000000                0.09197692               -0.07773380               -0.07736872                0.25880121                0.00095041               -0.00071747                0.00017136
               6.00000000                1.00000000               30.00000000                0.15579146               -0.07938945               -0.07944739                0.26545409                0.00113898               -0.00054798                0.00022499
               7.00000000                1.00000000               30.00000000                0.23479906               -0.08128982               -0.08140996                0.27215220                0.00103326               -0.00034706                0.00035823
               8.00000000                1.00000000               30.00000000                0.33158047               -0.08341668               -0.08342510                0.27890109                0.00072367               -0.00012789                0.00049575
               9.00000000                1.00000000               30.00000000                0.44951358               -0.08561590               -0.08552604                0.28569106                0.00042510                0.00004098                0.00056025
              10.00000000                1.00000000               30.00000000                0.76637040               -0.08670156               -0.08839686                0.29252780               -0.00041465                0.00010628                0.00026261
               0.00000000                2.00000000               30.00000000                0.49711190               -0.07057500               -0.06778512                0.23219490                0.00101567                0.00009197               -0.00144678
               1.00000000                2.00000000               30.00000000                0.01000000               -0.06875179               -0.07362906                0.23892172                0.00836781                0.00090865               -0.00083986
               2.00000000                2.00000000               30.00000000                0.01000001               -0.07258787               -0.07258855                0.24664393                0.02601599                0.00152435                0.00152498
               3.00000000                2.00000000               30.00000000                0.01000000               -0.08684601               -0.06469788                0.25409633                0.02453629               -0.00138846                0.00439839
               4.00000000                2.00000000               30.00000000                0.01000000               -0.08748182               -0.06415551                0.25829483                0.02480260               -0.00186638                0.00961284
               5.00000000                2.00000000               30.00000000                0.01000001               -0.07969086               -0.06202561                0.26464265                0.03103899                0.00019302                0.01563642
               6.00000000                2.00000000               30.00000000                0.02636616               -0.08076539               -0.06485043                0.27125508                0.02784872                0.00058192                0.01655626
               7.00000000                2.00000000               30.00000000                0.05982652               -0.08279461               -0.07228132                0.27794588                0.02289457                0.00074706                0.01486935
               8.00000000                2.00000000               30.00000000                0.10191826               -0.08506315               -0.07909928                0.28467698                0.01780750                0.00077206                0.01353210
               9.00000000                2.00000000               30.00000000                0.15501716               -0.08713819               -0.08543495                0.29145970                0.01359047                0.00051741                0.01256927
              10.00000000                2.00000000               30.00000000                0.59614683               -0.08807146               -0.09775932                0.29835925                0.01162935                0.00026424                0.01240240
               0.00000000                3.00000000               30.00000000                0.51739489               -0.07267527               -0.07044002                0.23898445                0.00105331                0.00006109               -0.00180744
               1.00000000                3.00000000               30.00000000                0.01000001               -0.06697786               -0.07498783                0.24555959                0.00887987                0.00220538               -0.00091457
               2.00000000                3.00000000               30.00000000                0.01000000               -0.06469674               -0.08684564                0.25409549                0.02453592                0.00439714               -0.00138825
               3.00000000                3.00000000               30.00000000                0.01000000               -0.07097889               -0.07097958                0.26318222                0.04144333                0.00637147                0.00637115
               4.00000000                3.00000000               30.00000000                0.01197112               -0.07742993               -0.06266890                0.27341733                0.05140202                0.00926275                0.01605937
               5.00000000                3.00000000               30.00000000                0.02054907               -0.08535326               -0.06413458                0.28364909                0.04677343                0.00565418                0.01888316
               6.00000000                3.00000000               30.00000000                0.04908891               -0.09116865               -0.06917683                0.28930857                0.03327219               -0.00153442                0.01934115
               7.00000000                3.00000000               30.00000000                0.08324932               -0.09346815               -0.07549588                0.29350822                0.02512312               -0.00335714                0.01966397
               8.00000000                3.00000000               30.00000000                0.12398023               -0.09411346               -0.08224872                0.29835092                0.02261768               -0.00227814                0.01983569
               9.00000000                3.00000000               30.00000000                0.17251372               -0.09230935               -0.09015704                0.30382563                0.01471279               -0.00099006                0.02011521
              10.00000000                3.00000000               30.00000000                0.60327192               -0.09068219               -0.10078595                0.31008912                0.00586379               -0.00040159                0.02137427
               0.00000000                4.00000000               30.00000000                0.54632928               -0.07469777               -0.07307271                0.24579495                0.00104577                0.00004226               -0.00192685
               1.00000000                4.00000000               30.00000000                0.04139353               -0.07469885               -0.07628566                0.25217409                0.00090565                0.00034363               -0.00084278
               2.00000000                4.00000000               30.00000000                0.01000000               -0.06415087               -0.08747981                0.25828218                0.02480097                0.00960994               -0.00186509
               3.00000000                4.00000000               30.00000000                0.01197192               -0.06266363               -0.07743270                0.27341583                0.05140099                0.01605813                0.00926049
               4.00000000                4.00000000               30.00000000                0.02051484               -0.07950114               -0.07950326                0.28542666                0.02926474                0.00911887                0.00911854
               5.00000000                4.00000000               30.00000000                0.04900175               -0.08921586               -0.08671721                0.29260157                0.01907551                0.00187952                0.00465180
               6.00000000                4.00000000               30.00000000                0.08304367               -0.09173698               -0.09088398                0.29787625                0.01522321               -0.00064364                0.00487876
               7.00000000                4.00000000               30.00000000                0.12352455               -0.09275980               -0.09151548                0.30305624                0.01441782               -0.00084866                0.00751946
               8.00000000                4.00000000               30.00000000                0.17155491               -0.09332082               -0.09344193                0.30838310                0.01386017               -0.00066984                0.00971583
               9.00000000                4.00000000               30.00000000                0.22853683               -0.09429868               -0.09670939                0.31399299                0.00986158               -0.00033195                0.01157707
              10.00000000                4.00000000               30.00000000                0.63402244               -0.09515620               -0.09529478                0.31997700                0.00378701               -0.00012824                0.01296092
               0.00000000                5.00000000               30.00000000                0.58436615               -0.07672961               -0.07559884                0.25262225                0.00107260                0.00002576               -0.00184211
               1.00000000                5.00000000               30.00000000                0.09198134               -0.07736683               -0.07773191                0.25879509                0.00095095                0.00017061               -0.00071738
               2.00000000                5.00000000               30.00000000                0.01000001               -0.06201960               -0.07968917                0.26463930                0.03103492                0.01563115                0.00019477
               3.00000000                5.00000000               30.00000000                0.02055090               -0.06412877               -0.08535555                0.28364776                0.04676528                0.01888052                0.00565259
               4.00000000                5.00000000               30.00000000                0.04900298               -0.08671639               -0.08921621                0.29260123                0.01907291                0.00465356                0.00187765
               5.00000000                5.00000000               30.00000000                0.08305014               -0.09185406               -0.09185437                0.29877487                0.01337754                0.00098378                0.00098359
               6.00000000                5.00000000               30.00000000                0.12354049               -0.09289715               -0.09360050                0.30451528                0.01057071                0.00041823                0.00197541
               7.00000000                5.00000000               30.00000000                0.17158052               -0.09366845               -0.09533906                0.31010612                0.00864479                0.00018339                0.00312142
               8.00000000                5.00000000               30.00000000                0.22856571               -0.09459704               -0.09716820                0.31569842                0.00679338                0.00006997                0.00424872
               9.00000000                5.00000000               30.00000000                0.29626919               -0.09630115               -0.09814553                0.32139011                0.00394362                0.00001182                0.00525117
              10.00000000                5.00000000               30.00000000                0.67135588               -0.09744855               -0.09612318                0.32722370                0.00124079                0.00001767                0.00606590
               0.00000000                6.00000000               30.00000000                0.63229233               -0.07875457               -0.07797023                0.25946519                0.00109777                0.00001586               -0.00161201
               1.00000000                6.00000000               30.00000000                0.15579877               -0.07944505               -0.07938707                0.26544630                0.00113925                0.00022500               -0.00054808
               2.00000000                6.00000000               30.00000000                0.02637014               -0.06484666               -0.08076385                0.27124995                0.02784411                0.01655027                0.00058261
               3.00000000                6.00000000               30.00000000                0.04909198               -0.06917189               -0.09116774                0.28930249                0.03326176                0.01933499               -0.00153454
               4.00000000                6.00000000               30.00000000                0.08304580               -0.09088103               -0.09173593                0.29787303                0.01521923                0.00487976               -0.00064652
               5.00000000                6.00000000               30.00000000                0.12354179               -0.09359946               -0.09289707                0.30451448                0.01056998                0.00197728                0.00041687
               6.00000000                6.00000000               30.00000000                0.17159245               -0.09461379               -0.09461414                0.31053793                0.00720960                0.00110271                0.00110176
               7.00000000                6.00000000               30.00000000                0.22859049               -0.09545218               -0.09651187                0.31630885                0.00484358                0.00069929                0.00171419
               8.00000000                6.00000000               30.00000000                0.29630655               -0.09657445               -0.09818393                0.32199803                0.00301359                0.00042964                0.00230569
               9.00000000                6.00000000               30.00000000                0.37701319               -0.09828099               -0.09910080                0.32769821                0.00144296                0.00019170                0.00285061
              10.00000000                6.00000000               30.00000000                0.71590210               -0.09931275               -0.09869736                0.33344859               -0.00003279                0.00008947                0.00330987
               0.00000000                7.00000000               30.00000000                0.69112058               -0.08077239               -0.08016743                0.26632489                0.00110528                0.00001820               -0.00130019
               1.00000000                7.00000000               30.00000000                0.23480873               -0.08140718               -0.08128704                0.27214295                0.00103337                0.00035791               -0.00034713
               2.00000000                7.00000000               30.00000000                0.05983200               -0.07227856               -0.08279264                0.27793917                0.02288995                0.01486251                0.00074705
               3.00000000                7.00000000               30.00000000                0.08325376               -0.07549210               -0.09346585                0.29350178                0.02511486                0.01965680               -0.00335571
               4.00000000                7.00000000               30.00000000                0.12352834               -0.09151188               -0.09275819                0.30305083                0.01441385                0.00751961               -0.00084857
               5.00000000                7.00000000               30.00000000                0.17158344               -0.09533709               -0.09366764                0.31010255                0.00864355                0.00312325                0.00018238
               6.00000000                7.00000000               30.00000000                0.22859228               -0.09651098               -0.09545202                0.31630727                0.00484342                0.00171542                0.00069863
               7.00000000                7.00000000               30.00000000                0.29631926               -0.09737996               -0.09738018                0.32216041                0.00252722                0.00108721                0.00108671
               8.00000000                7.00000000               30.00000000                0.37703349               -0.09853773               -0.09908708                0.32787684                0.00115005                0.00068000                0.00143928
               9.00000000                7.00000000               30.00000000                0.47368624               -0.10011731               -0.10036426                0.33356366                0.00040333                0.00031540                0.00175836
              10.00000000                7.00000000               30.00000000                0.76932276               -0.10101659               -0.10110319                0.33927128               -0.00058047                0.00013056                0.00201885
               0.00000000                8.00000000               30.00000000                0.76213102               -0.08279201               -0.08219274                0.27320293                0.00107150                0.00003679               -0.00097055
               1.00000000                8.00000000               30.00000000                0.33159294               -0.08342193               -0.08341351                0.27889042                0.00072356                0.00049523               -0.00012781
               2.00000000                8.00000000               30.00000000                0.10192592               -0.07909682               -0.08506077                0.28466914                0.01780331                0.01352611                0.00077254
               3.00000000                8.00000000               30.00000000                0.12398716               -0.08224557               -0.09411024                0.29834162                0.02261091                0.01982819               -0.00227582
               4.00000000                8.00000000               30.00000000                0.17156082               -0.09343836               -0.09331878                0.30837581                0.01385667                0.00971374               -0.00066879
               5.00000000                8.00000000               30.00000000                0.22857033               -0.09716583               -0.09459565                0.31569315                0.00679208                0.00424940                0.00006980
               6.00000000                8.00000000               30.00000000                0.29631018               -0.09818259               -0.09657370                0.32199500                0.00301325                0.00230669                0.00042887
               7.00000000                8.00000000               30.00000000                0.37703538               -0.09908648               -0.09853741                0.32787546                0.00115011                0.00143966                0.00067945
               8.00000000                8.00000000               30.00000000                0.47369214               -0.10030715               -0.10030722                0.33358901                0.00027396                0.00089556                0.00089528
               9.00000000                8.00000000               30.00000000                0.59017143               -0.10183704               -0.10186093                0.33925796               -0.00001357                0.00041822                0.00108419
              10.00000000                8.00000000               30.00000000                0.83384903               -0.10267185               -0.10322672                0.34494414               -0.00081138                0.00015956                0.00122736
               0.00000000                9.00000000               30.00000000                0.84693372               -0.08482200               -0.08409399                0.28009875                0.00105153                0.00008131               -0.00059134
               1.00000000                9.00000000               30.00000000                0.44953030               -0.08552245               -0.08561230                0.28567893                0.00042490                0.00055987                0.00004113
               2.00000000                9.00000000               30.00000000                0.15502657               -0.08543234               -0.08713527                0.29144966                0.01358716                0.01256326                0.00051795
               3.00000000                9.00000000               30.00000000                0.17252278               -0.09015420               -0.09230591                0.30381574                0.01470858                0.02010691               -0.00098921
               4.00000000                9.00000000               30.00000000                0.22854495               -0.09670616               -0.09429592                0.31398428                0.00985890                0.01157369               -0.00033143
               5.00000000                9.00000000               30.00000000                0.29627616               -0.09814316               -0.09629910                0.32138339                0.00394264                0.00525064                0.00001186
               6.00000000                9.00000000               30.00000000                0.37701919               -0.09909912               -0.09827946                0.32769293                0.00144266                0.00285102                0.00019099
               7.00000000                9.00000000               30.00000000                0.47369047               -0.10036320               -0.10011636                0.33356032                0.00040342                0.00175883                0.00031486
               8.00000000                9.00000000               30.00000000                0.59017361               -0.10186043               -0.10183660                0.33925635               -0.00001350                0.00108448                0.00041795
               9.00000000                9.00000000               30.00000000                0.73168615               -0.10347867               -0.10347868                0.34490803               -0.00009236                0.00050494                0.00050475
              10.00000000                9.00000000               30.00000000                0.91250078               -0.10430526               -0.10514412                0.35058357               -0.00090258                0.00018018                0.00056614
               0.00000000               10.00000000               30.00000000                0.95352925               -0.08708590               -0.08502340                0.28696529                0.00017654               -0.00011376               -0.00034790
               1.00000000               10.00000000               30.00000000                0.76638002               -0.08839263               -0.08669773                0.29251416               -0.00041514                0.00026202                0.00010633
               2.00000000               10.00000000               30.00000000                0.59615263               -0.09775481               -0.08806827                0.29834729                0.01162628                0.01239573                0.00026456
               3.00000000               10.00000000               30.00000000                0.60327706               -0.10078275               -0.09067889                0.31007828                0.00586168                0.02136478               -0.00040150
               4.00000000               10.00000000               30.00000000                0.63402741               -0.09529340               -0.09515299                0.31996693                0.00378508                0.01295672               -0.00012818
               5.00000000               10.00000000               30.00000000                0.67136018               -0.09612165               -0.09744609                0.32721540                0.00123979                0.00606465                0.00001756
               6.00000000               10.00000000               30.00000000                0.71590571               -0.09869569               -0.09931076                0.33344130               -0.00003332                0.00330984                0.00008892
               7.00000000               10.00000000               30.00000000                0.76932584               -0.10110180               -0.10101529                0.33926605               -0.00058079                0.00201925                0.00013017
               8.00000000               10.00000000               30.00000000                0.83385080               -0.10322576               -0.10267116                0.34494081               -0.00081162                0.00122755                0.00015941
               9.00000000               10.00000000               30.00000000                0.91250106               -0.10514359               -0.10430502                0.35058183               -0.00090281                0.00056619                0.00018007
              10.00000000               10.00000000               30.00000000                0.98205975               -0.10605963               -0.10605993                0.35625357               -0.00183403                0.00018885                0.00018881
               0.00000000                0.00000000               31.00000000                0.74961135               -0.06629000               -0.06628974                0.21878990                0.00229394               -0.00011479               -0.00011470
               1.00000000                0.00000000               31.00000000                0.49483924               -0.06644575               -0.06901731                0.22557683                0.00192153               -0.00067039               -0.00004633
               2.00000000                0.00000000               31.00000000                0.49712373               -0.06790501               -0.07061389                0.23232355                0.00101355               -0.00144702                0.00006743
               3.00000000                0.00000000               31.00000000                0.51740298               -0.07052304               -0.07270327                0.23907780                0.00105100               -0.00176861                0.00004567
               4.00000000                0.00000000               31.00000000                0.54633346               -0.07311776               -0.07471782                0.24585165                0.00104366               -0.00186156                0.00003409
               5.00000000                0.00000000               31.00000000                0.58436550               -0.07561102               -0.07674109                0.25264177                0.00106902               -0.00176508                0.00002236
               6.00000000                0.00000000               31.00000000                0.63228613               -0.07795766               -0.07875749                0.25944784                0.00109283               -0.00152989                0.00001430
               7.00000000                0.00000000               31.00000000                0.69110711               -0.08013873               -0.08076685                0.26627145                0.00109980               -0.00121380                0.00001662
               8.00000000                0.00000000               31.00000000                0.76210531               -0.08215489               -0.08277781                0.27311360                0.00106676               -0.00087757                0.00003579
               9.00000000                0.00000000               31.00000000                0.84689129               -0.08405049               -0.08479778                0.27997239                0.00104753               -0.00050901                0.00008109
              10.00000000                0.00000000               31.00000000                0.95350120               -0.08497742               -0.08704781                0.28680442                0.00015638               -0.00027874               -0.00004903
               0.00000000                1.00000000               31.00000000                0.49483970               -0.06901708               -0.06644526                0.22557529                0.00192131               -0.00004669               -0.00066996
               1.00000000                1.00000000               31.00000000                0.01000001               -0.07092484               -0.07092483                0.23235677                0.00267983               -0.00050408               -0.00050312
               2.00000000                1.00000000               31.00000000                0.01000000               -0.07357857               -0.06886621                0.23903201                0.00806358               -0.00105865                0.00136533
               3.00000000                1.00000000               31.00000000                0.01000001               -0.07495782               -0.06721043                0.24565170                0.00856605               -0.00121001                0.00313891
               4.00000000                1.00000000               31.00000000                0.04139782               -0.07628056               -0.07475081                0.25225053                0.00088939               -0.00116266                0.00020951
               5.00000000                1.00000000               31.00000000                0.09198391               -0.07774556               -0.07739266                0.25885492                0.00092419               -0.00101997                0.00000820
               6.00000000                1.00000000               31.00000000                0.15579642               -0.07940957               -0.07946150                0.26548682                0.00110432               -0.00080346                0.00013627
               7.00000000                1.00000000               31.00000000                0.23480096               -0.08130745               -0.08141623                0.27216096                0.00100323               -0.00054083                0.00034617
               8.00000000                1.00000000               31.00000000                0.33157588               -0.08342288               -0.08342131                0.27888239                0.00070468               -0.00026337                0.00053978
               9.00000000                1.00000000               31.00000000                0.44949584               -0.08560765               -0.08550934                0.28564212                0.00041402               -0.00004275                0.00065486
              10.00000000                1.00000000               31.00000000                0.76635569               -0.08668638               -0.08834533                0.29244537               -0.00044576                0.00005093                0.00046621
               0.00000000                2.00000000               31.00000000                0.49712455               -0.07061328               -0.06790416                0.23232065                0.00101337                0.00006739               -0.00144658
               1.00000000                2.00000000               31.00000000                0.01000000               -0.06886586               -0.07357816                0.23903062                0.00806360                0.00136451               -0.00105760
               2.00000000                2.00000000               31.00000000                0.01000001               -0.07260550               -0.07260530                0.24667710                0.02508031                0.00241362                0.00241553
               3.00000000                2.00000000               31.00000000                0.01000000               -0.08642096               -0.06504297                0.25407338                0.02361277               -0.00227129                0.00674324
               4.00000000                2.00000000               31.00000000                0.01000000               -0.08713538               -0.06458177                0.25840618                0.02389210               -0.00359867                0.01375708
               5.00000000                2.00000000               31.00000000                0.01000001               -0.07972036               -0.06253493                0.26475669                0.02999462               -0.00037750                0.02172022
               6.00000000                2.00000000               31.00000000                0.02636852               -0.08082290               -0.06528621                0.27135500                0.02696603                0.00019958                0.02234666
               7.00000000                2.00000000               31.00000000                0.05983060               -0.08284716               -0.07251132                0.27802665                0.02220239                0.00044995                0.01961008
               8.00000000                2.00000000               31.00000000                0.10192436               -0.08510295               -0.07915236                0.28473327                0.01728030                0.00054037                0.01748198
               9.00000000                2.00000000               31.00000000                0.15502363               -0.08717031               -0.08533569                0.29148971                0.01316932                0.00038009                0.01598991
              10.00000000                2.00000000               31.00000000                0.59614961               -0.08810255               -0.09731042                0.29835215                0.01116546                0.00019614                0.01562078
               0.00000000                3.00000000               31.00000000                0.51740431               -0.07270234               -0.07052186                0.23907368                0.00105078                0.00004557               -0.00176866
               1.00000000                3.00000000               31.00000000                0.01000001               -0.06720924               -0.07495703                0.24564910                0.00856629                0.00313837               -0.00120967
               2.00000000                3.00000000               31.00000000                0.01000000               -0.06504235               -0.08642025                0.25407195                0.02361277                0.00674142               -0.00227669
               3.00000000                3.00000000               31.00000000                0.01000000               -0.07114906               -0.07114999                0.26302254                0.03990503                0.00966985                0.00967175
               4.00000000                3.00000000               31.00000000                0.01197069               -0.07741625               -0.06314498                0.27305730                0.04959090                0.01320842                0.02343221
               5.00000000                3.00000000               31.00000000                0.02054861               -0.08514852               -0.06458390                0.28312470                0.04521417                0.00740886                0.02697675
               6.00000000                3.00000000               31.00000000                0.04908853               -0.09088729               -0.06948227                0.28885498                0.03218247               -0.00280675                0.02695683
               7.00000000                3.00000000               31.00000000                0.08324881               -0.09323502               -0.07561837                0.29319432                0.02431275               -0.00514303                0.02655760
               8.00000000                3.00000000               31.00000000                0.12398060               -0.09397544               -0.08217758                0.29813556                0.02189358               -0.00355474                0.02604773
               9.00000000                3.00000000               31.00000000                0.17251447               -0.09234756               -0.08985774                0.30367255                0.01424090               -0.00165068                0.02574652
              10.00000000                3.00000000               31.00000000                0.60327200               -0.09083379               -0.10018353                0.30995608                0.00562387               -0.00065856                0.02630225
               0.00000000                4.00000000               31.00000000                0.54633517               -0.07471631               -0.07311607                0.24584581                0.00104336                0.00003405               -0.00186195
               1.00000000                4.00000000               31.00000000                0.04139999               -0.07474945               -0.07627925                0.25224622                0.00088988                0.00020119               -0.00116265
               2.00000000                4.00000000               31.00000000                0.01000000               -0.06457813               -0.08713461                0.25840219                0.02389049                0.01375503               -0.00359847
               3.00000000                4.00000000               31.00000000                0.01197145               -0.06313943               -0.07741930                0.27305919                0.04958908                0.02343721                0.01320786
               4.00000000                4.00000000               31.00000000                0.02051349               -0.07947404               -0.07947680                0.28481087                0.02822335                0.01279202                0.01279183
               5.00000000                4.00000000               31.00000000                0.04899973               -0.08896862               -0.08653889                0.29199157                0.01837316                0.00223386                0.00653943
               6.00000000                4.00000000               31.00000000                0.08303955               -0.09150688               -0.09063620                0.29736637                0.01464528               -0.00134288                0.00689241
               7.00000000                4.00000000               31.00000000                0.12351936               -0.09259687               -0.09129220                0.30264895                0.01388451               -0.00158755                0.01024679
               8.00000000                4.00000000               31.00000000                0.17154759               -0.09324177               -0.09319240                0.30806853                0.01337608               -0.00124956                0.01280688
               9.00000000                4.00000000               31.00000000                0.22852836               -0.09428429               -0.09638494                0.31375434                0.00953925               -0.00061209                0.01470726
              10.00000000                4.00000000               31.00000000                0.63401781               -0.09515935               -0.09505909                0.31979366                0.00367049               -0.00024530                0.01567509
               0.00000000                5.00000000               31.00000000                0.58436895               -0.07673895               -0.07560872                0.25263404                0.00106874                0.00002240               -0.00176541
               1.00000000                5.00000000               31.00000000                0.09198826               -0.07739085               -0.07774363                0.25884872                0.00092433                0.00000783               -0.00101988
               2.00000000                5.00000000               31.00000000                0.01000001               -0.06252976               -0.07971934                0.26475434                0.02999092                0.02171703               -0.00036947
               3.00000000                5.00000000               31.00000000                0.02055058               -0.06457828               -0.08515038                0.28312128                0.04520761                0.02697292                0.00740480
               4.00000000                5.00000000               31.00000000                0.04900103               -0.08653715               -0.08896826                0.29198731                0.01836960                0.00653945                0.00223216
               5.00000000                5.00000000               31.00000000                0.08304531               -0.09160294               -0.09160320                0.29822531                0.01287885                0.00122972                0.00122851
               6.00000000                5.00000000               31.00000000                0.12353229               -0.09270341               -0.09336488                0.30404636                0.01018083                0.00031363                0.00267483
               7.00000000                5.00000000               31.00000000                0.17156901               -0.09354113               -0.09511431                0.30972470                0.00833320               -0.00003758                0.00414656
               8.00000000                5.00000000               31.00000000                0.22855051               -0.09452956               -0.09694877                0.31540564                0.00655933               -0.00012669                0.00544659
               9.00000000                5.00000000               31.00000000                0.29625191               -0.09626604               -0.09795858                0.32117901                0.00381850               -0.00007899                0.00644010
              10.00000000                5.00000000               31.00000000                0.67134721               -0.09741977               -0.09605569                0.32708657                0.00118260               -0.00002331                0.00702771
               0.00000000                6.00000000               31.00000000                0.63229168               -0.07875484               -0.07795489                0.25943851                0.00109265                0.00001438               -0.00153015
               1.00000000                6.00000000               31.00000000                0.15580384               -0.07945916               -0.07940722                0.26547903                0.00110417                0.00013624               -0.00080328
               2.00000000                6.00000000               31.00000000                0.02637250               -0.06528257               -0.08082110                0.27134902                0.02696176                0.02233963                0.00020058
               3.00000000                6.00000000               31.00000000                0.04909151               -0.06947781               -0.09088631                0.28885025                0.03217380                0.02695111               -0.00280814
               4.00000000                6.00000000               31.00000000                0.08304200               -0.09063341               -0.09150585                0.29736371                0.01464145                0.00689453               -0.00134439
               5.00000000                6.00000000               31.00000000                0.12353396               -0.09336348               -0.09270283                0.30404394                0.01017928                0.00267606                0.00031213
               6.00000000                6.00000000               31.00000000                0.17157966               -0.09443828               -0.09443872                0.31013981                0.00694996                0.00131730                0.00131638
               7.00000000                6.00000000               31.00000000                0.22857306               -0.09533976               -0.09635017                0.31599535                0.00467378                0.00071141                0.00209623
               8.00000000                6.00000000               31.00000000                0.29628493               -0.09651294               -0.09804414                0.32177301                0.00291237                0.00038539                0.00274902
               9.00000000                6.00000000               31.00000000                0.37699137               -0.09824974               -0.09900606                0.32755958                0.00139860                0.00016535                0.00326163
              10.00000000                6.00000000               31.00000000                0.71589290               -0.09929069               -0.09868379                0.33339346               -0.00006283                0.00007326                0.00360402
               0.00000000                7.00000000               31.00000000                0.69111290               -0.08076398               -0.08013565                0.26626120                0.00109965                0.00001674               -0.00121420
               1.00000000                7.00000000               31.00000000                0.23481157               -0.08141357               -0.08130485                0.27215224                0.00100311                0.00034664               -0.00054075
               2.00000000                7.00000000               31.00000000                0.05983599               -0.07250842               -0.08284507                0.27801903                0.02219798                0.01960414                0.00045048
               3.00000000                7.00000000               31.00000000                0.08325374               -0.07561459               -0.09323291                0.29318831                0.02430503                0.02654987               -0.00514145
               4.00000000                7.00000000               31.00000000                0.12352305               -0.09128896               -0.09259552                0.30264442                0.01388099                0.01024577               -0.00158846
               5.00000000                7.00000000               31.00000000                0.17157176               -0.09511248               -0.09354030                0.30972173                0.00833187                0.00414757               -0.00003908
               6.00000000                7.00000000               31.00000000                0.22857455               -0.09634912               -0.09533940                0.31599350                0.00467318                0.00209733                0.00071049
               7.00000000                7.00000000               31.00000000                0.29629694               -0.09728249               -0.09728276                0.32193116                0.00244063                0.00119351                0.00119273
               8.00000000                7.00000000               31.00000000                0.37700942               -0.09849056               -0.09901434                0.32773881                0.00111224                0.00068411                0.00156423
               9.00000000                7.00000000               31.00000000                0.47366914               -0.10010417               -0.10032969                0.33351610                0.00039208                0.00030414                0.00185474
              10.00000000                7.00000000               31.00000000                0.76931959               -0.10101648               -0.10112112                0.33931176               -0.00059826                0.00012081                0.00205886
               0.00000000                8.00000000               31.00000000                0.76211396               -0.08277454               -0.08215140                0.27310196                0.00106653                0.00003596               -0.00087790
               1.00000000                8.00000000               31.00000000                0.33158895               -0.08341830               -0.08341991                0.27887234                0.00070451                0.00054013               -0.00026324
               2.00000000                8.00000000               31.00000000                0.10193167               -0.07914984               -0.08510067                0.28472520                0.01727638                0.01747509                0.00054034
               3.00000000                8.00000000               31.00000000                0.12398695               -0.08217444               -0.09397256                0.29812752                0.02188724                0.02603898               -0.00355386
               4.00000000                8.00000000               31.00000000                0.17155347               -0.09318903               -0.09323973                0.30806141                0.01337282                0.01280520               -0.00124952
               5.00000000                8.00000000               31.00000000                0.22855499               -0.09694656               -0.09452819                0.31540069                0.00655817                0.00544716               -0.00012716
               6.00000000                8.00000000               31.00000000                0.29628880               -0.09804273               -0.09651196                0.32176941                0.00291187                0.00274996                0.00038479
               7.00000000                8.00000000               31.00000000                0.37701183               -0.09901355               -0.09849007                0.32773670                0.00111196                0.00156479                0.00068348
               8.00000000                8.00000000               31.00000000                0.47367594               -0.10028374               -0.10028383                0.33354412                0.00026511                0.00090083                0.00090058
               9.00000000                8.00000000               31.00000000                0.59017667               -0.10184939               -0.10186948                0.33930681               -0.00001234                0.00040190                0.00106846
              10.00000000                8.00000000               31.00000000                0.83386271               -0.10269926               -0.10327186                0.34508342               -0.00082402                0.00014863                0.00118571
               0.00000000                9.00000000               31.00000000                0.84690174               -0.08479407               -0.08404653                0.27995922                0.00104727                0.00008122               -0.00050926
               1.00000000                9.00000000               31.00000000                0.44951289               -0.08550589               -0.08560420                0.28563048                0.00041376                0.00065477               -0.00004262
               2.00000000                9.00000000               31.00000000                0.15503330               -0.08533295               -0.08716735                0.29147942                0.01316614                0.01598329                0.00038006
               3.00000000                9.00000000               31.00000000                0.17252293               -0.08985482               -0.09234438                0.30366326                0.01423720                0.02573716               -0.00164930
               4.00000000                9.00000000               31.00000000                0.22853606               -0.09638187               -0.09428178                0.31374631                0.00953704                0.01470393               -0.00061183
               5.00000000                9.00000000               31.00000000                0.29625852               -0.09795642               -0.09626414                0.32117281                0.00381777                0.00643977               -0.00007909
               6.00000000                9.00000000               31.00000000                0.37699707               -0.09900449               -0.09824828                0.32755471                0.00139831                0.00326194                0.00016485
               7.00000000                9.00000000               31.00000000                0.47367353               -0.10032855               -0.10010313                0.33351253                0.00039183                0.00185520                0.00030355
               8.00000000                9.00000000               31.00000000                0.59017955               -0.10186885               -0.10184883                0.33930481               -0.00001249                0.00106871                0.00040170
               9.00000000                9.00000000               31.00000000                0.73174338               -0.10352029               -0.10352032                0.34505240               -0.00008908                0.00047699                0.00047698
              10.00000000                9.00000000               31.00000000                0.91255058               -0.10436153               -0.10521607                0.35081944               -0.00091474                0.00016640                0.00052851
               0.00000000               10.00000000               31.00000000                0.95350778               -0.08704368               -0.08497325                0.28678987                0.00015591               -0.00004915               -0.00027907
               1.00000000               10.00000000               31.00000000                0.76636521               -0.08834128               -0.08668269                0.29243225               -0.00044616                0.00046566                0.00005095
               2.00000000               10.00000000               31.00000000                0.59615534               -0.09730580               -0.08809917                0.29833984                0.01116245                0.01561372                0.00019623
               3.00000000               10.00000000               31.00000000                0.60327722               -0.10018019               -0.09083061                0.30994547                0.00562180                0.02629201               -0.00065798
               4.00000000               10.00000000               31.00000000                0.63402264               -0.09505775               -0.09515657                0.31978454                0.00366879                0.01567049               -0.00024532
               5.00000000               10.00000000               31.00000000                0.67135173               -0.09605430               -0.09741765                0.32707916                0.00118181                0.00702654               -0.00002343
               6.00000000               10.00000000               31.00000000                0.71589661               -0.09868226               -0.09928902                0.33338726               -0.00006323                0.00360373                0.00007280
               7.00000000               10.00000000               31.00000000                0.76932219               -0.10111968               -0.10101522                0.33930676               -0.00059860                0.00205910                0.00012041
               8.00000000               10.00000000               31.00000000                0.83386478               -0.10327074               -0.10269839                0.34507968               -0.00082437                0.00118585                0.00014855
               9.00000000               10.00000000               31.00000000                0.91255103               -0.10521546               -0.10436122                0.35081751               -0.00091508                0.00052835                0.00016643
              10.00000000               10.00000000               31.00000000                0.98209909               -0.10614505               -0.10614537                0.35658101               -0.00186203                0.00017375                0.00017395
               0.00000000                0.00000000               32.00000000                0.74963131               -0.06635406               -0.06635381                0.21899628                0.00228265               -0.00012471               -0.00012471
               1.00000000                0.00000000               32.00000000                0.49486668               -0.06652627               -0.06905942                0.22575178                0.00190001               -0.00070054               -0.00006038
               2.00000000                0.00000000               32.00000000                0.49713616               -0.06799299               -0.07065298                0.23246268                0.00101248               -0.00145865                0.00004595
               3.00000000                0.00000000               32.00000000                0.51741221               -0.07058964               -0.07273208                0.23917816                0.00105048               -0.00174653                0.00003173
               4.00000000                0.00000000               32.00000000                0.54634023               -0.07315902               -0.07473695                0.24590993                0.00104318               -0.00181447                0.00002631
               5.00000000                0.00000000               32.00000000                0.58436912               -0.07562781               -0.07675033                0.25265762                0.00106770               -0.00170453                0.00001862
               6.00000000                0.00000000               32.00000000                0.63228521               -0.07795357               -0.07875683                0.25942208                0.00109050               -0.00146161                0.00001218
               7.00000000                0.00000000               32.00000000                0.69109808               -0.08011794               -0.08075636                0.26620535                0.00109672               -0.00113858                0.00001461
               8.00000000                0.00000000               32.00000000                0.76208775               -0.08212070               -0.08275716                0.27300725                0.00106341               -0.00079401                0.00003443
               9.00000000                0.00000000               32.00000000                0.84685768               -0.08400494               -0.08476637                0.27982564                0.00104356               -0.00043449                0.00008075
              10.00000000                0.00000000               32.00000000                0.95347861               -0.08492656               -0.08700360                0.28662085                0.00013673               -0.00021667                0.00000957
               0.00000000                1.00000000               32.00000000                0.49486673               -0.06905911               -0.06652582                0.22575014                0.00189968               -0.00006053               -0.00070028
               1.00000000                1.00000000               32.00000000                0.01000001               -0.07094267               -0.07094273                0.23250158                0.00262912               -0.00057977               -0.00057915
               2.00000000                1.00000000               32.00000000                0.01000000               -0.07357122               -0.06894194                0.23915101                0.00791619               -0.00126185                0.00179818
               3.00000000                1.00000000               32.00000000                0.01000001               -0.07495284               -0.06735020                0.24574773                0.00841974               -0.00148413                0.00402173
               4.00000000                1.00000000               32.00000000                0.04140635               -0.07628224               -0.07478245                0.25232418                0.00091235               -0.00145936                0.00008456
               5.00000000                1.00000000               32.00000000                0.09198976               -0.07775228               -0.07740926                0.25890581                0.00093402               -0.00130098               -0.00014693
               6.00000000                1.00000000               32.00000000                0.15580072               -0.07941728               -0.07947118                0.26551329                0.00110215               -0.00104141                0.00005234
               7.00000000                1.00000000               32.00000000                0.23480085               -0.08131093               -0.08141762                0.27216079                0.00099833               -0.00072172                0.00033449
               8.00000000                1.00000000               32.00000000                0.33156604               -0.08341757               -0.08341201                0.27885248                0.00070115               -0.00038957                0.00058113
               9.00000000                1.00000000               32.00000000                0.44947108               -0.08559178               -0.08548749                0.28558052                0.00041058               -0.00012037                0.00074397
              10.00000000                1.00000000               32.00000000                0.76633710               -0.08666527               -0.08830030                0.29234947               -0.00046810                0.00000025                0.00065519
               0.00000000                2.00000000               32.00000000                0.49713705               -0.07065207               -0.06799205                0.23245933                0.00101218                0.00004596               -0.00145806
               1.00000000                2.00000000               32.00000000                0.01000000               -0.06894167               -0.07357072                0.23914913                0.00791652                0.00179756               -0.00126079
               2.00000000                2.00000000               32.00000000                0.01000001               -0.07261690               -0.07261612                0.24672890                0.02459487                0.00325433                0.00325526
               3.00000000                2.00000000               32.00000000                0.01000000               -0.08617779               -0.06523425                0.25407495                0.02313640               -0.00310038                0.00895923
               4.00000000                2.00000000               32.00000000                0.01000000               -0.08694044               -0.06481548                0.25850948                0.02343355               -0.00522251                0.01768104
               5.00000000                2.00000000               32.00000000                0.01000001               -0.07974039               -0.06280213                0.26486228                0.02947964               -0.00090633                0.02750168
               6.00000000                2.00000000               32.00000000                0.02637067               -0.08085549               -0.06549086                0.27144351                0.02655527               -0.00015169                0.02785998
               7.00000000                2.00000000               32.00000000                0.05983393               -0.08287584               -0.07258515                0.27809346                0.02189760                0.00017525                0.02413916
               8.00000000                2.00000000               32.00000000                0.10192849               -0.08512598               -0.07911572                0.28477709                0.01705647                0.00032660                0.02126716
               9.00000000                2.00000000               32.00000000                0.15502722               -0.08718897               -0.08520687                0.29150529                0.01298512                0.00025405                0.01928029
              10.00000000                2.00000000               32.00000000                0.59615080               -0.08811964               -0.09700381                0.29832862                0.01093022                0.00013499                0.01872832
               0.00000000                3.00000000               32.00000000                0.51741481               -0.07273068               -0.07058820                0.23917320                0.00105030                0.00003170               -0.00174622
               1.00000000                3.00000000               32.00000000                0.01000001               -0.06734899               -0.07495179                0.24574424                0.00842039                0.00402043               -0.00148342
               2.00000000                3.00000000               32.00000000                0.01000000               -0.06523388               -0.08617794                0.25407399                0.02313631                0.00895752               -0.00310018
               3.00000000                3.00000000               32.00000000                0.01000000               -0.07121965               -0.07122037                0.26290380                0.03906430                0.01278985                0.01279230
               4.00000000                3.00000000               32.00000000                0.01197025               -0.07735446               -0.06337882                0.27277837                0.04862061                0.01695359                0.03042132
               5.00000000                3.00000000               32.00000000                0.02054884               -0.08497755               -0.06478896                0.28269397                0.04442208                0.00908302                0.03465747
               6.00000000                3.00000000               32.00000000                0.04908854               -0.09070367               -0.06958768                0.28848755                0.03166591               -0.00401206                0.03419944
               7.00000000                3.00000000               32.00000000                0.08324940               -0.09310710               -0.07560094                0.29294303                0.02394752               -0.00683917                0.03313372
               8.00000000                3.00000000               32.00000000                0.12398150               -0.09392316               -0.08203155                0.29796385                0.02157089               -0.00476898                0.03199769
               9.00000000                3.00000000               32.00000000                0.17251594               -0.09240930               -0.08956844                0.30354804                0.01403280               -0.00227581                0.03116639
              10.00000000                3.00000000               32.00000000                0.60327257               -0.09096417               -0.09972667                0.30984329                0.00551497               -0.00090041                0.03109159
               0.00000000                4.00000000               32.00000000                0.54634223               -0.07473530               -0.07315724                0.24590380                0.00104308                0.00002629               -0.00181486
               1.00000000                4.00000000               32.00000000                0.04140868               -0.07478139               -0.07628085                0.25231954                0.00091174                0.00008210               -0.00145934
               2.00000000                4.00000000               32.00000000                0.01000000               -0.06481224               -0.08694051                0.25851364                0.02343204                0.01768082               -0.00521977
               3.00000000                4.00000000               32.00000000                0.01197124               -0.06337345               -0.07735745                0.27277731                0.04862033                0.03042088                0.01695116
               4.00000000                4.00000000               32.00000000                0.02051299               -0.07940234               -0.07940543                0.28430950                0.02767386                0.01628150                0.01628158
               5.00000000                4.00000000               32.00000000                0.04899842               -0.08878234               -0.08638811                0.29148974                0.01799532                0.00257110                0.00833039
               6.00000000                4.00000000               32.00000000                0.08303729               -0.09134678               -0.09045293                0.29695413                0.01433455               -0.00200287                0.00880913
               7.00000000                4.00000000               32.00000000                0.12351562               -0.09248905               -0.09111664                0.30232189                0.01360536               -0.00229016                0.01284828
               8.00000000                4.00000000               32.00000000                0.17154315               -0.09319500               -0.09298878                0.30781749                0.01313523               -0.00180050                0.01577017
               9.00000000                4.00000000               32.00000000                0.22852253               -0.09428750               -0.09612318                0.31356436                0.00939070               -0.00087953                0.01772658
              10.00000000                4.00000000               32.00000000                0.63401467               -0.09517942               -0.09481449                0.31964706                0.00364146               -0.00035735                0.01832576
               0.00000000                5.00000000               32.00000000                0.58437164               -0.07674848               -0.07562575                0.25265057                0.00106756                0.00001869               -0.00170525
               1.00000000                5.00000000               32.00000000                0.09199510               -0.07740766               -0.07775060                0.25890026                0.00093354               -0.00014546               -0.00130128
               2.00000000                5.00000000               32.00000000                0.01000001               -0.06279671               -0.07973889                0.26485592                0.02947612                0.02749599               -0.00090381
               3.00000000                5.00000000               32.00000000                0.02055046               -0.06478331               -0.08497976                0.28269080                0.04441597                0.03465047                0.00907750
               4.00000000                5.00000000               32.00000000                0.04899943               -0.08638692               -0.08878244                0.29148841                0.01799232                0.00833285                0.00256857
               5.00000000                5.00000000               32.00000000                0.08304228               -0.09142046               -0.09142071                0.29777520                0.01260541                0.00146680                0.00146307
               6.00000000                5.00000000               32.00000000                0.12352654               -0.09256297               -0.09319593                0.30366739                0.00996936                0.00021549                0.00333860
               7.00000000                5.00000000               32.00000000                0.17156048               -0.09344827               -0.09495385                0.30942093                0.00816902               -0.00024740                0.00512564
               8.00000000                5.00000000               32.00000000                0.22854011               -0.09447969               -0.09679051                0.31517461                0.00644159               -0.00031396                0.00659744
               9.00000000                5.00000000               32.00000000                0.29623947               -0.09624538               -0.09781271                0.32101521                0.00376092               -0.00016734                0.00759348
              10.00000000                5.00000000               32.00000000                0.67134124               -0.09740908               -0.09595475                0.32698340                0.00116455               -0.00006379                0.00797945
               0.00000000                6.00000000               32.00000000                0.63228899               -0.07875462               -0.07795109                0.25941377                0.00109030                0.00001232               -0.00146189
               1.00000000                6.00000000               32.00000000                0.15580777               -0.07946915               -0.07941522                0.26550649                0.00110181                0.00005249               -0.00104127
               2.00000000                6.00000000               32.00000000                0.02637407               -0.06548739               -0.08085378                0.27143723                0.02655100                0.02785381               -0.00015308
               3.00000000                6.00000000               32.00000000                0.04909181               -0.06958317               -0.09070281                0.28848335                0.03165721                0.03419304               -0.00401239
               4.00000000                6.00000000               32.00000000                0.08303965               -0.09045001               -0.09134542                0.29694976                0.01433069                0.00880962               -0.00200373
               5.00000000                6.00000000               32.00000000                0.12352776               -0.09319466               -0.09256253                0.30366536                0.00996822                0.00334031                0.00021394
               6.00000000                6.00000000               32.00000000                0.17157015               -0.09431155               -0.09431186                0.30982114                0.00681064                0.00152305                0.00152106
               7.00000000                6.00000000               32.00000000                0.22855999               -0.09525701               -0.09623556                0.31574789                0.00458483                0.00072473                0.00246332
               8.00000000                6.00000000               32.00000000                0.29626983               -0.09646754               -0.09794560                0.32159985                0.00286167                0.00034452                0.00317924
               9.00000000                6.00000000               32.00000000                0.37697734               -0.09823106               -0.09893293                0.32745852                0.00137820                0.00014016                0.00366758
              10.00000000                6.00000000               32.00000000                0.71588703               -0.09928248               -0.09864858                0.33336169               -0.00007615                0.00005746                0.00390548
               0.00000000                7.00000000               32.00000000                0.69110467               -0.08075373               -0.08011499                0.26619562                0.00109649                0.00001461               -0.00113868
               1.00000000                7.00000000               32.00000000                0.23481082               -0.08141512               -0.08130845                0.27215251                0.00099794                0.00033377               -0.00072136
               2.00000000                7.00000000               32.00000000                0.05983946               -0.07258232               -0.08287367                0.27808506                0.02189355                0.02413198                0.00017597
               3.00000000                7.00000000               32.00000000                0.08325399               -0.07559733               -0.09310480                0.29293565                0.02394095                0.03312614               -0.00683822
               4.00000000                7.00000000               32.00000000                0.12351906               -0.09111344               -0.09248751                0.30231704                0.01360198                0.01284822               -0.00229139
               5.00000000                7.00000000               32.00000000                0.17156378               -0.09495192               -0.09344725                0.30941696                0.00816758                0.00512723               -0.00024808
               6.00000000                7.00000000               32.00000000                0.22856146               -0.09623460               -0.09525662                0.31574621                0.00458432                0.00246443                0.00072371
               7.00000000                7.00000000               32.00000000                0.29628070               -0.09721336               -0.09721357                0.32175530                0.00239594                0.00129891                0.00129789
               8.00000000                7.00000000               32.00000000                0.37699451               -0.09845854               -0.09896455                0.32763957                0.00109339                0.00069163                0.00169010
               9.00000000                7.00000000               32.00000000                0.47366037               -0.10010028               -0.10030534                0.33349299                0.00038715                0.00029430                0.00195685
              10.00000000                7.00000000               32.00000000                0.76931902               -0.10102451               -0.10112707                0.33936225               -0.00060933                0.00011142                0.00211028
               0.00000000                8.00000000               32.00000000                0.76209535               -0.08275417               -0.08211732                0.27299618                0.00106317                0.00003444               -0.00079439
               1.00000000                8.00000000               32.00000000                0.33157968               -0.08340908               -0.08341467                0.27884280                0.00070098                0.00058117               -0.00038951
               2.00000000                8.00000000               32.00000000                0.10193611               -0.07911300               -0.08512327                0.28476720                0.01705292                0.02126028                0.00032742
               3.00000000                8.00000000               32.00000000                0.12398767               -0.08202852               -0.09392033                0.29795610                0.02156504                0.03198812               -0.00476726
               4.00000000                8.00000000               32.00000000                0.17154837               -0.09298571               -0.09319324                0.30781144                0.01313224                0.01576795               -0.00180019
               5.00000000                8.00000000               32.00000000                0.22854446               -0.09678836               -0.09447837                0.31516969                0.00644054                0.00659852               -0.00031453
               6.00000000                8.00000000               32.00000000                0.29627355               -0.09794427               -0.09646658                0.32159648                0.00286110                0.00318005                0.00034375
               7.00000000                8.00000000               32.00000000                0.37699651               -0.09896380               -0.09845806                0.32763750                0.00109307                0.00169074                0.00069083
               8.00000000                8.00000000               32.00000000                0.47366668               -0.10027154               -0.10027163                0.33352408                0.00026090                0.00091088                0.00091000
               9.00000000                8.00000000               32.00000000                0.59018762               -0.10186637               -0.10188143                0.33936599               -0.00001157                0.00038900                0.00105965
              10.00000000                8.00000000               32.00000000                0.83387720               -0.10272908               -0.10330947                0.34521842               -0.00083423                0.00013950                0.00115369
               0.00000000                9.00000000               32.00000000                0.84686853               -0.08476287               -0.08400111                0.27981298                0.00104330                0.00008068               -0.00043464
               1.00000000                9.00000000               32.00000000                0.44948681               -0.08548412               -0.08558843                0.28556927                0.00041062                0.00074347               -0.00012025
               2.00000000                9.00000000               32.00000000                0.15503672               -0.08520411               -0.08718592                0.29149474                0.01298209                0.01927368                0.00025360
               3.00000000                9.00000000               32.00000000                0.17252441               -0.08956560               -0.09240645                0.30353942                0.01402885                0.03115706               -0.00227492
               4.00000000                9.00000000               32.00000000                0.22853075               -0.09612020               -0.09428519                0.31355668                0.00938853                0.01772297               -0.00087856
               5.00000000                9.00000000               32.00000000                0.29624655               -0.09781061               -0.09624354                0.32100901                0.00376040                0.00759289               -0.00016705
               6.00000000                9.00000000               32.00000000                0.37698270               -0.09893148               -0.09822968                0.32745403                0.00137799                0.00366748                0.00013973
               7.00000000                9.00000000               32.00000000                0.47366475               -0.10030424               -0.10009920                0.33348933                0.00038691                0.00195694                0.00029399
               8.00000000                9.00000000               32.00000000                0.59018938               -0.10188082               -0.10186577                0.33936397               -0.00001169                0.00106004                0.00038844
               9.00000000                9.00000000               32.00000000                0.73179608               -0.10356079               -0.10356079                0.34519282               -0.00008752                0.00045367                0.00045315
              10.00000000                9.00000000               32.00000000                0.91259503               -0.10441466               -0.10528059                0.35103653               -0.00092549                0.00015473                0.00049548
               0.00000000               10.00000000               32.00000000                0.95348506               -0.08699950               -0.08492249                0.28660648                0.00013622                0.00000920               -0.00021658
               1.00000000               10.00000000               32.00000000                0.76634700               -0.08829636               -0.08666167                0.29233656               -0.00046821                0.00065390                0.00000048
               2.00000000               10.00000000               32.00000000                0.59615577               -0.09699936               -0.08811642                0.29831694                0.01092712                0.01872116                0.00013438
               3.00000000               10.00000000               32.00000000                0.60327753               -0.09972345               -0.09096140                0.30983312                0.00551269                0.03108193               -0.00089992
               4.00000000               10.00000000               32.00000000                0.63401985               -0.09481311               -0.09517673                0.31963780                0.00363992                0.01832129               -0.00035662
               5.00000000               10.00000000               32.00000000                0.67134547               -0.09595330               -0.09740688                0.32697567                0.00116389                0.00797776               -0.00006329
               6.00000000               10.00000000               32.00000000                0.71589063               -0.09864713               -0.09928089                0.33335590               -0.00007648                0.00390459                0.00005730
               7.00000000               10.00000000               32.00000000                0.76932176               -0.10112566               -0.10102317                0.33935720               -0.00060960                0.00210985                0.00011131
               8.00000000               10.00000000               32.00000000                0.83387894               -0.10330838               -0.10272817                0.34521476               -0.00083459                0.00115342                0.00013917
               9.00000000               10.00000000               32.00000000                0.91259501               -0.10528005               -0.10441436                0.35103476               -0.00092582                0.00049549                0.00015430
              10.00000000               10.00000000               32.00000000                0.98213344               -0.10622219               -0.10622246                0.35687515               -0.00188572                0.00016045                0.00016041
               0.00000000                0.00000000               33.00000000                0.74965442               -0.06641726               -0.06641705                0.21921984                0.00227284               -0.00013491               -0.00013485
               1.00000000                0.00000000               33.00000000                0.49489458               -0.06658927               -0.06911086                0.22594180                0.00189665               -0.00073396               -0.00007332
               2.00000000                0.00000000               33.00000000                0.49714987               -0.06805356               -0.07069329                0.23261490                0.00101209               -0.00148185                0.00002724
               3.00000000                0.00000000               33.00000000                0.51742309               -0.07064196               -0.07276234                0.23928845                0.00105143               -0.00174121                0.00001912
               4.00000000                0.00000000               33.00000000                0.54634789               -0.07319743               -0.07475682                0.24597561                0.00104421               -0.00178643                0.00001907
               5.00000000                0.00000000               33.00000000                0.58437241               -0.07564988               -0.07675967                0.25267821                0.00106836               -0.00166192                0.00001484
               6.00000000                0.00000000               33.00000000                0.63228211               -0.07795887               -0.07875563                0.25939873                0.00109045               -0.00140814                0.00000973
               7.00000000                0.00000000               33.00000000                0.69108855               -0.08010671               -0.08074454                0.26613911                0.00109567               -0.00107550                0.00001206
               8.00000000                0.00000000               33.00000000                0.76206646               -0.08209305               -0.08273419                0.27289844                0.00106122               -0.00072144                0.00003279
               9.00000000                0.00000000               33.00000000                0.84682093               -0.08396155               -0.08473211                0.27967470                0.00103967               -0.00036821                0.00008066
              10.00000000                0.00000000               33.00000000                0.95345474               -0.08487565               -0.08695758                0.28643166                0.00011856               -0.00016081                0.00006273
               0.00000000                1.00000000               33.00000000                0.49489436               -0.06911063               -0.06658889                0.22594044                0.00189646               -0.00007347               -0.00073366
               1.00000000                1.00000000               33.00000000                0.01000001               -0.07098800               -0.07098806                0.23265946                0.00263162               -0.00065212               -0.00065149
               2.00000000                1.00000000               33.00000000                0.01000000               -0.07360241               -0.06898342                0.23927965                0.00790719               -0.00145269                0.00221242
               3.00000000                1.00000000               33.00000000                0.01000001               -0.07497078               -0.06740649                0.24584878                0.00842221               -0.00174033                0.00486684
               4.00000000                1.00000000               33.00000000                0.04141410               -0.07629132               -0.07479777                0.25239866                0.00096774               -0.00173681               -0.00003597
               5.00000000                1.00000000               33.00000000                0.09199493               -0.07775487               -0.07741961                0.25895350                0.00097357               -0.00156413               -0.00029120
               6.00000000                1.00000000               33.00000000                0.15580258               -0.07941409               -0.07947677                0.26553334                0.00112692               -0.00126418               -0.00002801
               7.00000000                1.00000000               33.00000000                0.23479801               -0.08130164               -0.08141420                0.27215115                0.00101443               -0.00089117                0.00032211
               8.00000000                1.00000000               33.00000000                0.33155265               -0.08340156               -0.08339706                0.27881065                0.00071089               -0.00050793                0.00062136
               9.00000000                1.00000000               33.00000000                0.44944103               -0.08556842               -0.08546018                0.28550526                0.00041417               -0.00019230                0.00083030
              10.00000000                1.00000000               33.00000000                0.76631504               -0.08663804               -0.08826016                0.29223854               -0.00048144               -0.00004553                0.00083224
               0.00000000                2.00000000               33.00000000                0.49715000               -0.07069269               -0.06805279                0.23261220                0.00101188                0.00002739               -0.00148159
               1.00000000                2.00000000               33.00000000                0.01000000               -0.06898332               -0.07360206                0.23927841                0.00790757                0.00221173               -0.00145199
               2.00000000                2.00000000               33.00000000                0.01000001               -0.07262180               -0.07262068                0.24679721                0.02451104                0.00405771                0.00405949
               3.00000000                2.00000000               33.00000000                0.01000000               -0.08609825               -0.06528565                0.25409756                0.02305745               -0.00388652                0.01106847
               4.00000000                2.00000000               33.00000000                0.01000000               -0.08688313               -0.06487348                0.25860877                0.02337805               -0.00675102                0.02143281
               5.00000000                2.00000000               33.00000000                0.01000001               -0.07975316               -0.06284554                0.26495923                0.02944118               -0.00139151                0.03303000
               6.00000000                2.00000000               33.00000000                0.02637248               -0.08086588               -0.06548268                0.27151717                0.02656907               -0.00047627                0.03315067
               7.00000000                2.00000000               33.00000000                0.05983661               -0.08288202               -0.07251451                0.27814103                0.02194121               -0.00007469                0.02849649
               8.00000000                2.00000000               33.00000000                0.10193163               -0.08513192               -0.07899518                0.28480031                0.01710575                0.00013355                0.02492259
               9.00000000                2.00000000               33.00000000                0.15502791               -0.08719327               -0.08504892                0.29149965                0.01301361                0.00014000                0.02246900
              10.00000000                2.00000000               33.00000000                0.59614980               -0.08812187               -0.09682214                0.29828319                0.01089878                0.00008027                0.02174944
               0.00000000                3.00000000               33.00000000                0.51742390               -0.07276125               -0.07064067                0.23928409                0.00105118                0.00001927               -0.00174127
               1.00000000                3.00000000               33.00000000                0.01000001               -0.06740547               -0.07496987                0.24584588                0.00842344                0.00486707               -0.00173999
               2.00000000                3.00000000               33.00000000                0.01000000               -0.06528517               -0.08609828                0.25409579                0.02305749                0.01106733               -0.00388634
               3.00000000                3.00000000               33.00000000                0.01000000               -0.07119883               -0.07119912                0.26282409                0.03884852                0.01576530                0.01576719
               4.00000000                3.00000000               33.00000000                0.01197046               -0.07724764               -0.06339023                0.27256211                0.04841158                0.02053252                0.03709193
               5.00000000                3.00000000               33.00000000                0.02054868               -0.08483861               -0.06476775                0.28235047                0.04432293                0.01068653                0.04199538
               6.00000000                3.00000000               33.00000000                0.04908827               -0.09061052               -0.06950844                0.28820571                0.03166398               -0.00515378                0.04113555
               7.00000000                3.00000000               33.00000000                0.08324982               -0.09307421               -0.07545428                0.29274851                0.02398255               -0.00845769                0.03945276
               8.00000000                3.00000000               33.00000000                0.12398241               -0.09394738               -0.08181582                0.29783045                0.02160883               -0.00592653                0.03773623
               9.00000000                3.00000000               33.00000000                0.17251677               -0.09249248               -0.08928659                0.30344918                0.01406129               -0.00287076                0.03641814
              10.00000000                3.00000000               33.00000000                0.60327353               -0.09107654               -0.09939934                0.30974851                0.00552227               -0.00113059                0.03577747
               0.00000000                4.00000000               33.00000000                0.54634993               -0.07475520               -0.07319568                0.24596954                0.00104403                0.00001913               -0.00178644
               1.00000000                4.00000000               33.00000000                0.04141569               -0.07479673               -0.07628992                0.25239406                0.00096755               -0.00003709               -0.00173639
               2.00000000                4.00000000               33.00000000                0.01000000               -0.06487063               -0.08688358                0.25861647                0.02337726                0.02143232               -0.00675112
               3.00000000                4.00000000               33.00000000                0.01197133               -0.06338469               -0.07725071                0.27255837                0.04841040                0.03709129                0.02053123
               4.00000000                4.00000000               33.00000000                0.02051256               -0.07928937               -0.07929295                0.28390640                0.02756940                0.01961560                0.01961579
               5.00000000                4.00000000               33.00000000                0.04899705               -0.08865414               -0.08626429                0.29110073                0.01790905                0.00290065                0.01004680
               6.00000000                4.00000000               33.00000000                0.08303586               -0.09125084               -0.09032806                0.29663185                0.01426196               -0.00262898                0.01064250
               7.00000000                4.00000000               33.00000000                0.12351353               -0.09243102               -0.09098421                0.30206983                0.01355456               -0.00295833                0.01534809
               8.00000000                4.00000000               33.00000000                0.17154069               -0.09317735               -0.09282685                0.30762469                0.01311294               -0.00232564                0.01862779
               9.00000000                4.00000000               33.00000000                0.22851898               -0.09430716               -0.09591857                0.31342094                0.00939787               -0.00113502                0.02065776
              10.00000000                4.00000000               33.00000000                0.63401295               -0.09521591               -0.09456375                0.31953714                0.00369093               -0.00046423                0.02093200
               0.00000000                5.00000000               33.00000000                0.58437527               -0.07675779               -0.07564788                0.25267132                0.00106824                0.00001485               -0.00166199
               1.00000000                5.00000000               33.00000000                0.09199893               -0.07741802               -0.07775325                0.25894810                0.00097320               -0.00029382               -0.00156375
               2.00000000                5.00000000               33.00000000                0.01000001               -0.06284062               -0.07975158                0.26495383                0.02943762                0.03302622               -0.00138982
               3.00000000                5.00000000               33.00000000                0.02055044               -0.06476237               -0.08484131                0.28235187                0.04431677                0.04199352                0.01068226
               4.00000000                5.00000000               33.00000000                0.04899850               -0.08626278               -0.08865388                0.29109747                0.01790598                0.01004670                0.00289802
               5.00000000                5.00000000               33.00000000                0.08303988               -0.09130290               -0.09130310                0.29742535                0.01253603                0.00169145                0.00169024
               6.00000000                5.00000000               33.00000000                0.12352268               -0.09247231               -0.09308838                0.30337407                0.00991993                0.00012539                0.00397532
               7.00000000                5.00000000               33.00000000                0.17155548               -0.09338671               -0.09485196                0.30918850                0.00813755               -0.00044568                0.00606726
               8.00000000                5.00000000               33.00000000                0.22853335               -0.09444614               -0.09668834                0.31500134                0.00642827               -0.00049279                0.00771090
               9.00000000                5.00000000               33.00000000                0.29623224               -0.09623840               -0.09770511                0.32089689                0.00376363               -0.00025157                0.00871943
              10.00000000                5.00000000               33.00000000                0.67133797               -0.09741532               -0.09582550                0.32691354                0.00118249               -0.00010200                0.00892636
               0.00000000                6.00000000               33.00000000                0.63228731               -0.07875351               -0.07795656                0.25939079                0.00109026                0.00000970               -0.00140847
               1.00000000                6.00000000               33.00000000                0.15580937               -0.07947478               -0.07941218                0.26552691                0.00112708               -0.00002887               -0.00126407
               2.00000000                6.00000000               33.00000000                0.02637573               -0.06547950               -0.08086397                0.27151130                0.02656503                0.03314346               -0.00047385
               3.00000000                6.00000000               33.00000000                0.04909171               -0.06950407               -0.09060937                0.28819912                0.03165540                0.04112908               -0.00515627
               4.00000000                6.00000000               33.00000000                0.08303820               -0.09032503               -0.09124904                0.29662611                0.01425855                0.01064407               -0.00263123
               5.00000000                6.00000000               33.00000000                0.12352418               -0.09308724               -0.09247177                0.30337209                0.00991884                0.00397773                0.00012314
               6.00000000                6.00000000               33.00000000                0.17156375               -0.09423022               -0.09423041                0.30957869                0.00678104                0.00172114                0.00171963
               7.00000000                6.00000000               33.00000000                0.22855181               -0.09520208               -0.09616468                0.31556373                0.00456907                0.00073971                0.00281881
               8.00000000                6.00000000               33.00000000                0.29626079               -0.09643732               -0.09788537                0.32147613                0.00285607                0.00030627                0.00359982
               9.00000000                6.00000000               33.00000000                0.37696885               -0.09822430               -0.09888046                0.32739406                0.00137927                0.00011570                0.00407019
              10.00000000                6.00000000               33.00000000                0.71588466               -0.09928729               -0.09859525                0.33335346               -0.00007436                0.00004199                0.00421443
               0.00000000                7.00000000               33.00000000                0.69109532               -0.08074178               -0.08010380                0.26612922                0.00109540                0.00001199               -0.00107585
               1.00000000                7.00000000               33.00000000                0.23480657               -0.08141169               -0.08129920                0.27214281                0.00101466                0.00032111               -0.00089112
               2.00000000                7.00000000               33.00000000                0.05984190               -0.07251199               -0.08288024                0.27813504                0.02193758                0.02848865               -0.00007415
               3.00000000                7.00000000               33.00000000                0.08325430               -0.07545080               -0.09307220                0.29274153                0.02397618                0.03944520               -0.00845703
               4.00000000                7.00000000               33.00000000                0.12351707               -0.09098094               -0.09242965                0.30206474                0.01355126                0.01534756               -0.00295862
               5.00000000                7.00000000               33.00000000                0.17155775               -0.09485020               -0.09338593                0.30918530                0.00813602                0.00606842               -0.00044727
               6.00000000                7.00000000               33.00000000                0.22855350               -0.09616391               -0.09520176                0.31556226                0.00456882                0.00282072                0.00073839
               7.00000000                7.00000000               33.00000000                0.29627065               -0.09717087               -0.09717097                0.32163110                0.00238942                0.00140364                0.00140230
               8.00000000                7.00000000               33.00000000                0.37698629               -0.09844081               -0.09893631                0.32757736                0.00109160                0.00070091                0.00181738
               9.00000000                7.00000000               33.00000000                0.47365826               -0.10010510               -0.10029097                0.33349351                0.00038773                0.00028603                0.00206506
              10.00000000                7.00000000               33.00000000                0.76932135               -0.10104022               -0.10112303                0.33942328               -0.00061431                0.00010302                0.00217290
               0.00000000                8.00000000               33.00000000                0.76207596               -0.08273087               -0.08208957                0.27288685                0.00106100                0.00003266               -0.00072173
               1.00000000                8.00000000               33.00000000                0.33156454               -0.08339408               -0.08339859                0.27880068                0.00071085                0.00062011               -0.00050779
               2.00000000                8.00000000               33.00000000                0.10193815               -0.07899277               -0.08512972                0.28479279                0.01710210                0.02491471                0.00013450
               3.00000000                8.00000000               33.00000000                0.12398870               -0.08181293               -0.09394501                0.29782311                0.02160313                0.03772777               -0.00592454
               4.00000000                8.00000000               33.00000000                0.17154574               -0.09282382               -0.09317606                0.30761992                0.01311023                0.01862593               -0.00232595
               5.00000000                8.00000000               33.00000000                0.22853784               -0.09668620               -0.09444493                0.31499665                0.00642739                0.00771113               -0.00049290
               6.00000000                8.00000000               33.00000000                0.29626454               -0.09788410               -0.09643646                0.32147292                0.00285593                0.00360059                0.00030562
               7.00000000                8.00000000               33.00000000                0.37698759               -0.09893583               -0.09844042                0.32757595                0.00109167                0.00181816                0.00069984
               8.00000000                8.00000000               33.00000000                0.47366461               -0.10027016               -0.10027015                0.33352840                0.00026092                0.00092534                0.00092441
               9.00000000                8.00000000               33.00000000                0.59020283               -0.10188777               -0.10189685                0.33943540               -0.00001128                0.00037888                0.00105899
              10.00000000                8.00000000               33.00000000                0.83389203               -0.10276106               -0.10334051                0.34534974               -0.00084222                0.00013142                0.00113174
               0.00000000                9.00000000               33.00000000                0.84683182               -0.08472842               -0.08395763                0.27966173                0.00103947                0.00008051               -0.00036864
               1.00000000                9.00000000               33.00000000                0.44945669               -0.08545681               -0.08556503                0.28549392                0.00041400                0.00082949               -0.00019232
               2.00000000                9.00000000               33.00000000                0.15503763               -0.08504642               -0.08719048                0.29149021                0.01301043                0.02246205                0.00014103
               3.00000000                9.00000000               33.00000000                0.17252600               -0.08928390               -0.09248922                0.30343930                0.01405732                0.03640818               -0.00286894
               4.00000000                9.00000000               33.00000000                0.22852663               -0.09591560               -0.09430476                0.31341300                0.00939599                0.02065352               -0.00113509
               5.00000000                9.00000000               33.00000000                0.29623933               -0.09770297               -0.09623644                0.32089032                0.00376343                0.00871896               -0.00025173
               6.00000000                9.00000000               33.00000000                0.37697463               -0.09887901               -0.09822288                0.32738931                0.00137922                0.00407002                0.00011552
               7.00000000                9.00000000               33.00000000                0.47366157               -0.10029011               -0.10010419                0.33349048                0.00038777                0.00206499                0.00028553
               8.00000000                9.00000000               33.00000000                0.59020479               -0.10189647               -0.10188734                0.33943404               -0.00001121                0.00105955                0.00037838
               9.00000000                9.00000000               33.00000000                0.73184707               -0.10360041               -0.10360038                0.34533014               -0.00008731                0.00043478                0.00043444
              10.00000000                9.00000000               33.00000000                0.91263476               -0.10446497               -0.10533844                0.35123669               -0.00093480                0.00014458                0.00046842
               0.00000000               10.00000000               33.00000000                0.95346166               -0.08695347               -0.08487153                0.28641724                0.00011806                0.00006250               -0.00016127
               1.00000000               10.00000000               33.00000000                0.76632418               -0.08825623               -0.08663446                0.29222573               -0.00048187                0.00083153               -0.00004566
               2.00000000               10.00000000               33.00000000                0.59615536               -0.09681804               -0.08811882                0.29827204                0.01089607                0.02174234                0.00008083
               3.00000000               10.00000000               33.00000000                0.60327839               -0.09939641               -0.09107286                0.30973669                0.00552020                0.03576623               -0.00112944
               4.00000000               10.00000000               33.00000000                0.63401768               -0.09456228               -0.09521270                0.31952678                0.00368925                0.02092650               -0.00046414
               5.00000000               10.00000000               33.00000000                0.67134214               -0.09582395               -0.09741294                0.32690532                0.00118190                0.00892521               -0.00010218
               6.00000000               10.00000000               33.00000000                0.71588754               -0.09859377               -0.09928561                0.33334726               -0.00007475                0.00421374                0.00004208
               7.00000000               10.00000000               33.00000000                0.76932380               -0.10112183               -0.10103905                0.33941866               -0.00061458                0.00217224                0.00010280
               8.00000000               10.00000000               33.00000000                0.83389346               -0.10333972               -0.10276043                0.34534691               -0.00084242                0.00113174                0.00013112
               9.00000000               10.00000000               33.00000000                0.91263536               -0.10533804               -0.10446476                0.35123531               -0.00093499                0.00046830                0.00014444
              10.00000000               10.00000000               33.00000000                0.98216289               -0.10629183               -0.10629204                0.35713906               -0.00190543                0.00014919                0.00014947
               0.00000000                0.00000000               34.00000000                0.74967530               -0.06648090               -0.06648067                0.21946203                0.00226402               -0.00014445               -0.00014436
               1.00000000                0.00000000               34.00000000                0.49492439               -0.06663765               -0.06917140                0.22614803                0.00190908               -0.00076978               -0.00008484
               2.00000000                0.00000000               34.00000000                0.49716497               -0.06808998               -0.07073501                0.23277987                0.00101211               -0.00151665                0.00001105
               3.00000000                0.00000000               34.00000000                0.51743395               -0.07068121               -0.07279424                0.23940855                0.00105345               -0.00175344                0.00000804
               4.00000000                0.00000000               34.00000000                0.54635569               -0.07323277               -0.07477762                0.24604877                0.00104634               -0.00177746                0.00001238
               5.00000000                0.00000000               34.00000000                0.58437489               -0.07567614               -0.07676934                0.25270410                0.00107052               -0.00163704                0.00001107
               6.00000000                0.00000000               34.00000000                0.63228050               -0.07797198               -0.07875398                0.25937813                0.00109204               -0.00137014                0.00000692
               7.00000000                0.00000000               34.00000000                0.69107933               -0.08010336               -0.08073076                0.26607224                0.00109617               -0.00102571                0.00000918
               8.00000000                0.00000000               34.00000000                0.76204563               -0.08207088               -0.08270843                0.27278709                0.00106006               -0.00066002                0.00003088
               9.00000000                0.00000000               34.00000000                0.84678321               -0.08392006               -0.08469485                0.27951999                0.00103583               -0.00031041                0.00008047
              10.00000000                0.00000000               34.00000000                0.95343029               -0.08482472               -0.08690939                0.28623714                0.00010203               -0.00011157                0.00011067
               0.00000000                1.00000000               34.00000000                0.49492444               -0.06917123               -0.06663726                0.22614678                0.00190896               -0.00008512               -0.00076937
               1.00000000                1.00000000               34.00000000                0.01000001               -0.07105797               -0.07105799                0.23283094                0.00268103               -0.00072135               -0.00072048
               2.00000000                1.00000000               34.00000000                0.01000000               -0.07366764               -0.06899389                0.23941767                0.00802098               -0.00163400                0.00261300
               3.00000000                1.00000000               34.00000000                0.01000001               -0.07500912               -0.06738630                0.24595462                0.00855720               -0.00198283                0.00568300
               4.00000000                1.00000000               34.00000000                0.04142143               -0.07630729               -0.07479945                0.25247379                0.00104860               -0.00199836               -0.00014410
               5.00000000                1.00000000               34.00000000                0.09200040               -0.07775422               -0.07742430                0.25899804                0.00103792               -0.00181173               -0.00042450
               6.00000000                1.00000000               34.00000000                0.15580301               -0.07940136               -0.07947823                0.26554652                0.00117616               -0.00147404               -0.00010243
               7.00000000                1.00000000               34.00000000                0.23479057               -0.08128064               -0.08140567                0.27213063                0.00104950               -0.00105124                0.00031027
               8.00000000                1.00000000               34.00000000                0.33153388               -0.08337547               -0.08337621                0.27875566                0.00073210               -0.00061919                0.00066028
               9.00000000                1.00000000               34.00000000                0.44940386               -0.08553774               -0.08542719                0.28541526                0.00042377               -0.00025925                0.00091370
              10.00000000                1.00000000               34.00000000                0.76628960               -0.08660464               -0.08822340                0.29211126               -0.00048663               -0.00008746                0.00099846
               0.00000000                2.00000000               34.00000000                0.49716517               -0.07073463               -0.06808932                0.23277766                0.00101199                0.00001108               -0.00151612
               1.00000000                2.00000000               34.00000000                0.01000000               -0.06899366               -0.07366738                0.23941686                0.00802109                0.00261219               -0.00163289
               2.00000000                2.00000000               34.00000000                0.01000001               -0.07261938               -0.07261893                0.24688070                0.02478648                0.00483119                0.00483139
               3.00000000                2.00000000               34.00000000                0.01000000               -0.08616753               -0.06520868                0.25413652                0.02333164               -0.00463180                0.01309624
               4.00000000                2.00000000               34.00000000                0.01000000               -0.08695128               -0.06477072                0.25871521                0.02368314               -0.00819719                0.02504062
               5.00000000                2.00000000               34.00000000                0.01000001               -0.07975728               -0.06268340                0.26503893                0.02983025               -0.00184224                0.03836295
               6.00000000                2.00000000               34.00000000                0.02637363               -0.08085576               -0.06527746                0.27157518                0.02696398               -0.00077586                0.03827454
               7.00000000                2.00000000               34.00000000                0.05983822               -0.08286868               -0.07231007                0.27817255                0.02229870               -0.00030362                0.03272706
               8.00000000                2.00000000               34.00000000                0.10193312               -0.08512221               -0.07879579                0.28480325                0.01740029               -0.00004038                0.02848230
               9.00000000                2.00000000               34.00000000                0.15502668               -0.08718362               -0.08486203                0.29147093                0.01323240                0.00003796                0.02558566
              10.00000000                2.00000000               34.00000000                0.59614754               -0.08810964               -0.09674979                0.29821349                0.01104952                0.00003183                0.02471194
               0.00000000                3.00000000               34.00000000                0.51743573               -0.07279346               -0.07068017                0.23940496                0.00105321                0.00000806               -0.00175360
               1.00000000                3.00000000               34.00000000                0.01000001               -0.06738538               -0.07500845                0.24595246                0.00855787                0.00568131               -0.00198253
               2.00000000                3.00000000               34.00000000                0.01000000               -0.06520786               -0.08616581                0.25413466                0.02333175                0.01309503               -0.00462415
               3.00000000                3.00000000               34.00000000                0.01000000               -0.07109283               -0.07109393                0.26277993                0.03919338                0.01862101                0.01862053
               4.00000000                3.00000000               34.00000000                0.01197020               -0.07710157               -0.06319636                0.27239911                0.04888815                0.02397669                0.04350262
               5.00000000                3.00000000               34.00000000                0.02054824               -0.08473187               -0.06453883                0.28211068                0.04484933                0.01224994                0.04906511
               6.00000000                3.00000000               34.00000000                0.04908937               -0.09059813               -0.06925803                0.28799489                0.03212397               -0.00623995                0.04782976
               7.00000000                3.00000000               34.00000000                0.08325128               -0.09312677               -0.07518678                0.29260387                0.02437599               -0.01001582                0.04557341
               8.00000000                3.00000000               34.00000000                0.12398341               -0.09404141               -0.08153349                0.29773044                0.02196999               -0.00703840                0.04331542
               9.00000000                3.00000000               34.00000000                0.17251895               -0.09259493               -0.08900808                0.30336999                0.01430060               -0.00343859                0.04154827
              10.00000000                3.00000000               34.00000000                0.60327409               -0.09117215               -0.09918544                0.30966571                0.00563282               -0.00134942                0.04039855
               0.00000000                4.00000000               34.00000000                0.54635643               -0.07477623               -0.07323124                0.24604339                0.00104610                0.00001249               -0.00177783
               1.00000000                4.00000000               34.00000000                0.04142469               -0.07479799               -0.07630611                0.25246986                0.00105021               -0.00013586               -0.00199825
               2.00000000                4.00000000               34.00000000                0.01000000               -0.06476726               -0.08695077                0.25871314                0.02368154                0.02503898               -0.00819514
               3.00000000                4.00000000               34.00000000                0.01197113               -0.06319164               -0.07710386                0.27239674                0.04888521                0.04349330                0.02397643
               4.00000000                4.00000000               34.00000000                0.02051221               -0.07913962               -0.07914170                0.28361044                0.02786166                0.02283707                0.02283407
               5.00000000                4.00000000               34.00000000                0.04899717               -0.08857821               -0.08616407                0.29080949                0.01808572                0.00322825                0.01170408
               6.00000000                4.00000000               34.00000000                0.08303530               -0.09121286               -0.09025652                0.29639405                0.01440528               -0.00322992                0.01240582
               7.00000000                4.00000000               34.00000000                0.12351256               -0.09241861               -0.09088984                0.30188561                0.01370845               -0.00359909                0.01776336
               8.00000000                4.00000000               34.00000000                0.17153868               -0.09318754               -0.09270178                0.30748889                0.01328665               -0.00282896                0.02140375
               9.00000000                4.00000000               34.00000000                0.22851814               -0.09434208               -0.09576434                0.31332001                0.00954460               -0.00137876                0.02352241
              10.00000000                4.00000000               34.00000000                0.63401265               -0.09526629               -0.09430695                0.31945789                0.00381028               -0.00056521                0.02350964
               0.00000000                5.00000000               34.00000000                0.58437850               -0.07676753               -0.07567414                0.25269733                0.00107029                0.00001110               -0.00163723
               1.00000000                5.00000000               34.00000000                0.09200388               -0.07742291               -0.07775259                0.25899278                0.00103828               -0.00042447               -0.00181143
               2.00000000                5.00000000               34.00000000                0.01000001               -0.06267872               -0.07975760                0.26504274                0.02982700                0.03836138               -0.00184985
               3.00000000                5.00000000               34.00000000                0.02055023               -0.06453367               -0.08473335                0.28210379                0.04484343                0.04905767                0.01224501
               4.00000000                5.00000000               34.00000000                0.04899780               -0.08616283               -0.08857807                0.29080697                0.01808280                0.01170193                0.00322446
               5.00000000                5.00000000               34.00000000                0.08303887               -0.09124368               -0.09124393                0.29716662                0.01264928                0.00191059                0.00190513
               6.00000000                5.00000000               34.00000000                0.12352080               -0.09242683               -0.09303718                0.30316007                0.01001613                0.00003866                0.00458857
               7.00000000                5.00000000               34.00000000                0.17155195               -0.09335450               -0.09480382                0.30902369                0.00822544               -0.00063500                0.00697779
               8.00000000                5.00000000               34.00000000                0.22852994               -0.09442842               -0.09663714                0.31488341                0.00650908               -0.00066299                0.00879541
               9.00000000                5.00000000               34.00000000                0.29622839               -0.09624429               -0.09763243                0.32082121                0.00382132               -0.00033294                0.00982574
              10.00000000                5.00000000               34.00000000                0.67133632               -0.09743700               -0.09567155                0.32687432                0.00123272               -0.00013894                0.00987369
               0.00000000                6.00000000               34.00000000                0.63228489               -0.07875159               -0.07796947                0.25936964                0.00109182                0.00000690               -0.00137062
               1.00000000                6.00000000               34.00000000                0.15580973               -0.07947616               -0.07939925                0.26553955                0.00117618               -0.00010308               -0.00147400
               2.00000000                6.00000000               34.00000000                0.02637682               -0.06527411               -0.08085434                0.27157029                0.02696068                0.03826545               -0.00077544
               3.00000000                6.00000000               34.00000000                0.04909218               -0.06925388               -0.09059762                0.28799024                0.03211602                0.04782153               -0.00624511
               4.00000000                6.00000000               34.00000000                0.08303671               -0.09025416               -0.09121236                0.29639249                0.01440203                0.01240799               -0.00322948
               5.00000000                6.00000000               34.00000000                0.12352192               -0.09303609               -0.09242662                0.30315906                0.01001528                0.00459266                0.00003692
               6.00000000                6.00000000               34.00000000                0.17156004               -0.09419003               -0.09419049                0.30940659                0.00684965                0.00191477                0.00191231
               7.00000000                6.00000000               34.00000000                0.22854692               -0.09517288               -0.09613398                0.31543882                0.00461956                0.00075610                0.00316646
               8.00000000                6.00000000               34.00000000                0.29625579               -0.09642169               -0.09786032                0.32139962                0.00289182                0.00027154                0.00401381
               9.00000000                6.00000000               34.00000000                0.37696624               -0.09822900               -0.09884738                0.32736470                0.00139977                0.00009316                0.00447299
              10.00000000                6.00000000               34.00000000                0.71588451               -0.09930446               -0.09852653                0.33336798               -0.00005918                0.00002781                0.00453425
               0.00000000                7.00000000               34.00000000                0.69108550               -0.08072797               -0.08010039                0.26606226                0.00109601                0.00000922               -0.00102637
               1.00000000                7.00000000               34.00000000                0.23479994               -0.08140316               -0.08127813                0.27212223                0.00104950                0.00031036               -0.00105131
               2.00000000                7.00000000               34.00000000                0.05984333               -0.07230773               -0.08286666                0.27816670                0.02229486                0.03271826               -0.00030193
               3.00000000                7.00000000               34.00000000                0.08325544               -0.07518345               -0.09312523                0.29259889                0.02436890                0.04556407               -0.01001281
               4.00000000                7.00000000               34.00000000                0.12351625               -0.09088669               -0.09241743                0.30188090                0.01370552                0.01776399               -0.00359716
               5.00000000                7.00000000               34.00000000                0.17155474               -0.09480219               -0.09335391                0.30902123                0.00822466                0.00697981               -0.00063563
               6.00000000                7.00000000               34.00000000                0.22854904               -0.09613312               -0.09517264                0.31543703                0.00461923                0.00316772                0.00075465
               7.00000000                7.00000000               34.00000000                0.29626577               -0.09715270               -0.09715283                0.32155427                0.00241720                0.00150867                0.00150760
               8.00000000                7.00000000               34.00000000                0.37698321               -0.09843692               -0.09892843                0.32755195                0.00110538                0.00071337                0.00194797
               9.00000000                7.00000000               34.00000000                0.47366228               -0.10011868               -0.10028651                0.33351813                0.00039349                0.00028015                0.00218024
              10.00000000                7.00000000               34.00000000                0.76932599               -0.10106348               -0.10111077                0.33949518               -0.00061372                0.00009599                0.00224720
               0.00000000                8.00000000               34.00000000                0.76205257               -0.08270532               -0.08206751                0.27277586                0.00105987                0.00003107               -0.00066044
               1.00000000                8.00000000               34.00000000                0.33154764               -0.08337337               -0.08337260                0.27874605                0.00073201                0.00066115               -0.00061906
               2.00000000                8.00000000               34.00000000                0.10193966               -0.07879358               -0.08511993                0.28479558                0.01739662                0.02847496               -0.00003997
               3.00000000                8.00000000               34.00000000                0.12399029               -0.08153065               -0.09403875                0.29772275                0.02196434                0.04330528               -0.00703607
               4.00000000                8.00000000               34.00000000                0.17154455               -0.09269867               -0.09318548                0.30748152                0.01328401                0.02140085               -0.00282844
               5.00000000                8.00000000               34.00000000                0.22853368               -0.09663521               -0.09442720                0.31487929                0.00650826                0.00879490               -0.00066387
               6.00000000                8.00000000               34.00000000                0.29626012               -0.09785911               -0.09642078                0.32139594                0.00289179                0.00401467                0.00027040
               7.00000000                8.00000000               34.00000000                0.37698459               -0.09892792               -0.09843640                0.32755027                0.00110554                0.00194880                0.00071241
               8.00000000                8.00000000               34.00000000                0.47366856               -0.10027906               -0.10027895                0.33355659                0.00026442                0.00094496                0.00094419
               9.00000000                8.00000000               34.00000000                0.59022184               -0.10191378               -0.10191609                0.33951608               -0.00001122                0.00037189                0.00106591
              10.00000000                8.00000000               34.00000000                0.83390751               -0.10279570               -0.10336635                0.34547969               -0.00084788                0.00012459                0.00111939
               0.00000000                9.00000000               34.00000000                0.84679412               -0.08469124               -0.08391621                0.27950715                0.00103558                0.00008055               -0.00031038
               1.00000000                9.00000000               34.00000000                0.44941877               -0.08542388               -0.08553442                0.28540409                0.00042373                0.00091351               -0.00025891
               2.00000000                9.00000000               34.00000000                0.15503518               -0.08485974               -0.08718084                0.29146159                0.01322951                0.02557741                0.00003710
               3.00000000                9.00000000               34.00000000                0.17252753               -0.08900561               -0.09259137                0.30335993                0.01429707                0.04153728               -0.00343843
               4.00000000                9.00000000               34.00000000                0.22852555               -0.09576147               -0.09433943                0.31331173                0.00954254                0.02351877               -0.00137977
               5.00000000                9.00000000               34.00000000                0.29623590               -0.09763031               -0.09624227                0.32081476                0.00382066                0.00982502               -0.00033300
               6.00000000                9.00000000               34.00000000                0.37697221               -0.09884583               -0.09822736                0.32735921                0.00139988                0.00447306                0.00009279
               7.00000000                9.00000000               34.00000000                0.47366570               -0.10028568               -0.10011772                0.33351517                0.00039367                0.00218046                0.00027963
               8.00000000                9.00000000               34.00000000                0.59022345               -0.10191583               -0.10191337                0.33951499               -0.00001116                0.00106626                0.00037140
               9.00000000                9.00000000               34.00000000                0.73189596               -0.10363951               -0.10363946                0.34546553               -0.00008856                0.00042033                0.00042003
              10.00000000                9.00000000               34.00000000                0.91267135               -0.10451300               -0.10539054                0.35142231               -0.00094272                0.00013636                0.00044661
               0.00000000               10.00000000               34.00000000                0.95343611               -0.08690528               -0.08482060                0.28622274                0.00010151                0.00011036               -0.00011139
               1.00000000               10.00000000               34.00000000                0.76629885               -0.08821954               -0.08660107                0.29209855               -0.00048696                0.00099720               -0.00008710
               2.00000000               10.00000000               34.00000000                0.59615253               -0.09674597               -0.08810663                0.29820266                0.01104714                0.02470254                0.00003117
               3.00000000               10.00000000               34.00000000                0.60327902               -0.09918274               -0.09116829                0.30965415                0.00563097                0.04038670               -0.00134997
               4.00000000               10.00000000               34.00000000                0.63401727               -0.09430561               -0.09526335                0.31944864                0.00380847                0.02350559               -0.00056625
               5.00000000               10.00000000               34.00000000                0.67134054               -0.09566995               -0.09743457                0.32686614                0.00123204                0.00987283               -0.00013886
               6.00000000               10.00000000               34.00000000                0.71588736               -0.09852484               -0.09930241                0.33336103               -0.00005948                0.00453355                0.00002771
               7.00000000               10.00000000               34.00000000                0.76932869               -0.10110966               -0.10106232                0.33949088               -0.00061409                0.00224674                0.00009573
               8.00000000               10.00000000               34.00000000                0.83390939               -0.10336573               -0.10279518                0.34547723               -0.00084812                0.00111914                0.00012441
               9.00000000               10.00000000               34.00000000                0.91267152               -0.10539018               -0.10451281                0.35142100               -0.00094288                0.00044645                0.00013620
              10.00000000               10.00000000               34.00000000                0.98218873               -0.10635458               -0.10635480                0.35737524               -0.00192136                0.00014028                0.00014040
               0.00000000                0.00000000               35.00000000                0.74969820               -0.06654578               -0.06654557                0.21972342                0.00225594               -0.00015480               -0.00015474
               1.00000000                0.00000000               35.00000000                0.49495453               -0.06667379               -0.06924074                0.22637098                0.00193518               -0.00081001               -0.00009603
               2.00000000                0.00000000               35.00000000                0.49717968               -0.06810545               -0.07077887                0.23295828                0.00101239               -0.00156367               -0.00000272
               3.00000000                0.00000000               35.00000000                0.51744569               -0.07070898               -0.07282841                0.23953943                0.00105610               -0.00178213               -0.00000167
               4.00000000                0.00000000               35.00000000                0.54636451               -0.07326511               -0.07479940                0.24612961                0.00104904               -0.00178710                0.00000645
               5.00000000                0.00000000               35.00000000                0.58437829               -0.07570541               -0.07677917                0.25273512                0.00107362               -0.00163050                0.00000752
               6.00000000                0.00000000               35.00000000                0.63227885               -0.07799129               -0.07875121                0.25935931                0.00109501               -0.00134903                0.00000409
               7.00000000                0.00000000               35.00000000                0.69106667               -0.08010687               -0.08071550                0.26600564                0.00109809               -0.00099005                0.00000640
               8.00000000                0.00000000               35.00000000                0.76202321               -0.08205351               -0.08268009                0.27267379                0.00105955               -0.00060985                0.00002935
               9.00000000                0.00000000               35.00000000                0.84674388               -0.08387982               -0.08465408                0.27936082                0.00103190               -0.00026066                0.00008100
              10.00000000                0.00000000               35.00000000                0.95340404               -0.08477323               -0.08685859                0.28603687                0.00008732               -0.00006834                0.00015443
               0.00000000                1.00000000               35.00000000                0.49495501               -0.06924052               -0.06667340                0.22636968                0.00193497               -0.00009635               -0.00080942
               1.00000000                1.00000000               35.00000000                0.01000001               -0.07115002               -0.07115005                0.23301648                0.00277125               -0.00078952               -0.00078838
               2.00000000                1.00000000               35.00000000                0.01000000               -0.07376315               -0.06897622                0.23956571                0.00824326               -0.00180858                0.00300361
               3.00000000                1.00000000               35.00000000                0.01000001               -0.07506598               -0.06729649                0.24606624                0.00880871               -0.00221406                0.00647765
               4.00000000                1.00000000               35.00000000                0.04142953               -0.07632980               -0.07478858                0.25254977                0.00115174               -0.00224709               -0.00023444
               5.00000000                1.00000000               35.00000000                0.09200394               -0.07775074               -0.07742412                0.25903919                0.00112288               -0.00204737               -0.00055232
               6.00000000                1.00000000               35.00000000                0.15580297               -0.07938000               -0.07947535                0.26555157                0.00124543               -0.00167437               -0.00017204
               7.00000000                1.00000000               35.00000000                0.23478167               -0.08124928               -0.08139213                0.27209961                0.00110095               -0.00120383                0.00030321
               8.00000000                1.00000000               35.00000000                0.33151229               -0.08334018               -0.08334950                0.27868748                0.00076405               -0.00072410                0.00070207
               9.00000000                1.00000000               35.00000000                0.44936154               -0.08549973               -0.08538818                0.28530927                0.00043894               -0.00032136                0.00099743
              10.00000000                1.00000000               35.00000000                0.76626071               -0.08656472               -0.08818870                0.29196658               -0.00048466               -0.00012553                0.00115703
               0.00000000                2.00000000               35.00000000                0.49718136               -0.07077824               -0.06810469                0.23295560                0.00101219               -0.00000277               -0.00156317
               1.00000000                2.00000000               35.00000000                0.01000000               -0.06897575               -0.07376278                0.23956438                0.00824323                0.00300258               -0.00180740
               2.00000000                2.00000000               35.00000000                0.01000001               -0.07261068               -0.07261179                0.24697780                0.02538279                0.00558176                0.00558375
               3.00000000                2.00000000               35.00000000                0.01000000               -0.08636960               -0.06501305                0.25419127                0.02392080               -0.00533954                0.01506041
               4.00000000                2.00000000               35.00000000                0.01000000               -0.08713221               -0.06451971                0.25881321                0.02430703               -0.00957861                0.02854507
               5.00000000                2.00000000               35.00000000                0.01000001               -0.07975557               -0.06233142                0.26510907                0.03060256               -0.00226967                0.04356693
               6.00000000                2.00000000               35.00000000                0.02637454               -0.08082658               -0.06489030                0.27161351                0.02770268               -0.00104668                0.04327284
               7.00000000                2.00000000               35.00000000                0.05983905               -0.08283650               -0.07198068                0.27818377                0.02293861               -0.00051010                0.03686733
               8.00000000                2.00000000               35.00000000                0.10193247               -0.08509785               -0.07852192                0.28478460                0.01791573               -0.00019773                0.03198025
               9.00000000                2.00000000               35.00000000                0.15502253               -0.08716088               -0.08464635                0.29141832                0.01362212               -0.00005391                0.02865710
              10.00000000                2.00000000               35.00000000                0.59614289               -0.08808373               -0.09677259                0.29811810                0.01136307               -0.00001102                0.02763868
               0.00000000                3.00000000               35.00000000                0.51744645               -0.07282735               -0.07070796                0.23953553                0.00105598               -0.00000172               -0.00178245
               1.00000000                3.00000000               35.00000000                0.01000001               -0.06729518               -0.07506532                0.24606373                0.00880757                0.00647699               -0.00221386
               2.00000000                3.00000000               35.00000000                0.01000000               -0.06501234               -0.08636972                0.25419154                0.02392055                0.01505894               -0.00533906
               3.00000000                3.00000000               35.00000000                0.01000000               -0.07091119               -0.07091248                0.26276470                0.04004437                0.02138312                0.02138416
               4.00000000                3.00000000               35.00000000                0.01197010               -0.07692054               -0.06281448                0.27229622                0.04998055                0.02733335                0.04971538
               5.00000000                3.00000000               35.00000000                0.02054888               -0.08465135               -0.06411709                0.28194171                0.04593967                0.01377897                0.05592997
               6.00000000                3.00000000               35.00000000                0.04908979               -0.09065846               -0.06884848                0.28784868                0.03300003               -0.00729722                0.05434305
               7.00000000                3.00000000               35.00000000                0.08325220               -0.09325756               -0.07480566                0.29250489                0.02509032               -0.01151893                0.05154714
               8.00000000                3.00000000               35.00000000                0.12398591               -0.09419876               -0.08118670                0.29765890                0.02261979               -0.00811042                0.04878494
               9.00000000                3.00000000               35.00000000                0.17252126               -0.09271499               -0.08872876                0.30330556                0.01472861               -0.00398587                0.04659947
              10.00000000                3.00000000               35.00000000                0.60327538               -0.09125297               -0.09906993                0.30959047                0.00583550               -0.00156125                0.04498902
               0.00000000                4.00000000               35.00000000                0.54636488               -0.07479820               -0.07326379                0.24612499                0.00104889                0.00000652               -0.00178737
               1.00000000                4.00000000               35.00000000                0.04143274               -0.07478731               -0.07632882                0.25254658                0.00115127               -0.00023518               -0.00224679
               2.00000000                4.00000000               35.00000000                0.01000000               -0.06451574               -0.08713018                0.25879676                0.02430494                0.02854204               -0.00957486
               3.00000000                4.00000000               35.00000000                0.01197070               -0.06281062               -0.07692279                0.27229994                0.04998099                0.04971356                0.02733031
               4.00000000                4.00000000               35.00000000                0.02051218               -0.07895549               -0.07895659                0.28341144                0.02851566                0.02596512                0.02596476
               5.00000000                4.00000000               35.00000000                0.04899692               -0.08854902               -0.08608517                0.29060636                0.01850000                0.00354844                0.01329886
               6.00000000                4.00000000               35.00000000                0.08303489               -0.09122826               -0.09023243                0.29623497                0.01474087               -0.00380495                0.01411968
               7.00000000                4.00000000               35.00000000                0.12351243               -0.09244859               -0.09082885                0.30176617                0.01404551               -0.00421310                0.02012054
               8.00000000                4.00000000               35.00000000                0.17153907               -0.09322286               -0.09260814                0.30740273                0.01363551               -0.00331205                0.02412128
               9.00000000                4.00000000               35.00000000                0.22851858               -0.09439073               -0.09565365                0.31325671                0.00981569               -0.00161629                0.02634584
              10.00000000                4.00000000               35.00000000                0.63401300               -0.09532962               -0.09404349                0.31940703                0.00399205               -0.00066511                0.02608146
               0.00000000                5.00000000               35.00000000                0.58438270               -0.07677739               -0.07570348                0.25272835                0.00107339                0.00000751               -0.00163080
               1.00000000                5.00000000               35.00000000                0.09200985               -0.07742242               -0.07774917                0.25903388                0.00112325               -0.00054731               -0.00204710
               2.00000000                5.00000000               35.00000000                0.01000001               -0.06232640               -0.07975396                0.26510423                0.03059962                0.04355941               -0.00226813
               3.00000000                5.00000000               35.00000000                0.02055063               -0.06411248               -0.08465210                0.28193267                0.04593416                0.05592004                0.01377513
               4.00000000                5.00000000               35.00000000                0.04899780               -0.08608477               -0.08854964                0.29060746                0.01849849                0.01330285                0.00354659
               5.00000000                5.00000000               35.00000000                0.08303761               -0.09123845               -0.09123879                0.29699401                0.01292824                0.00212107                0.00211889
               6.00000000                5.00000000               35.00000000                0.12351967               -0.09242326               -0.09303712                0.30302163                0.01024284               -0.00003966                0.00518587
               7.00000000                5.00000000               35.00000000                0.17155107               -0.09334971               -0.09480415                0.30892233                0.00842097               -0.00081384                0.00786779
               8.00000000                5.00000000               35.00000000                0.22852868               -0.09442565               -0.09663205                0.31481740                0.00667435               -0.00082634                0.00985828
               9.00000000                5.00000000               35.00000000                0.29623001               -0.09626180               -0.09759098                0.32078432                0.00392752               -0.00041092                0.01092163
              10.00000000                5.00000000               35.00000000                0.67133709               -0.09747219               -0.09549514                0.32686227                0.00131176               -0.00017405                0.01083060
               0.00000000                6.00000000               35.00000000                0.63228257               -0.07874899               -0.07798875                0.25935089                0.00109482                0.00000409               -0.00134966
               1.00000000                6.00000000               35.00000000                0.15580890               -0.07947331               -0.07937786                0.26554467                0.00124536               -0.00017238               -0.00167443
               2.00000000                6.00000000               35.00000000                0.02637776               -0.06488668               -0.08082537                0.27160876                0.02769931                0.04326500               -0.00105066
               3.00000000                6.00000000               35.00000000                0.04909289               -0.06884436               -0.09065776                0.28784539                0.03299223                0.05433653               -0.00729553
               4.00000000                6.00000000               35.00000000                0.08303689               -0.09023056               -0.09122800                0.29623495                0.01473746                0.01412163               -0.00380661
               5.00000000                6.00000000               35.00000000                0.12352120               -0.09303631               -0.09242350                0.30302149                0.01024235                0.00518711               -0.00004172
               6.00000000                6.00000000               35.00000000                0.17155871               -0.09418800               -0.09418851                0.30930024                0.00700712                0.00210469                0.00210330
               7.00000000                6.00000000               35.00000000                0.22854531               -0.09516779               -0.09613995                0.31536960                0.00472937                0.00077548                0.00350789
               8.00000000                6.00000000               35.00000000                0.29625601               -0.09641996               -0.09786752                0.32136779                0.00296475                0.00024004                0.00442491
               9.00000000                6.00000000               35.00000000                0.37696885               -0.09824399               -0.09883195                0.32736721                0.00143813                0.00007212                0.00487862
              10.00000000                6.00000000               35.00000000                0.71588614               -0.09933215               -0.09844399                0.33340235               -0.00003191                0.00001449                0.00486577
               0.00000000                7.00000000               35.00000000                0.69107362               -0.08071290               -0.08010388                0.26599594                0.00109788                0.00000643               -0.00099033
               1.00000000                7.00000000               35.00000000                0.23479123               -0.08138968               -0.08124675                0.27209144                0.00110070                0.00030317               -0.00120353
               2.00000000                7.00000000               35.00000000                0.05984441               -0.07197809               -0.08283441                0.27817639                0.02293514                0.03685983               -0.00050981
               3.00000000                7.00000000               35.00000000                0.08325633               -0.07480258               -0.09325570                0.29250044                0.02508350                0.05153803               -0.01151800
               4.00000000                7.00000000               35.00000000                0.12351563               -0.09082610               -0.09244729                0.30176217                0.01404196                0.02011940               -0.00421536
               5.00000000                7.00000000               35.00000000                0.17155384               -0.09480241               -0.09334895                0.30891905                0.00842007                0.00786895               -0.00081550
               6.00000000                7.00000000               35.00000000                0.22854664               -0.09613909               -0.09516756                0.31536819                0.00472930                0.00350935                0.00077363
               7.00000000                7.00000000               35.00000000                0.29626565               -0.09715742               -0.09715753                0.32152325                0.00247578                0.00161613                0.00161436
               8.00000000                7.00000000               35.00000000                0.37698556               -0.09844580               -0.09893932                0.32756073                0.00113349                0.00072938                0.00208221
               9.00000000                7.00000000               35.00000000                0.47367128               -0.10014032               -0.10029140                0.33356549                0.00040429                0.00027553                0.00230296
              10.00000000                7.00000000               35.00000000                0.76933332               -0.10109376               -0.10109167                0.33957812               -0.00060832                0.00008935                0.00233360
               0.00000000                8.00000000               35.00000000                0.76203235               -0.08267707               -0.08205010                0.27266262                0.00105935                0.00002918               -0.00061012
               1.00000000                8.00000000               35.00000000                0.33152492               -0.08334660               -0.08333726                0.27867778                0.00076398                0.00070121               -0.00072380
               2.00000000                8.00000000               35.00000000                0.10193894               -0.07851971               -0.08509513                0.28477496                0.01791267                0.03197134               -0.00019719
               3.00000000                8.00000000               35.00000000                0.12399116               -0.08118431               -0.09419596                0.29765225                0.02261426                0.04877429               -0.00810982
               4.00000000                8.00000000               35.00000000                0.17154423               -0.09260525               -0.09322087                0.30739615                0.01363265                0.02411976               -0.00331249
               5.00000000                8.00000000               35.00000000                0.22853353               -0.09662989               -0.09442418                0.31481227                0.00667350                0.00985910               -0.00082727
               6.00000000                8.00000000               35.00000000                0.29625892               -0.09786627               -0.09641893                0.32136405                0.00296448                0.00442515                0.00023882
               7.00000000                8.00000000               35.00000000                0.37698706               -0.09893878               -0.09844532                0.32755907                0.00113339                0.00208359                0.00072820
               8.00000000                8.00000000               35.00000000                0.47367751               -0.10029763               -0.10029762                0.33360800                0.00027141                0.00096979                0.00096888
               9.00000000                8.00000000               35.00000000                0.59024446               -0.10194438               -0.10193931                0.33960857               -0.00001135                0.00036792                0.00108068
              10.00000000                8.00000000               35.00000000                0.83392411               -0.10283314               -0.10338800                0.34560952               -0.00085162                0.00011922                0.00111730
               0.00000000                9.00000000               35.00000000                0.84675423               -0.08465064               -0.08387601                0.27934826                0.00103170                0.00008089               -0.00026129
               1.00000000                9.00000000               35.00000000                0.44937683               -0.08538489               -0.08549642                0.28529828                0.00043906                0.00099684               -0.00032143
               2.00000000                9.00000000               35.00000000                0.15503082               -0.08464404               -0.08715793                0.29140846                0.01361952                0.02864809               -0.00005275
               3.00000000                9.00000000               35.00000000                0.17252890               -0.08872655               -0.09271230                0.30329824                0.01472515                0.04658783               -0.00398477
               4.00000000                9.00000000               35.00000000                0.22852598               -0.09565091               -0.09438839                0.31324920                0.00981371                0.02634224               -0.00161555
               5.00000000                9.00000000               35.00000000                0.29623620               -0.09758888               -0.09625996                0.32077830                0.00392709                0.01092101               -0.00041215
               6.00000000                9.00000000               35.00000000                0.37697378               -0.09883057               -0.09824257                0.32736255                0.00143797                0.00487873                0.00007161
               7.00000000                9.00000000               35.00000000                0.47367474               -0.10029053               -0.10013939                0.33356252                0.00040409                0.00230397                0.00027516
               8.00000000                9.00000000               35.00000000                0.59024712               -0.10193887               -0.10194387                0.33960703               -0.00001145                0.00108124                0.00036770
               9.00000000                9.00000000               35.00000000                0.73194428               -0.10367856               -0.10367853                0.34560055               -0.00009091                0.00041033                0.00041038
              10.00000000                9.00000000               35.00000000                0.91270385               -0.10455940               -0.10543784                0.35159577               -0.00094925                0.00012985                0.00043023
               0.00000000               10.00000000               35.00000000                0.95341008               -0.08685463               -0.08476923                0.28602280                0.00008683                0.00015428               -0.00006900
               1.00000000               10.00000000               35.00000000                0.76627001               -0.08818495               -0.08656123                0.29195419               -0.00048475                0.00115652               -0.00012571
               2.00000000               10.00000000               35.00000000                0.59614829               -0.09676874               -0.08808069                0.29810755                0.01136021                0.02762936               -0.00001024
               3.00000000               10.00000000               35.00000000                0.60328008               -0.09906737               -0.09125059                0.30958208                0.00583353                0.04497664               -0.00156108
               4.00000000               10.00000000               35.00000000                0.63401715               -0.09404225               -0.09532704                0.31939851                0.00399074                0.02607646               -0.00066470
               5.00000000               10.00000000               35.00000000                0.67134135               -0.09549364               -0.09747013                0.32685516                0.00131118                0.01082890               -0.00017518
               6.00000000               10.00000000               35.00000000                0.71588995               -0.09844261               -0.09933062                0.33339681               -0.00003225                0.00486554                0.00001400
               7.00000000               10.00000000               35.00000000                0.76933561               -0.10109053               -0.10109263                0.33957393               -0.00060866                0.00233393                0.00008920
               8.00000000               10.00000000               35.00000000                0.83392542               -0.10338714               -0.10283238                0.34560647               -0.00085192                0.00111725                0.00011916
               9.00000000               10.00000000               35.00000000                0.91270496               -0.10543737               -0.10455913                0.35159421               -0.00094954                0.00042978                0.00012997
              10.00000000               10.00000000               35.00000000                0.98221102               -0.10641157               -0.10641182                0.35758732               -0.00193380                0.00013294                0.00013337
               0.00000000                0.00000000               36.00000000                0.74972333               -0.06661173               -0.06661155                0.22000250                0.00224854               -0.00016538               -0.00016535
               1.00000000                0.00000000               36.00000000                0.49498755               -0.06669946               -0.06931776                0.22660939                0.00197316               -0.00085368               -0.00010676
               2.00000000                0.00000000               36.00000000                0.49719596               -0.06810289               -0.07082522                0.23315028                0.00101285               -0.00162260               -0.00001479
               3.00000000                0.00000000               36.00000000                0.51745779               -0.07072666               -0.07286485                0.23968089                0.00105926               -0.00182819               -0.00001035
               4.00000000                0.00000000               36.00000000                0.54637074               -0.07329463               -0.07482282                0.24621897                0.00105228               -0.00181578                0.00000114
               5.00000000                0.00000000               36.00000000                0.58438086               -0.07573729               -0.07678986                0.25277198                0.00107752               -0.00164228                0.00000416
               6.00000000                0.00000000               36.00000000                0.63227453               -0.07801597               -0.07874844                0.25934386                0.00109886               -0.00134367                0.00000141
               7.00000000                0.00000000               36.00000000                0.69105741               -0.08011591               -0.08069871                0.26593918                0.00110089               -0.00096757                0.00000366
               8.00000000                0.00000000               36.00000000                0.76199776               -0.08204005               -0.08264943                0.27255877                0.00105964               -0.00057173                0.00002794
               9.00000000                0.00000000               36.00000000                0.84670188               -0.08384085               -0.08461054                0.27919841                0.00102780               -0.00021943                0.00008226
              10.00000000                0.00000000               36.00000000                0.95337748               -0.08472152               -0.08680518                0.28583097                0.00007426               -0.00003065                0.00019444
               0.00000000                1.00000000               36.00000000                0.49498800               -0.06931754               -0.06669906                0.22660811                0.00197295               -0.00010706               -0.00085338
               1.00000000                1.00000000               36.00000000                0.01000001               -0.07126165               -0.07126166                0.23321510                0.00289639               -0.00085661               -0.00085572
               2.00000000                1.00000000               36.00000000                0.01000000               -0.07388562               -0.06893301                0.23972383                0.00856106               -0.00197876                0.00338748
               3.00000000                1.00000000               36.00000000                0.01000001               -0.07513952               -0.06714284                0.24618355                0.00916169               -0.00243834                0.00725851
               4.00000000                1.00000000               36.00000000                0.04143899               -0.07635844               -0.07476686                0.25262764                0.00127225               -0.00248695               -0.00031484
               5.00000000                1.00000000               36.00000000                0.09200836               -0.07774524               -0.07741984                0.25907791                0.00122545               -0.00227406               -0.00066662
               6.00000000                1.00000000               36.00000000                0.15580035               -0.07935128               -0.07946906                0.26555037                0.00133194               -0.00186642               -0.00023750
               7.00000000                1.00000000               36.00000000                0.23477046               -0.08120839               -0.08137371                0.27205804                0.00116635               -0.00134961                0.00029784
               8.00000000                1.00000000               36.00000000                0.33148821               -0.08329625               -0.08331697                0.27860608                0.00080494               -0.00082454                0.00074575
               9.00000000                1.00000000               36.00000000                0.44931371               -0.08545490               -0.08534333                0.28518801                0.00045922               -0.00037985                0.00108232
              10.00000000                1.00000000               36.00000000                0.76622919               -0.08651869               -0.08815517                0.29180423               -0.00047523               -0.00016009                0.00130945
               0.00000000                2.00000000               36.00000000                0.49719698               -0.07082446               -0.06810209                0.23314738                0.00101265               -0.00001468               -0.00162206
               1.00000000                2.00000000               36.00000000                0.01000000               -0.06893270               -0.07388521                0.23972230                0.00856119                0.00338657               -0.00197747
               2.00000000                2.00000000               36.00000000                0.01000001               -0.07259719               -0.07259726                0.24708772                0.02626536                0.00631663                0.00631924
               3.00000000                2.00000000               36.00000000                0.01000000               -0.08669166               -0.06470921                0.25426253                0.02478978               -0.00602230                0.01697845
               4.00000000                2.00000000               36.00000000                0.01000000               -0.08741273               -0.06413282                0.25888539                0.02521416               -0.01090253                0.03197896
               5.00000000                2.00000000               36.00000000                0.01000001               -0.07974818               -0.06180470                0.26516554                0.03172035               -0.00267020                0.04866795
               6.00000000                2.00000000               36.00000000                0.02637494               -0.08078138               -0.06433435                0.27163489                0.02875213               -0.00130083                0.04819616
               7.00000000                2.00000000               36.00000000                0.05983902               -0.08278715               -0.07153448                0.27817325                0.02383386               -0.00069624                0.04095816
               8.00000000                2.00000000               36.00000000                0.10193135               -0.08505911               -0.07817735                0.28474039                0.01863069               -0.00033743                0.03544679
               9.00000000                2.00000000               36.00000000                0.15501562               -0.08712502               -0.08440113                0.29133900                0.01416588               -0.00013545                0.03171056
              10.00000000                2.00000000               36.00000000                0.59613737               -0.08804414               -0.09687707                0.29799541                0.01182158               -0.00004885                0.03055552
               0.00000000                3.00000000               36.00000000                0.51745882               -0.07286383               -0.07072570                0.23967713                0.00105919               -0.00001026               -0.00182776
               1.00000000                3.00000000               36.00000000                0.01000001               -0.06714164               -0.07513891                0.24618116                0.00916144                0.00725813               -0.00243731
               2.00000000                3.00000000               36.00000000                0.01000000               -0.06470869               -0.08669277                0.25426202                0.02478927                0.01697597               -0.00602300
               3.00000000                3.00000000               36.00000000                0.01000000               -0.07066005               -0.07065892                0.26277638                0.04134834                0.02407947                0.02408617
               4.00000000                3.00000000               36.00000000                0.01196971               -0.07670539               -0.06225972                0.27225123                0.05162973                0.03061611                0.05579126
               5.00000000                3.00000000               36.00000000                0.02054928               -0.08459291               -0.06351687                0.28183167                0.04753930                0.01529102                0.06264780
               6.00000000                3.00000000               36.00000000                0.04909033               -0.09078605               -0.06829018                0.28776969                0.03425125               -0.00830951                0.06073714
               7.00000000                3.00000000               36.00000000                0.08325336               -0.09345981               -0.07431758                0.29245084                0.02609276               -0.01298443                0.05743237
               8.00000000                3.00000000               36.00000000                0.12398764               -0.09441325               -0.08077778                0.29761278                0.02352888               -0.00915501                0.05419144
               9.00000000                3.00000000               36.00000000                0.17252364               -0.09285265               -0.08844422                0.30325555                0.01532634               -0.00451596                0.05161524
              10.00000000                3.00000000               36.00000000                0.60327636               -0.09132356               -0.09903815                0.30952368                0.00612017               -0.00176701                0.04958830
               0.00000000                4.00000000               36.00000000                0.54637249               -0.07482172               -0.07329340                0.24621449                0.00105205                0.00000104               -0.00181614
               1.00000000                4.00000000               36.00000000                0.04144100               -0.07476619               -0.07635755                0.25262456                0.00127105               -0.00032108               -0.00248669
               2.00000000                4.00000000               36.00000000                0.01000000               -0.06412948               -0.08741134                0.25888178                0.02521504                0.03198064               -0.01090042
               3.00000000                4.00000000               36.00000000                0.01197069               -0.06225591               -0.07670764                0.27224834                0.05163196                0.05579225                0.03061216
               4.00000000                4.00000000               36.00000000                0.02051243               -0.07873767               -0.07873968                0.28329078                0.02949358                0.02902773                0.02903009
               5.00000000                4.00000000               36.00000000                0.04899711               -0.08856295               -0.08602498                0.29048902                0.01912687                0.00386884                0.01487158
               6.00000000                4.00000000               36.00000000                0.08303525               -0.09129275               -0.09025073                0.29614919                0.01524703               -0.00435981                0.01579729
               7.00000000                4.00000000               36.00000000                0.12351342               -0.09251689               -0.09079703                0.30170609                0.01454535               -0.00480949                0.02243502
               8.00000000                4.00000000               36.00000000                0.17154092               -0.09328074               -0.09254119                0.30736022                0.01414123               -0.00378117                0.02680461
               9.00000000                4.00000000               36.00000000                0.22852080               -0.09445251               -0.09558025                0.31322773                0.01019893               -0.00184494                0.02915031
              10.00000000                4.00000000               36.00000000                0.63401403               -0.09540591               -0.09377239                0.31938318                0.00423092               -0.00076056                0.02866439
               0.00000000                5.00000000               36.00000000                0.58438437               -0.07678789               -0.07573534                0.25276497                0.00107721                0.00000415               -0.00164312
               1.00000000                5.00000000               36.00000000                0.09201350               -0.07741775               -0.07774365                0.25907228                0.00122629               -0.00066756               -0.00227426
               2.00000000                5.00000000               36.00000000                0.01000001               -0.06179953               -0.07974525                0.26515415                0.03171828                0.04865922               -0.00266366
               3.00000000                5.00000000               36.00000000                0.02055015               -0.06351289               -0.08459650                0.28184155                0.04753315                0.06264261                0.01528161
               4.00000000                5.00000000               36.00000000                0.04899775               -0.08602451               -0.08856412                0.29049306                0.01912496                0.01487602                0.00386630
               5.00000000                5.00000000               36.00000000                0.08303771               -0.09128235               -0.09128274                0.29690144                0.01335575                0.00233170                0.00232904
               6.00000000                5.00000000               36.00000000                0.12351953               -0.09245871               -0.09308371                0.30295497                0.01058704               -0.00011604                0.00576989
               7.00000000                5.00000000               36.00000000                0.17155167               -0.09336967               -0.09484792                0.30887854                0.00871287               -0.00098573                0.00874147
               8.00000000                5.00000000               36.00000000                0.22853072               -0.09443590               -0.09666773                0.31479686                0.00691546               -0.00098343                0.01091071
               9.00000000                5.00000000               36.00000000                0.29623183               -0.09629041               -0.09757750                0.32078416                0.00407756               -0.00048841                0.01201526
              10.00000000                5.00000000               36.00000000                0.67133918               -0.09752092               -0.09529872                0.32687816                0.00141680               -0.00021022                0.01180095
               0.00000000                6.00000000               36.00000000                0.63227975               -0.07874603               -0.07801347                0.25933530                0.00109869                0.00000140               -0.00134419
               1.00000000                6.00000000               36.00000000                0.15580564               -0.07946690               -0.07934916                0.26554329                0.00133241               -0.00023750               -0.00186629
               2.00000000                6.00000000               36.00000000                0.02637854               -0.06433141               -0.08078041                0.27163286                0.02874813                0.04818763               -0.00129930
               3.00000000                6.00000000               36.00000000                0.04909333               -0.06828669               -0.09078530                0.28776449                0.03424260                0.06072952               -0.00830808
               4.00000000                6.00000000               36.00000000                0.08303752               -0.09024827               -0.09129158                0.29614578                0.01524444                0.01579947               -0.00436143
               5.00000000                6.00000000               36.00000000                0.12352126               -0.09308246               -0.09245824                0.30295161                0.01058625                0.00577148               -0.00011817
               6.00000000                6.00000000               36.00000000                0.17155937               -0.09422104               -0.09422124                0.30925532                0.00724436                0.00229328                0.00229207
               7.00000000                6.00000000               36.00000000                0.22854642               -0.09518467               -0.09617911                0.31535172                0.00489323                0.00079801                0.00384729
               8.00000000                6.00000000               36.00000000                0.29625961               -0.09643053               -0.09790382                0.32137600                0.00307067                0.00021158                0.00483514
               9.00000000                6.00000000               36.00000000                0.37697527               -0.09826888               -0.09883283                0.32740050                0.00149178                0.00005177                0.00529123
              10.00000000                6.00000000               36.00000000                0.71589078               -0.09937066               -0.09834964                0.33345806                0.00000619                0.00000100                0.00521395
               0.00000000                7.00000000               36.00000000                0.69106391               -0.08069594               -0.08011297                0.26592927                0.00110065                0.00000357               -0.00096821
               1.00000000                7.00000000               36.00000000                0.23477927               -0.08137117               -0.08120587                0.27204967                0.00116636                0.00029730               -0.00134961
               2.00000000                7.00000000               36.00000000                0.05984494               -0.07153213               -0.08278547                0.27816729                0.02383070                0.04095004               -0.00069569
               3.00000000                7.00000000               36.00000000                0.08325742               -0.07431457               -0.09345762                0.29244458                0.02608735                0.05742308               -0.01298228
               4.00000000                7.00000000               36.00000000                0.12351634               -0.09079417               -0.09251540                0.30170194                0.01454265                0.02243427               -0.00481093
               5.00000000                7.00000000               36.00000000                0.17155411               -0.09484638               -0.09336898                0.30887597                0.00871168                0.00874328               -0.00098812
               6.00000000                7.00000000               36.00000000                0.22854836               -0.09617846               -0.09518434                0.31535061                0.00489298                0.00384888                0.00079602
               7.00000000                7.00000000               36.00000000                0.29626863               -0.09718301               -0.09718314                0.32153459                0.00256248                0.00172514                0.00172399
               8.00000000                7.00000000               36.00000000                0.37699224               -0.09846661               -0.09896744                0.32760161                0.00117402                0.00074896                0.00222158
               9.00000000                7.00000000               36.00000000                0.47368613               -0.10016947               -0.10030491                0.33363404                0.00041883                0.00027373                0.00243548
              10.00000000                7.00000000               36.00000000                0.76934196               -0.10113053               -0.10106653                0.33967171               -0.00059856                0.00008421                0.00243422
               0.00000000                8.00000000               36.00000000                0.76200658               -0.08264597               -0.08203654                0.27254696                0.00105943                0.00002789               -0.00057225
               1.00000000                8.00000000               36.00000000                0.33150007               -0.08331385               -0.08329322                0.27859582                0.00080505                0.00074511               -0.00082436
               2.00000000                8.00000000               36.00000000                0.10193818               -0.07817496               -0.08505650                0.28473201                0.01862756                0.03543918               -0.00033659
               3.00000000                8.00000000               36.00000000                0.12399365               -0.08077540               -0.09441091                0.29760646                0.02352375                0.05418128               -0.00915365
               4.00000000                8.00000000               36.00000000                0.17154592               -0.09253866               -0.09327951                0.30735607                0.01413861                0.02680092               -0.00378179
               5.00000000                8.00000000               36.00000000                0.22853454               -0.09666578               -0.09443484                0.31479228                0.00691453                0.01091052               -0.00098458
               6.00000000                8.00000000               36.00000000                0.29626166               -0.09790273               -0.09642987                0.32137372                0.00307051                0.00483660                0.00020999
               7.00000000                8.00000000               36.00000000                0.37699381               -0.09896699               -0.09846633                0.32760047                0.00117403                0.00222313                0.00074788
               8.00000000                8.00000000               36.00000000                0.47369201               -0.10032542               -0.10032547                0.33368156                0.00028148                0.00100041                0.00099940
               9.00000000                8.00000000               36.00000000                0.59027136               -0.10197925               -0.10196625                0.33971214               -0.00001191                0.00036730                0.00110334
              10.00000000                8.00000000               36.00000000                0.83394161               -0.10287306               -0.10340595                0.34573960               -0.00085375                0.00011515                0.00112502
               0.00000000                9.00000000               36.00000000                0.84671287               -0.08460681               -0.08383692                0.27918549                0.00102772                0.00008219               -0.00021963
               1.00000000                9.00000000               36.00000000                0.44932760               -0.08533998               -0.08545153                0.28517682                0.00045919                0.00108159               -0.00037943
               2.00000000                9.00000000               36.00000000                0.15502429               -0.08439879               -0.08712238                0.29133030                0.01416284                0.03170252               -0.00013474
               3.00000000                9.00000000               36.00000000                0.17253153               -0.08844191               -0.09285005                0.30324790                0.01532242                0.05160347               -0.00451574
               4.00000000                9.00000000               36.00000000                0.22852762               -0.09557768               -0.09445069                0.31322152                0.01019715                0.02914529               -0.00184579
               5.00000000                9.00000000               36.00000000                0.29623891               -0.09757561               -0.09628888                0.32077870                0.00407721                0.01201462               -0.00048838
               6.00000000                9.00000000               36.00000000                0.37698069               -0.09883154               -0.09826780                0.32739677                0.00149154                0.00529158                0.00005187
               7.00000000                9.00000000               36.00000000                0.47368945               -0.10030409               -0.10016872                0.33363139                0.00041882                0.00243600                0.00027334
               8.00000000                9.00000000               36.00000000                0.59027262               -0.10196581               -0.10197885                0.33971071               -0.00001188                0.00110377                0.00036670
               9.00000000                9.00000000               36.00000000                0.73199303               -0.10371782               -0.10371782                0.34573603               -0.00009450                0.00040502                0.00040457
              10.00000000                9.00000000               36.00000000                0.91273454               -0.10460434               -0.10548086                0.35175853               -0.00095476                0.00012540                0.00041899
               0.00000000               10.00000000               36.00000000                0.95338255               -0.08680121               -0.08471744                0.28581706                0.00007385                0.00019409               -0.00003089
               1.00000000               10.00000000               36.00000000                0.76623705               -0.08815144               -0.08651521                0.29179214               -0.00047573                0.00130829               -0.00015983
               2.00000000               10.00000000               36.00000000                0.59614254               -0.09687321               -0.08804153                0.29798570                0.01181856                0.03054678               -0.00004859
               3.00000000               10.00000000               36.00000000                0.60328075               -0.09903549               -0.09132089                0.30951449                0.00611793                0.04957534               -0.00176665
               4.00000000               10.00000000               36.00000000                0.63401858               -0.09377125               -0.09540358                0.31937501                0.00422945                0.02865874               -0.00076118
               5.00000000               10.00000000               36.00000000                0.67134267               -0.09529749               -0.09751925                0.32687179                0.00141630                0.01180008               -0.00020988
               6.00000000               10.00000000               36.00000000                0.71589460               -0.09834837               -0.09936939                0.33345288                0.00000582                0.00521329                0.00000158
               7.00000000               10.00000000               36.00000000                0.76934500               -0.10106535               -0.10112953                0.33966752               -0.00059872                0.00243348                0.00008418
               8.00000000               10.00000000               36.00000000                0.83394292               -0.10340509               -0.10287243                0.34573679               -0.00085392                0.00112454                0.00011472
               9.00000000               10.00000000               36.00000000                0.91273590               -0.10548042               -0.10460412                0.35175713               -0.00095498                0.00041889                0.00012500
              10.00000000               10.00000000               36.00000000                0.98223129               -0.10646334               -0.10646357                0.35777771               -0.00194298                0.00012819                0.00012821
               0.00000000                0.00000000               37.00000000                0.74974965               -0.06667972               -0.06667943                0.22030066                0.00224128               -0.00017616               -0.00017606
               1.00000000                0.00000000               37.00000000                0.49502364               -0.06671666               -0.06940207                0.22686386                0.00202148               -0.00090141               -0.00011683
               2.00000000                0.00000000               37.00000000                0.49721424               -0.06808466               -0.07087313                0.23335451                0.00101335               -0.00169343               -0.00002502
               3.00000000                0.00000000               37.00000000                0.51747133               -0.07073560               -0.07290310                0.23983244                0.00106295               -0.00189037               -0.00001785
               4.00000000                0.00000000               37.00000000                0.54638034               -0.07332164               -0.07484758                0.24631621                0.00105580               -0.00186241               -0.00000379
               5.00000000                0.00000000               37.00000000                0.58438669               -0.07577099               -0.07680070                0.25281318                0.00108197               -0.00167224                0.00000084
               6.00000000                0.00000000               37.00000000                0.63227054               -0.07804513               -0.07874524                0.25933093                0.00110363               -0.00135583               -0.00000145
               7.00000000                0.00000000               37.00000000                0.69104383               -0.08012986               -0.08068062                0.26587300                0.00110438               -0.00095963                0.00000102
               8.00000000                0.00000000               37.00000000                0.76197372               -0.08202972               -0.08261602                0.27244093                0.00106001               -0.00054397                0.00002671
               9.00000000                0.00000000               37.00000000                0.84665842               -0.08380238               -0.08456361                0.27903138                0.00102358               -0.00018580                0.00008394
              10.00000000                0.00000000               37.00000000                0.95334890               -0.08466896               -0.08674875                0.28561866                0.00006284                0.00000087                0.00023131
               0.00000000                1.00000000               37.00000000                0.49502481               -0.06940191               -0.06671618                0.22686242                0.00202131               -0.00011725               -0.00090106
               1.00000000                1.00000000               37.00000000                0.01000001               -0.07139102               -0.07139095                0.23342672                0.00305295               -0.00092374               -0.00092276
               2.00000000                1.00000000               37.00000000                0.01000000               -0.07403217               -0.06886630                0.23989080                0.00896458               -0.00214663                0.00376711
               3.00000000                1.00000000               37.00000000                0.01000001               -0.07522818               -0.06693073                0.24630622                0.00960609               -0.00265743                0.00803340
               4.00000000                1.00000000               37.00000000                0.04144741               -0.07639286               -0.07473595                0.25270708                0.00140687               -0.00272014               -0.00039815
               5.00000000                1.00000000               37.00000000                0.09201198               -0.07773790               -0.07741111                0.25911308                0.00134395               -0.00249462               -0.00077790
               6.00000000                1.00000000               37.00000000                0.15579534               -0.07931605               -0.07945938                0.26554259                0.00143383               -0.00205425               -0.00029858
               7.00000000                1.00000000               37.00000000                0.23475752               -0.08115913               -0.08135075                0.27200669                0.00124404               -0.00149171                0.00029712
               8.00000000                1.00000000               37.00000000                0.33146019               -0.08324423               -0.08327855                0.27851099                0.00085416               -0.00092017                0.00079165
               9.00000000                1.00000000               37.00000000                0.44926007               -0.08540327               -0.08529246                0.28505081                0.00048403               -0.00043469                0.00116819
              10.00000000                1.00000000               37.00000000                0.76619136               -0.08646647               -0.08812189                0.29162409               -0.00045962               -0.00019240                0.00145758
               0.00000000                2.00000000               37.00000000                0.49721399               -0.07087282               -0.06808398                0.23335217                0.00101322               -0.00002502               -0.00169277
               1.00000000                2.00000000               37.00000000                0.01000000               -0.06886632               -0.07403185                0.23988980                0.00896479                0.00376623               -0.00214519
               2.00000000                2.00000000               37.00000000                0.01000001               -0.07257764               -0.07257566                0.24721007                0.02740460                0.00704276                0.00704536
               3.00000000                2.00000000               37.00000000                0.01000000               -0.08712264               -0.06430716                0.25434764                0.02590737               -0.00669293                0.01886478
               4.00000000                2.00000000               37.00000000                0.01000000               -0.08778363               -0.06362117                0.25895071                0.02637869               -0.01218735                0.03537862
               5.00000000                2.00000000               37.00000000                0.01000001               -0.07973450               -0.06111583                0.26520267                0.03314932               -0.00303733                0.05371838
               6.00000000                2.00000000               37.00000000                0.02637559               -0.08072273               -0.06362273                0.27164503                0.03007971               -0.00153032                0.05308748
               7.00000000                2.00000000               37.00000000                0.05983931               -0.08272292               -0.07097974                0.27814379                0.02496002               -0.00086440                0.04503558
               8.00000000                2.00000000               37.00000000                0.10192865               -0.08500697               -0.07776544                0.28467223                0.01952624               -0.00046278                0.03891268
               9.00000000                2.00000000               37.00000000                0.15500646               -0.08707713               -0.08412632                0.29123444                0.01484804               -0.00020675                0.03477196
              10.00000000                2.00000000               37.00000000                0.59613010               -0.08799226               -0.09705198                0.29784626                0.01240937               -0.00008109                0.03348720
               0.00000000                3.00000000               37.00000000                0.51747326               -0.07290241               -0.07073460                0.23982907                0.00106261               -0.00001790               -0.00188961
               1.00000000                3.00000000               37.00000000                0.01000001               -0.06693020               -0.07522752                0.24630419                0.00960830                0.00803324               -0.00265608
               2.00000000                3.00000000               37.00000000                0.01000000               -0.06430655               -0.08712117                0.25434433                0.02590732                0.01886247               -0.00669220
               3.00000000                3.00000000               37.00000000                0.01000000               -0.07034110               -0.07034182                0.26281399                0.04305863                0.02673894                0.02673946
               4.00000000                3.00000000               37.00000000                0.01197020               -0.07645860               -0.06154584                0.27224223                0.05378532                0.03386138                0.06178645
               5.00000000                3.00000000               37.00000000                0.02054908               -0.08455925               -0.06275372                0.28180183                0.04959723                0.01679072                0.06928045
               6.00000000                3.00000000               37.00000000                0.04909116               -0.09097385               -0.06759451                0.28774544                0.03583722               -0.00929601                0.06706339
               7.00000000                3.00000000               37.00000000                0.08325484               -0.09372545               -0.07372864                0.29243141                0.02735559               -0.01442439                0.06327463
               8.00000000                3.00000000               37.00000000                0.12399049               -0.09468026               -0.08030828                0.29758754                0.02467163               -0.01018032                0.05958098
               9.00000000                3.00000000               37.00000000                0.17252640               -0.09300762               -0.08815040                0.30321667                0.01607529               -0.00503454                0.05663644
              10.00000000                3.00000000               37.00000000                0.60327809               -0.09138634               -0.09907727                0.30946222                0.00647748               -0.00196805                0.05423013
               0.00000000                4.00000000               37.00000000                0.54638326               -0.07484592               -0.07332012                0.24631064                0.00105553               -0.00000380               -0.00186285
               1.00000000                4.00000000               37.00000000                0.04144847               -0.07473496               -0.07639166                0.25270284                0.00140837               -0.00040068               -0.00271993
               2.00000000                4.00000000               37.00000000                0.01000000               -0.06361958               -0.08778478                0.25896789                0.02637806                0.03537405               -0.01218745
               3.00000000                4.00000000               37.00000000                0.01197080               -0.06154060               -0.07646070                0.27223472                0.05378228                0.06178519                0.03386569
               4.00000000                4.00000000               37.00000000                0.02051232               -0.07848884               -0.07849231                0.28324539                0.03075969                0.03205443                0.03205445
               5.00000000                4.00000000               37.00000000                0.04899640               -0.08861785               -0.08598264                0.29045995                0.01994302                0.00419405                0.01642276
               6.00000000                4.00000000               37.00000000                0.08303634               -0.09140091               -0.09030668                0.29612896                0.01590853               -0.00489749                0.01745193
               7.00000000                4.00000000               37.00000000                0.12351489               -0.09261920               -0.09078979                0.30169691                0.01519261               -0.00539100                0.02472760
               8.00000000                4.00000000               37.00000000                0.17154277               -0.09336068               -0.09249707                0.30736118                0.01478784               -0.00423886                0.02947340
               9.00000000                4.00000000               37.00000000                0.22852398               -0.09452753               -0.09553828                0.31323111                0.01068270               -0.00206893                0.03195810
              10.00000000                4.00000000               37.00000000                0.63401576               -0.09549435               -0.09349212                0.31938259                0.00452100               -0.00085434                0.03127952
               0.00000000                5.00000000               37.00000000                0.58438765               -0.07679890               -0.07576911                0.25280677                0.00108183                0.00000097               -0.00167348
               1.00000000                5.00000000               37.00000000                0.09201602               -0.07740976               -0.07773634                0.25910801                0.00134397               -0.00078029               -0.00249514
               2.00000000                5.00000000               37.00000000                0.01000001               -0.06111149               -0.07973439                0.26520345                0.03314685                0.05372190               -0.00303323
               3.00000000                5.00000000               37.00000000                0.02055146               -0.06274889               -0.08456138                0.28179986                0.04959318                0.06928056                0.01678699
               4.00000000                5.00000000               37.00000000                0.04899830               -0.08598153               -0.08861685                0.29045367                0.01993977                0.01641458                0.00419148
               5.00000000                5.00000000               37.00000000                0.08303889               -0.09136976               -0.09136978                0.29687706                0.01391465                0.00253952                0.00254073
               6.00000000                5.00000000               37.00000000                0.12352193               -0.09252766               -0.09317120                0.30294580                0.01103730               -0.00018602                0.00634768
               7.00000000                5.00000000               37.00000000                0.17155369               -0.09341214               -0.09493066                0.30888730                0.00909111               -0.00115283                0.00960883
               8.00000000                5.00000000               37.00000000                0.22853450               -0.09445900               -0.09674013                0.31481919                0.00722440               -0.00113544                0.01196038
               9.00000000                5.00000000               37.00000000                0.29623780               -0.09632994               -0.09758893                0.32081864                0.00426763               -0.00056175                0.01311649
              10.00000000                5.00000000               37.00000000                0.67134292               -0.09758273               -0.09508387                0.32692070                0.00154574               -0.00024347                0.01279482
               0.00000000                6.00000000               37.00000000                0.63227616               -0.07874295               -0.07804274                0.25932274                0.00110339               -0.00000131               -0.00135643
               1.00000000                6.00000000               37.00000000                0.15580308               -0.07945733               -0.07931402                0.26553576                0.00143424               -0.00029543               -0.00205406
               2.00000000                6.00000000               37.00000000                0.02637868               -0.06361979               -0.08072091                0.27164065                0.03007644                0.05307830               -0.00152768
               3.00000000                6.00000000               37.00000000                0.04909388               -0.06759073               -0.09097362                0.28774113                0.03582995                0.06705297               -0.00930660
               4.00000000                6.00000000               37.00000000                0.08303803               -0.09030433               -0.09140025                0.29612632                0.01590590                0.01745344               -0.00490408
               5.00000000                6.00000000               37.00000000                0.12352243               -0.09317036               -0.09252730                0.30294505                0.01103622                0.00634953               -0.00018798
               6.00000000                6.00000000               37.00000000                0.17156145               -0.09428496               -0.09428511                0.30926517                0.00755320                0.00248299                0.00247985
               7.00000000                6.00000000               37.00000000                0.22855040               -0.09522147               -0.09624855                0.31538106                0.00510490                0.00082359                0.00418668
               8.00000000                6.00000000               37.00000000                0.29626611               -0.09645290               -0.09796652                0.32142216                0.00320638                0.00018660                0.00525069
               9.00000000                6.00000000               37.00000000                0.37698615               -0.09830322               -0.09884858                0.32746285                0.00155940                0.00003422                0.00571284
              10.00000000                6.00000000               37.00000000                0.71589721               -0.09941930               -0.09824482                0.33353390                0.00005425               -0.00001028                0.00557761
               0.00000000                7.00000000               37.00000000                0.69104900               -0.08067774               -0.08012693                0.26586309                0.00110424                0.00000120               -0.00096020
               1.00000000                7.00000000               37.00000000                0.23476571               -0.08134824               -0.08115661                0.27199820                0.00124425                0.00029785               -0.00149159
               2.00000000                7.00000000               37.00000000                0.05984440               -0.07097745               -0.08272124                0.27813917                0.02495606                0.04502705               -0.00086742
               3.00000000                7.00000000               37.00000000                0.08325936               -0.07372547               -0.09372384                0.29242507                0.02734883                0.06326458               -0.01442239
               4.00000000                7.00000000               37.00000000                0.12351781               -0.09078705               -0.09261866                0.30169459                0.01519036                0.02472728               -0.00539223
               5.00000000                7.00000000               37.00000000                0.17155689               -0.09492934               -0.09341181                0.30888492                0.00909083                0.00961004               -0.00115328
               6.00000000                7.00000000               37.00000000                0.22855218               -0.09624780               -0.09522134                0.31537931                0.00510471                0.00418798                0.00082187
               7.00000000                7.00000000               37.00000000                0.29627534               -0.09722758               -0.09722779                0.32158471                0.00267400                0.00183897                0.00183752
               8.00000000                7.00000000               37.00000000                0.37700406               -0.09849852               -0.09901141                0.32767258                0.00122584                0.00077248                0.00236797
               9.00000000                7.00000000               37.00000000                0.47370379               -0.10020594               -0.10032654                0.33372342                0.00043715                0.00027308                0.00257739
              10.00000000                7.00000000               37.00000000                0.76935388               -0.10117376               -0.10103620                0.33977666               -0.00058462                0.00007913                0.00254731
               0.00000000                8.00000000               37.00000000                0.76198084               -0.08261302               -0.08202650                0.27243026                0.00105990                0.00002683               -0.00054463
               1.00000000                8.00000000               37.00000000                0.33147023               -0.08327586               -0.08324146                0.27850184                0.00085395                0.00079079               -0.00091998
               2.00000000                8.00000000               37.00000000                0.10193589               -0.07776346               -0.08500502                0.28466599                0.01952239                0.03890411               -0.00046252
               3.00000000                8.00000000               37.00000000                0.12399586               -0.08030540               -0.09467773                0.29757989                0.02466588                0.05957099               -0.01017927
               4.00000000                8.00000000               37.00000000                0.17154872               -0.09249377               -0.09335909                0.30735480                0.01478526                0.02947081               -0.00423950
               5.00000000                8.00000000               37.00000000                0.22853768               -0.09673849               -0.09445841                0.31481636                0.00722403                0.01196023               -0.00113683
               6.00000000                8.00000000               37.00000000                0.29626822               -0.09796577               -0.09645265                0.32142105                0.00320652                0.00525148                0.00018526
               7.00000000                8.00000000               37.00000000                0.37700545               -0.09901092               -0.09849828                0.32767145                0.00122595                0.00236896                0.00077135
               8.00000000                8.00000000               37.00000000                0.47371195               -0.10036160               -0.10036167                0.33377518                0.00029419                0.00103636                0.00103566
               9.00000000                8.00000000               37.00000000                0.59030195               -0.10201827               -0.10199674                0.33982652               -0.00001262                0.00036941                0.00113442
              10.00000000                8.00000000               37.00000000                0.83396036               -0.10291567               -0.10342076                0.34587136               -0.00085417                0.00011202                0.00114291
               0.00000000                9.00000000               37.00000000                0.84666748               -0.08456029               -0.08379883                0.27901942                0.00102338                0.00008416               -0.00018630
               1.00000000                9.00000000               37.00000000                0.44927578               -0.08528941               -0.08540021                0.28504036                0.00048384                0.00116839               -0.00043422
               2.00000000                9.00000000               37.00000000                0.15501494               -0.08412409               -0.08707464                0.29122590                0.01484499                0.03476314               -0.00020473
               3.00000000                9.00000000               37.00000000                0.17253425               -0.08814790               -0.09300439                0.30320727                0.01607191                0.05662380               -0.00503385
               4.00000000                9.00000000               37.00000000                0.22853154               -0.09553542               -0.09452518                0.31322357                0.01068036                0.03195355               -0.00206958
               5.00000000                9.00000000               37.00000000                0.29624524               -0.09758695               -0.09632825                0.32081271                0.00426667                0.01311542               -0.00056232
               6.00000000                9.00000000               37.00000000                0.37699136               -0.09884731               -0.09830215                0.32745901                0.00155968                0.00571299                0.00003352
               7.00000000                9.00000000               37.00000000                0.47370718               -0.10032576               -0.10020517                0.33372067                0.00043760                0.00257806                0.00027249
               8.00000000                9.00000000               37.00000000                0.59030432               -0.10199639               -0.10201790                0.33982525               -0.00001246                0.00113485                0.00036920
               9.00000000                9.00000000               37.00000000                0.73204101               -0.10375760               -0.10375757                0.34587290               -0.00009906                0.00040338                0.00040342
              10.00000000                9.00000000               37.00000000                0.91276454               -0.10464852               -0.10552050                0.35191341               -0.00095934                0.00012175                0.00041251
               0.00000000               10.00000000               37.00000000                0.95335372               -0.08674498               -0.08466520                0.28560534                0.00006235                0.00023125                0.00000035
               1.00000000               10.00000000               37.00000000                0.76620091               -0.08811826               -0.08646322                0.29161224               -0.00046008                0.00145774               -0.00019195
               2.00000000               10.00000000               37.00000000                0.59613537               -0.09704810               -0.08798960                0.29783594                0.01240689                0.03347743               -0.00007939
               3.00000000               10.00000000               37.00000000                0.60328229               -0.09907459               -0.09138280                0.30945117                0.00647575                0.05421582               -0.00196758
               4.00000000               10.00000000               37.00000000                0.63401988               -0.09349097               -0.09549172                0.31937403                0.00451913                0.03127407               -0.00085439
               5.00000000               10.00000000               37.00000000                0.67134643               -0.09508245               -0.09758026                0.32691214                0.00154474                0.01279305               -0.00024325
               6.00000000               10.00000000               37.00000000                0.71590069               -0.09824333               -0.09941759                0.33352727                0.00005394                0.00557693               -0.00001035
               7.00000000               10.00000000               37.00000000                0.76935615               -0.10103505               -0.10117266                0.33977221               -0.00058463                0.00254745                0.00007892
               8.00000000               10.00000000               37.00000000                0.83396154               -0.10342004               -0.10291512                0.34586881               -0.00085428                0.00114290                0.00011206
               9.00000000               10.00000000               37.00000000                0.91276466               -0.10552015               -0.10464834                0.35191220               -0.00095949                0.00041204                0.00012191
              10.00000000               10.00000000               37.00000000                0.98224852               -0.10651114               -0.10651133                0.35795084               -0.00194954                0.00012379                0.00012425
               0.00000000                0.00000000               38.00000000                0.74977631               -0.06675063               -0.06675039                0.22061918                0.00223419               -0.00018796               -0.00018792
               1.00000000                0.00000000               38.00000000                0.49505943               -0.06672740               -0.06949426                0.22713598                0.00207884               -0.00095414               -0.00012703
               2.00000000                0.00000000               38.00000000                0.49723084               -0.06805357               -0.07092446                0.23357365                0.00101379               -0.00177643               -0.00003341
               3.00000000                0.00000000               38.00000000                0.51748509               -0.07073726               -0.07294422                0.23999561                0.00106644               -0.00196845               -0.00002431
               4.00000000                0.00000000               38.00000000                0.54639074               -0.07334618               -0.07487313                0.24642016                0.00105920               -0.00192781               -0.00000805
               5.00000000                0.00000000               38.00000000                0.58438999               -0.07580602               -0.07681158                0.25285853                0.00108681               -0.00172041               -0.00000202
               6.00000000                0.00000000               38.00000000                0.63226924               -0.07807782               -0.07874093                0.25931903                0.00110907               -0.00138285               -0.00000404
               7.00000000                0.00000000               38.00000000                0.69103152               -0.08014782               -0.08066077                0.26580599                0.00110868               -0.00096509               -0.00000150
               8.00000000                0.00000000               38.00000000                0.76194651               -0.08202206               -0.08257997                0.27232022                0.00106073               -0.00052842                0.00002589
               9.00000000                0.00000000               38.00000000                0.84661038               -0.08376418               -0.08451338                0.27885922                0.00101913               -0.00015991                0.00008660
              10.00000000                0.00000000               38.00000000                0.95331827               -0.08461545               -0.08668946                0.28539960                0.00005293                0.00002783                0.00026544
               0.00000000                1.00000000               38.00000000                0.49506098               -0.06949395               -0.06672695                0.22713442                0.00207846               -0.00012723               -0.00095340
               1.00000000                1.00000000               38.00000000                0.01000001               -0.07153694               -0.07153695                0.23365327                0.00323684               -0.00099196               -0.00099077
               2.00000000                1.00000000               38.00000000                0.01000000               -0.07420084               -0.06877930                0.24006937                0.00944455               -0.00231407                0.00414617
               3.00000000                1.00000000               38.00000000                0.01000001               -0.07533081               -0.06666632                0.24643600                0.01013586               -0.00287398                0.00880720
               4.00000000                1.00000000               38.00000000                0.04145433               -0.07643240               -0.07469674                0.25278729                0.00155732               -0.00295050               -0.00047372
               5.00000000                1.00000000               38.00000000                0.09201431               -0.07772888               -0.07739917                0.25914509                0.00147502               -0.00271173               -0.00088380
               6.00000000                1.00000000               38.00000000                0.15579121               -0.07927481               -0.07944602                0.26552732                0.00154932               -0.00223728               -0.00035079
               7.00000000                1.00000000               38.00000000                0.23474054               -0.08110216               -0.08132317                0.27194517                0.00133341               -0.00163061                0.00029930
               8.00000000                1.00000000               38.00000000                0.33142615               -0.08318489               -0.08323472                0.27840327                0.00091067               -0.00101387                0.00083991
               9.00000000                1.00000000               38.00000000                0.44920132               -0.08534533               -0.08523588                0.28489808                0.00051229               -0.00048671                0.00125745
              10.00000000                1.00000000               38.00000000                0.76615262               -0.08640840               -0.08808823                0.29142637               -0.00043892               -0.00022149                0.00160351
               0.00000000                2.00000000               38.00000000                0.49723367               -0.07092350               -0.06805262                0.23357042                0.00101352               -0.00003343               -0.00177525
               1.00000000                2.00000000               38.00000000                0.01000000               -0.06877890               -0.07420022                0.24006738                0.00944462                0.00414503               -0.00231229
               2.00000000                2.00000000               38.00000000                0.01000001               -0.07254938               -0.07254884                0.24734485                0.02877445                0.00776422                0.00776454
               3.00000000                2.00000000               38.00000000                0.01000000               -0.08764830               -0.06381435                0.25444105                0.02724825               -0.00735260                0.02073599
               4.00000000                2.00000000               38.00000000                0.01000000               -0.08824027               -0.06299911                0.25903943                0.02777145               -0.01344424                0.03875604
               5.00000000                2.00000000               38.00000000                0.01000001               -0.07971870               -0.06027985                0.26523698                0.03485907               -0.00338338                0.05876387
               6.00000000                2.00000000               38.00000000                0.02637562               -0.08064966               -0.06276763                0.27163842                0.03166010               -0.00174253                0.05798379
               7.00000000                2.00000000               38.00000000                0.05983889               -0.08264508               -0.07032407                0.27809765                0.02629452               -0.00102117                0.04912873
               8.00000000                2.00000000               38.00000000                0.10192508               -0.08494406               -0.07729067                0.28458592                0.02058437               -0.00057364                0.04240300
               9.00000000                2.00000000               38.00000000                0.15499609               -0.08701848               -0.08382216                0.29110630                0.01565458               -0.00026804                0.03786509
              10.00000000                2.00000000               38.00000000                0.59612155               -0.08792869               -0.09728713                0.29766977                0.01311335               -0.00010822                0.03645572
               0.00000000                3.00000000               38.00000000                0.51748747               -0.07294301               -0.07073593                0.23999121                0.00106638               -0.00002439               -0.00196843
               1.00000000                3.00000000               38.00000000                0.01000001               -0.06666534               -0.07532979                0.24643286                0.01013597                0.00880442               -0.00287340
               2.00000000                3.00000000               38.00000000                0.01000000               -0.06381425               -0.08764785                0.25444004                0.02724823                0.02073434               -0.00734002
               3.00000000                3.00000000               38.00000000                0.01000000               -0.06996285               -0.06996523                0.26287431                0.04512988                0.02937039                0.02936928
               4.00000000                3.00000000               38.00000000                0.01197044               -0.07618254               -0.06068519                0.27226248                0.05638920                0.03709187                0.06774348
               5.00000000                3.00000000               38.00000000                0.02054962               -0.08454465               -0.06183847                0.28182855                0.05207396                0.01830347                0.07588927
               6.00000000                3.00000000               38.00000000                0.04909216               -0.09121580               -0.06677066                0.28776975                0.03772793               -0.01026881                0.07336914
               7.00000000                3.00000000               38.00000000                0.08325658               -0.09404951               -0.07304449                0.29244226                0.02885057               -0.01584959                0.06912087
               8.00000000                3.00000000               38.00000000                0.12399295               -0.09499612               -0.07977976                0.29758146                0.02602372               -0.01119300                0.06499638
               9.00000000                3.00000000               38.00000000                0.17253013               -0.09317884               -0.08784405                0.30318497                0.01696148               -0.00554331                0.06170108
              10.00000000                3.00000000               38.00000000                0.60327880               -0.09144196               -0.09917634                0.30940111                0.00690047               -0.00216520                0.05894802
               0.00000000                4.00000000               38.00000000                0.54639110               -0.07487190               -0.07334476                0.24641516                0.00105917               -0.00000797               -0.00192838
               1.00000000                4.00000000               38.00000000                0.04145853               -0.07469571               -0.07643128                0.25278355                0.00155699               -0.00046006               -0.00295043
               2.00000000                4.00000000               38.00000000                0.01000000               -0.06299627               -0.08824088                0.25903782                0.02776791                0.03875288               -0.01343896
               3.00000000                4.00000000               38.00000000                0.01197083               -0.06067977               -0.07618523                0.27226776                0.05638628                0.06772870                0.03708943
               4.00000000                4.00000000               38.00000000                0.02051279               -0.07821116               -0.07821346                0.28326361                0.03228853                0.03507672                0.03507196
               5.00000000                4.00000000               38.00000000                0.04899772               -0.08870594               -0.08595366                0.29049480                0.02093039                0.00452599                0.01796142
               6.00000000                4.00000000               38.00000000                0.08303720               -0.09154878               -0.09039529                0.29616704                0.01670852               -0.00543472                0.01909524
               7.00000000                4.00000000               38.00000000                0.12351652               -0.09275400               -0.09080348                0.30173758                0.01597098               -0.00596266                0.02701635
               8.00000000                4.00000000               38.00000000                0.17154710               -0.09346059               -0.09247049                0.30739837                0.01555999               -0.00468761                0.03215093
               9.00000000                4.00000000               38.00000000                0.22852857               -0.09461463               -0.09552230                0.31326273                0.01125626               -0.00228975                0.03479005
              10.00000000                4.00000000               38.00000000                0.63401894               -0.09559460               -0.09320182                0.31940383                0.00485710               -0.00094695                0.03394369
               0.00000000                5.00000000               38.00000000                0.58439261               -0.07681023               -0.07580430                0.25285292                0.00108660               -0.00000198               -0.00172109
               1.00000000                5.00000000               38.00000000                0.09201973               -0.07739820               -0.07772747                0.25914075                0.00147379               -0.00088025               -0.00271172
               2.00000000                5.00000000               38.00000000                0.01000001               -0.06027658               -0.07971835                0.26523653                0.03485590                0.05875621               -0.00339493
               3.00000000                5.00000000               38.00000000                0.02055138               -0.06183349               -0.08454396                0.28181048                0.05206982                0.07587573                0.01830039
               4.00000000                5.00000000               38.00000000                0.04899846               -0.08595126               -0.08870438                0.29048524                0.02092672                0.01796479                0.00452360
               5.00000000                5.00000000               38.00000000                0.08304007               -0.09149631               -0.09149648                0.29691684                0.01459367                0.00275013                0.00274347
               6.00000000                5.00000000               38.00000000                0.12352296               -0.09262802               -0.09329632                0.30299486                0.01158191               -0.00025191                0.00692139
               7.00000000                5.00000000               38.00000000                0.17155694               -0.09347611               -0.09504863                0.30894588                0.00954730               -0.00131084                0.01047608
               8.00000000                5.00000000               38.00000000                0.22853895               -0.09449463               -0.09684532                0.31488282                0.00759478               -0.00128238                0.01301439
               9.00000000                5.00000000               38.00000000                0.29624635               -0.09637921               -0.09762186                0.32088343                0.00449246               -0.00063411                0.01423151
              10.00000000                5.00000000               38.00000000                0.67134719               -0.09765540               -0.09485118                0.32698418                0.00169562               -0.00027606                0.01381671
               0.00000000                6.00000000               38.00000000                0.63227257               -0.07873892               -0.07807554                0.25931150                0.00110881               -0.00000395               -0.00138396
               1.00000000                6.00000000               38.00000000                0.15579972               -0.07944415               -0.07927288                0.26552097                0.00154838               -0.00034978               -0.00223763
               2.00000000                6.00000000               38.00000000                0.02637912               -0.06276458               -0.08064705                0.27162863                0.03165762                0.05797488               -0.00174438
               3.00000000                6.00000000               38.00000000                0.04909460               -0.06676691               -0.09121501                0.28776627                0.03772329                0.07336057               -0.01026878
               4.00000000                6.00000000               38.00000000                0.08303974               -0.09039303               -0.09154786                0.29616451                0.01670479                0.01909806               -0.00543091
               5.00000000                6.00000000               38.00000000                0.12352443               -0.09329533               -0.09262755                0.30299382                0.01158035                0.00692298               -0.00025412
               6.00000000                6.00000000               38.00000000                0.17156441               -0.09437749               -0.09437783                0.30932764                0.00792608                0.00267431                0.00267314
               7.00000000                6.00000000               38.00000000                0.22855648               -0.09527686               -0.09634522                0.31545345                0.00535975                0.00085394                0.00452997
               8.00000000                6.00000000               38.00000000                0.29627421               -0.09648675               -0.09805344                0.32150543                0.00336951                0.00016472                0.00567226
               9.00000000                6.00000000               38.00000000                0.37699992               -0.09834644               -0.09887757                0.32755219                0.00164063                0.00001781                0.00614695
              10.00000000                6.00000000               38.00000000                0.71590552               -0.09947675               -0.09812994                0.33362651                0.00011130               -0.00002087                0.00596137
               0.00000000                7.00000000               38.00000000                0.69103561               -0.08065852               -0.08014519                0.26579750                0.00110852               -0.00000127               -0.00096562
               1.00000000                7.00000000               38.00000000                0.23475175               -0.08132083               -0.08109992                0.27193772                0.00133314                0.00030107               -0.00163031
               2.00000000                7.00000000               38.00000000                0.05984335               -0.07032131               -0.08264245                0.27808693                0.02629081                0.04911981               -0.00102081
               3.00000000                7.00000000               38.00000000                0.08326085               -0.07304154               -0.09404869                0.29243932                0.02884453                0.06911125               -0.01584753
               4.00000000                7.00000000               38.00000000                0.12351969               -0.09080112               -0.09275361                0.30173507                0.01596823                0.02701636               -0.00596482
               5.00000000                7.00000000               38.00000000                0.17155951               -0.09504704               -0.09347555                0.30894295                0.00954630                0.01047587               -0.00131299
               6.00000000                7.00000000               38.00000000                0.22855840               -0.09634438               -0.09527668                0.31545179                0.00535955                0.00453133                0.00085306
               7.00000000                7.00000000               38.00000000                0.29628356               -0.09728967               -0.09728985                0.32167209                0.00280821                0.00195717                0.00195582
               8.00000000                7.00000000               38.00000000                0.37701940               -0.09854069               -0.09906980                0.32777158                0.00128814                0.00080040                0.00252131
               9.00000000                7.00000000               38.00000000                0.47372542               -0.10024948               -0.10035592                0.33383304                0.00045954                0.00027522                0.00273036
              10.00000000                7.00000000               38.00000000                0.76936626               -0.10122360               -0.10100179                0.33989396               -0.00056688                0.00007571                0.00267540
               0.00000000                8.00000000               38.00000000                0.76195426               -0.08257743               -0.08201913                0.27231065                0.00106045                0.00002599               -0.00052849
               1.00000000                8.00000000               38.00000000                0.33143846               -0.08323215               -0.08318236                0.27839480                0.00091055                0.00084087               -0.00101315
               2.00000000                8.00000000               38.00000000                0.10193155               -0.07728823               -0.08494197                0.28457742                0.02058068                0.04239440               -0.00057404
               3.00000000                8.00000000               38.00000000                0.12399875               -0.07977706               -0.09499383                0.29757497                0.02601778                0.06498368               -0.01119091
               4.00000000                8.00000000               38.00000000                0.17155130               -0.09246781               -0.09345936                0.30739351                0.01555770                0.03214843               -0.00468983
               5.00000000                8.00000000               38.00000000                0.22854392               -0.09684345               -0.09449372                0.31487926                0.00759439                0.01301589               -0.00128375
               6.00000000                8.00000000               38.00000000                0.29627761               -0.09805230               -0.09648606                0.32150254                0.00336945                0.00567266                0.00016389
               7.00000000                8.00000000               38.00000000                0.37702030               -0.09906930               -0.09854040                0.32777050                0.00128823                0.00252138                0.00079948
               8.00000000                8.00000000               38.00000000                0.47373420               -0.10040585               -0.10040590                0.33388907                0.00030926                0.00107854                0.00107792
               9.00000000                8.00000000               38.00000000                0.59033575               -0.10206174               -0.10203114                0.33995298               -0.00001373                0.00037535                0.00117342
              10.00000000                8.00000000               38.00000000                0.83397953               -0.10296156               -0.10343355                0.34600672               -0.00085309                0.00011085                0.00117074
               0.00000000                9.00000000               38.00000000                0.84662139               -0.08451013               -0.08376071                0.27884774                0.00101873                0.00008665               -0.00016008
               1.00000000                9.00000000               38.00000000                0.44921771               -0.08523272               -0.08534219                0.28488756                0.00051214                0.00125730               -0.00048626
               2.00000000                9.00000000               38.00000000                0.15500405               -0.08381981               -0.08701551                0.29109575                0.01565173                0.03785548               -0.00026825
               3.00000000                9.00000000               38.00000000                0.17253762               -0.08784165               -0.09317562                0.30317618                0.01695771                0.06168753               -0.00554280
               4.00000000                9.00000000               38.00000000                0.22853604               -0.09551951               -0.09461205                0.31325439                0.01125428                0.03478541               -0.00228936
               5.00000000                9.00000000               38.00000000                0.29625231               -0.09761986               -0.09637745                0.32087751                0.00449229                0.01423149               -0.00063571
               6.00000000                9.00000000               38.00000000                0.37700546               -0.09887626               -0.09834507                0.32754756                0.00164068                0.00614754                0.00001616
               7.00000000                9.00000000               38.00000000                0.47372856               -0.10035509               -0.10024859                0.33383016                0.00045959                0.00273060                0.00027467
               8.00000000                9.00000000               38.00000000                0.59033806               -0.10203073               -0.10206128                0.33995151               -0.00001368                0.00117374                0.00037501
               9.00000000                9.00000000               38.00000000                0.73209118               -0.10379822               -0.10379819                0.34601256               -0.00010465                0.00040678                0.00040661
              10.00000000                9.00000000               38.00000000                0.91279198               -0.10469233               -0.10555745                0.35206253               -0.00096276                0.00012062                0.00041141
               0.00000000               10.00000000               38.00000000                0.95332337               -0.08668562               -0.08461168                0.28538653                0.00005248                0.00026516                0.00002756
               1.00000000               10.00000000               38.00000000                0.76616023               -0.08808445               -0.08640490                0.29141414               -0.00043894                0.00160244               -0.00022123
               2.00000000               10.00000000               38.00000000                0.59612618               -0.09728316               -0.08792496                0.29765725                0.01311069                0.03644481               -0.00010820
               3.00000000               10.00000000               38.00000000                0.60328333               -0.09917365               -0.09143859                0.30939081                0.00689838                0.05893376               -0.00216542
               4.00000000               10.00000000               38.00000000                0.63402305               -0.09320049               -0.09559123                0.31939329                0.00485546                0.03393761               -0.00094622
               5.00000000               10.00000000               38.00000000                0.67135133               -0.09484970               -0.09765307                0.32697609                0.00169493                0.01381515               -0.00027743
               6.00000000               10.00000000               38.00000000                0.71590887               -0.09812856               -0.09947499                0.33362021                0.00011101                0.00596207               -0.00002230
               7.00000000               10.00000000               38.00000000                0.76936913               -0.10100064               -0.10122236                0.33988943               -0.00056714                0.00267585                0.00007531
               8.00000000               10.00000000               38.00000000                0.83398208               -0.10343272               -0.10296079                0.34600366               -0.00085332                0.00117062                0.00011073
               9.00000000               10.00000000               38.00000000                0.91279344               -0.10555701               -0.10469206                0.35206100               -0.00096303                0.00041114                0.00012058
              10.00000000               10.00000000               38.00000000                0.98226529               -0.10655541               -0.10655564                0.35810958               -0.00195344                0.00012227                0.00012252
               0.00000000                0.00000000               39.00000000                0.74980844               -0.06682431               -0.06682417                0.22095708                0.00222732               -0.00020039               -0.00020047
               1.00000000                0.00000000               39.00000000                0.49509896               -0.06673294               -0.06959344                0.22742514                0.00214385               -0.00101099               -0.00013720
               2.00000000                0.00000000               39.00000000                0.49725271               -0.06801151               -0.07097875                0.23380727                0.00101396               -0.00187123               -0.00004072
               3.00000000                0.00000000               39.00000000                0.51750030               -0.07073258               -0.07298777                0.24016962                0.00107009               -0.00206379               -0.00003003
               4.00000000                0.00000000               39.00000000                0.54639999               -0.07336907               -0.07490062                0.24653291                0.00106281               -0.00201178               -0.00001145
               5.00000000                0.00000000               39.00000000                0.58439459               -0.07584280               -0.07682364                0.25290993                0.00109186               -0.00178640               -0.00000435
               6.00000000                0.00000000               39.00000000                0.63226539               -0.07811363               -0.07873651                0.25930939                0.00111475               -0.00142704               -0.00000625
               7.00000000                0.00000000               39.00000000                0.69101583               -0.08016893               -0.08063935                0.26573787                0.00111350               -0.00098430               -0.00000350
               8.00000000                0.00000000               39.00000000                0.76191646               -0.08201663               -0.08254187                0.27219695                0.00106170               -0.00052259                0.00002570
               9.00000000                0.00000000               39.00000000                0.84656211               -0.08372595               -0.08445997                0.27868167                0.00101409               -0.00014033                0.00009014
              10.00000000                0.00000000               39.00000000                0.95328653               -0.08456044               -0.08662626                0.28517155                0.00004394                0.00005054                0.00029710
               0.00000000                1.00000000               39.00000000                0.49509805               -0.06959325               -0.06673271                0.22742415                0.00214371               -0.00013716               -0.00101100
               1.00000000                1.00000000               39.00000000                0.01000001               -0.07169808               -0.07169817                0.23389487                0.00344420               -0.00106115               -0.00106086
               2.00000000                1.00000000               39.00000000                0.01000000               -0.07438939               -0.06867341                0.24025897                0.00999253               -0.00248275                0.00452522
               3.00000000                1.00000000               39.00000000                0.01000001               -0.07544599               -0.06635368                0.24657227                0.01073795               -0.00309182                0.00958081
               4.00000000                1.00000000               39.00000000                0.04146441               -0.07647717               -0.07465044                0.25287075                0.00171786               -0.00318046               -0.00052426
               5.00000000                1.00000000               39.00000000                0.09201704               -0.07771910               -0.07738495                0.25917644                0.00161636               -0.00292745               -0.00097937
               6.00000000                1.00000000               39.00000000                0.15578739               -0.07922832               -0.07942986                0.26550650                0.00167576               -0.00241977               -0.00039983
               7.00000000                1.00000000               39.00000000                0.23472610               -0.08103796               -0.08129101                0.27187376                0.00143277               -0.00176777                0.00030890
               8.00000000                1.00000000               39.00000000                0.33139063               -0.08311884               -0.08318575                0.27828376                0.00097386               -0.00110440                0.00089517
               9.00000000                1.00000000               39.00000000                0.44913818               -0.08528132               -0.08517357                0.28473013                0.00054430               -0.00053584                0.00135037
              10.00000000                1.00000000               39.00000000                0.76610920               -0.08634424               -0.08805315                0.29120967               -0.00041269               -0.00024825                0.00174686
               0.00000000                2.00000000               39.00000000                0.49725202               -0.07097823               -0.06801087                0.23380519                0.00101376               -0.00004045               -0.00187075
               1.00000000                2.00000000               39.00000000                0.01000000               -0.06867313               -0.07438905                0.24025811                0.00999274                0.00452463               -0.00248181
               2.00000000                2.00000000               39.00000000                0.01000001               -0.07251610               -0.07251751                0.24749049                0.03035185                0.00848142                0.00848384
               3.00000000                2.00000000               39.00000000                0.01000000               -0.08826215               -0.06323872                0.25454908                0.02878903               -0.00799116                0.02260305
               4.00000000                2.00000000               39.00000000                0.01000000               -0.08877160               -0.06227172                0.25911123                0.02936608               -0.01467657                0.04214029
               5.00000000                2.00000000               39.00000000                0.01000001               -0.07969953               -0.05930937                0.26526224                0.03682133               -0.00373228                0.06383376
               6.00000000                2.00000000               39.00000000                0.02637547               -0.08056351               -0.06177968                0.27161249                0.03347099               -0.00194203                0.06292034
               7.00000000                2.00000000               39.00000000                0.05983799               -0.08255338               -0.06957408                0.27802776                0.02781847               -0.00116104                0.05326728
               8.00000000                2.00000000               39.00000000                0.10192077               -0.08487059               -0.07675582                0.28447823                0.02178977               -0.00067432                0.04594517
               9.00000000                2.00000000               39.00000000                0.15498234               -0.08694950               -0.08348917                0.29095328                0.01657427               -0.00032374                0.04101043
              10.00000000                2.00000000               39.00000000                0.59611175               -0.08785353               -0.09757446                0.29746542                0.01392117               -0.00013244                0.03947860
               0.00000000                3.00000000               39.00000000                0.51750251               -0.07298666               -0.07073134                0.24016539                0.00106989               -0.00002988               -0.00206269
               1.00000000                3.00000000               39.00000000                0.01000001               -0.06635230               -0.07544501                0.24656925                0.01073653                0.00958131               -0.00309012
               2.00000000                3.00000000               39.00000000                0.01000000               -0.06323876               -0.08826205                0.25455064                0.02878986                0.02260161               -0.00798968
               3.00000000                3.00000000               39.00000000                0.01000000               -0.06953165               -0.06952954                0.26295424                0.04753516                0.03199261                0.03199927
               4.00000000                3.00000000               39.00000000                0.01197052               -0.07588043               -0.05968870                0.27232679                0.05939875                0.04033069                0.07368161
               5.00000000                3.00000000               39.00000000                0.02055051               -0.08454396               -0.06078291                0.28189198                0.05492640                0.01983685                0.08249955
               6.00000000                3.00000000               39.00000000                0.04909295               -0.09150573               -0.06582772                0.28783771                0.03989655               -0.01123041                0.07970123
               7.00000000                3.00000000               39.00000000                0.08325791               -0.09442769               -0.07227201                0.29248684                0.03055552               -0.01726962                0.07501086
               8.00000000                3.00000000               39.00000000                0.12399594               -0.09535653               -0.07919488                0.29759277                0.02756350               -0.01220005                0.07047035
               9.00000000                3.00000000               39.00000000                0.17253360               -0.09336629               -0.08752292                0.30316141                0.01796978               -0.00604968                0.06684348
              10.00000000                3.00000000               39.00000000                0.60328122               -0.09149420               -0.09932587                0.30934300                0.00738148               -0.00236239                0.06377467
               0.00000000                4.00000000               39.00000000                0.54640447               -0.07489928               -0.07336739                0.24652748                0.00106265               -0.00001155               -0.00201139
               1.00000000                4.00000000               39.00000000                0.04146781               -0.07464885               -0.07647575                0.25286652                0.00171734               -0.00052582               -0.00317944
               2.00000000                4.00000000               39.00000000                0.01000000               -0.06226825               -0.08876857                0.25908847                0.02936674                0.04214185               -0.01467501
               3.00000000                4.00000000               39.00000000                0.01197090               -0.05968718               -0.07588225                0.27233456                0.05940155                0.07368038                0.04032542
               4.00000000                4.00000000               39.00000000                0.02051231               -0.07790755               -0.07790921                0.28335318                0.03405058                0.03810129                0.03810274
               5.00000000                4.00000000               39.00000000                0.04899856               -0.08882230               -0.08593499                0.29057992                0.02207025                0.00487203                0.01950362
               6.00000000                4.00000000               39.00000000                0.08303805               -0.09173252               -0.09051372                0.29626116                0.01762981               -0.00595655                0.02074258
               7.00000000                4.00000000               39.00000000                0.12351895               -0.09291860               -0.09083567                0.30182409                0.01686555               -0.00652806                0.02932062
               8.00000000                4.00000000               39.00000000                0.17155050               -0.09357932               -0.09245929                0.30747054                0.01644547               -0.00513252                0.03485395
               9.00000000                4.00000000               39.00000000                0.22853534               -0.09471304               -0.09552758                0.31331885                0.01191068               -0.00250634                0.03766651
              10.00000000                4.00000000               39.00000000                0.63402182               -0.09570537               -0.09289969                0.31944201                0.00523535               -0.00103665                0.03667675
               0.00000000                5.00000000               39.00000000                0.58439692               -0.07682191               -0.07584089                0.25290358                0.00109170               -0.00000445               -0.00178766
               1.00000000                5.00000000               39.00000000                0.09202174               -0.07738333               -0.07771748                0.25917128                0.00161678               -0.00097882               -0.00292809
               2.00000000                5.00000000               39.00000000                0.01000001               -0.05930430               -0.07969797                0.26525840                0.03681834                0.06382255               -0.00373073
               3.00000000                5.00000000               39.00000000                0.02055088               -0.06077886               -0.08454797                0.28191026                0.05491903                0.08249301                0.01982627
               4.00000000                5.00000000               39.00000000                0.04899888               -0.08593491               -0.08882489                0.29058788                0.02206892                0.01951074                0.00486941
               5.00000000                5.00000000               39.00000000                0.08304133               -0.09165876               -0.09165921                0.29701688                0.01537905                0.00296131                0.00295521
               6.00000000                5.00000000               39.00000000                0.12352652               -0.09275685               -0.09345529                0.30309824                0.01220977               -0.00031105                0.00750004
               7.00000000                5.00000000               39.00000000                0.17156262               -0.09355874               -0.09519734                0.30904661                0.01007300               -0.00146627                0.01134799
               8.00000000                5.00000000               39.00000000                0.22854602               -0.09454106               -0.09697913                0.31498211                0.00802050               -0.00142752                0.01408328
               9.00000000                5.00000000               39.00000000                0.29625672               -0.09643778               -0.09767370                0.32097642                0.00475001               -0.00070540                0.01536993
              10.00000000                5.00000000               39.00000000                0.67135301               -0.09773881               -0.09460195                0.32706809                0.00186500               -0.00030818                0.01487360
               0.00000000                6.00000000               39.00000000                0.63226842               -0.07873452               -0.07811157                0.25930230                0.00111461               -0.00000622               -0.00142789
               1.00000000                6.00000000               39.00000000                0.15579311               -0.07942810               -0.07922660                0.26550060                0.00167546               -0.00040128               -0.00242007
               2.00000000                6.00000000               39.00000000                0.02637834               -0.06177732               -0.08056290                0.27160815                0.03346696                0.06291188               -0.00194374
               3.00000000                6.00000000               39.00000000                0.04909565               -0.06582429               -0.09150588                0.28783825                0.03988791                0.07969579               -0.01122559
               4.00000000                6.00000000               39.00000000                0.08304087               -0.09051084               -0.09173123                0.29625577                0.01762709                0.02074406               -0.00595467
               5.00000000                6.00000000               39.00000000                0.12352706               -0.09345407               -0.09275661                0.30309568                0.01220964                0.00750176               -0.00031319
               6.00000000                6.00000000               39.00000000                0.17156988               -0.09449563               -0.09449583                0.30943524                0.00835715                0.00287076                0.00286774
               7.00000000                6.00000000               39.00000000                0.22856408               -0.09534881               -0.09646616                0.31556514                0.00565386                0.00088769                0.00487785
               8.00000000                6.00000000               39.00000000                0.29628692               -0.09653049               -0.09816150                0.32162004                0.00355669                0.00014675                0.00610326
               9.00000000                6.00000000               39.00000000                0.37701752               -0.09839777               -0.09891851                0.32766603                0.00173301                0.00000166                0.00659667
              10.00000000                6.00000000               39.00000000                0.71591519               -0.09954299               -0.09800639                0.33373689                0.00017644               -0.00003224                0.00636822
               0.00000000                7.00000000               39.00000000                0.69102288               -0.08063706               -0.08016647                0.26572960                0.00111319               -0.00000372               -0.00098435
               1.00000000                7.00000000               39.00000000                0.23473235               -0.08128882               -0.08103586                0.27186663                0.00143249                0.00030531               -0.00176722
               2.00000000                7.00000000               39.00000000                0.05984290               -0.06957174               -0.08255144                0.27802066                0.02781506                0.05326071               -0.00115941
               3.00000000                7.00000000               39.00000000                0.08326320               -0.07226902               -0.09442554                0.29248062                0.03055045                0.07500511               -0.01726717
               4.00000000                7.00000000               39.00000000                0.12352279               -0.09083289               -0.09291663                0.30181800                0.01686299                0.02931770               -0.00652844
               5.00000000                7.00000000               39.00000000                0.17156497               -0.09519585               -0.09355781                0.30904389                0.01007161                0.01134759               -0.00146645
               6.00000000                7.00000000               39.00000000                0.22856542               -0.09646561               -0.09534848                0.31556429                0.00565369                0.00487929                0.00088614
               7.00000000                7.00000000               39.00000000                0.29629728               -0.09736766               -0.09736769                0.32179192                0.00296295                0.00208130                0.00208005
               8.00000000                7.00000000               39.00000000                0.37703717               -0.09859259               -0.09914139                0.32789702                0.00135968                0.00083218                0.00268212
               9.00000000                7.00000000               39.00000000                0.47375326               -0.10029927               -0.10039202                0.33396035                0.00048458                0.00027986                0.00289469
              10.00000000                7.00000000               39.00000000                0.76938071               -0.10127855               -0.10096321                0.34002037               -0.00054593                0.00007411                0.00281942
               0.00000000                8.00000000               39.00000000                0.76192477               -0.08253878               -0.08201351                0.27218661                0.00106143                0.00002552               -0.00052338
               1.00000000                8.00000000               39.00000000                0.33140092               -0.08318289               -0.08311610                0.27827447                0.00097387                0.00089336               -0.00110444
               2.00000000                8.00000000               39.00000000                0.10192661               -0.07675366               -0.08486792                0.28446943                0.02178671                0.04593630               -0.00067096
               3.00000000                8.00000000               39.00000000                0.12400188               -0.07919260               -0.09535382                0.29758589                0.02755831                0.07046103               -0.01220047
               4.00000000                8.00000000               39.00000000                0.17155578               -0.09245676               -0.09357774                0.30746558                0.01644282                0.03485114               -0.00513471
               5.00000000                8.00000000               39.00000000                0.22855132               -0.09697717               -0.09453958                0.31497681                0.00801934                0.01408232               -0.00142857
               6.00000000                8.00000000               39.00000000                0.29628960               -0.09816026               -0.09652946                0.32161626                0.00355650                0.00610376                0.00014566
               7.00000000                8.00000000               39.00000000                0.37703891               -0.09914096               -0.09859213                0.32789561                0.00135975                0.00268306                0.00083121
               8.00000000                8.00000000               39.00000000                0.47376196               -0.10045782               -0.10045775                0.33402246                0.00032694                0.00112698                0.00112663
               9.00000000                8.00000000               39.00000000                0.59037381               -0.10210921               -0.10206903                0.34009045               -0.00001458                0.00038443                0.00122047
              10.00000000                8.00000000               39.00000000                0.83400091               -0.10300990               -0.10344430                0.34614478               -0.00085079                0.00011106                0.00120779
               0.00000000                9.00000000               39.00000000                0.84656988               -0.08445666               -0.08372246                0.27867029                0.00101402                0.00009006               -0.00014131
               1.00000000                9.00000000               39.00000000                0.44915115               -0.08517049               -0.08527823                0.28471984                0.00054421                0.00134935               -0.00053619
               2.00000000                9.00000000               39.00000000                0.15499036               -0.08348698               -0.08694687                0.29094426                0.01657129                0.04100085               -0.00032261
               3.00000000                9.00000000               39.00000000                0.17254018               -0.08752061               -0.09336356                0.30315346                0.01796610                0.06683066               -0.00604916
               4.00000000                9.00000000               39.00000000                0.22854167               -0.09552489               -0.09471091                0.31331185                0.01190906                0.03766205               -0.00250854
               5.00000000                9.00000000               39.00000000                0.29626295               -0.09767171               -0.09643599                0.32097057                0.00474981                0.01536960               -0.00070680
               6.00000000                9.00000000               39.00000000                0.37702146               -0.09891713               -0.09839634                0.32766141                0.00173281                0.00659696                0.00000074
               7.00000000                9.00000000               39.00000000                0.47375563               -0.10039124               -0.10029853                0.33395798                0.00048445                0.00289555                0.00027883
               8.00000000                9.00000000               39.00000000                0.59037588               -0.10206867               -0.10210889                0.34008932               -0.00001465                0.00122086                0.00038406
               9.00000000                9.00000000               39.00000000                0.73214075               -0.10384019               -0.10384022                0.34615660               -0.00011060                0.00041343                0.00041334
              10.00000000                9.00000000               39.00000000                0.91282072               -0.10473645               -0.10559269                0.35220837               -0.00096548                0.00012027                0.00041425
               0.00000000               10.00000000               39.00000000                0.95329145               -0.08662280               -0.08455688                0.28515934                0.00004369                0.00029673                0.00004981
               1.00000000               10.00000000               39.00000000                0.76611836               -0.08804975               -0.08634109                0.29119855               -0.00041309                0.00174550               -0.00024856
               2.00000000               10.00000000               39.00000000                0.59611700               -0.09757066               -0.08785095                0.29745548                0.01391831                0.03946832               -0.00013271
               3.00000000               10.00000000               39.00000000                0.60328525               -0.09932302               -0.09149145                0.30933365                0.00737960                0.06375990               -0.00236218
               4.00000000               10.00000000               39.00000000                0.63402609               -0.09289821               -0.09570272                0.31943318                0.00523409                0.03667096               -0.00103843
               5.00000000               10.00000000               39.00000000                0.67135625               -0.09460044               -0.09773700                0.32706180                0.00186463                0.01487325               -0.00030923
               6.00000000               10.00000000               39.00000000                0.71591838               -0.09800503               -0.09954150                0.33373174                0.00017604                0.00636818               -0.00003298
               7.00000000               10.00000000               39.00000000                0.76938313               -0.10096220               -0.10127772                0.34001692               -0.00054636                0.00281983                0.00007325
               8.00000000               10.00000000               39.00000000                0.83400241               -0.10344357               -0.10300946                0.34614235               -0.00085102                0.00120788                0.00011065
               9.00000000               10.00000000               39.00000000                0.91282110               -0.10559222               -0.10473629                0.35220695               -0.00096566                0.00041398                0.00012015
              10.00000000               10.00000000               39.00000000                0.98228021               -0.10659754               -0.10659783                0.35825774               -0.00195516                0.00012169                0.00012193
               0.00000000                0.00000000               40.00000000                0.74983822               -0.06690196               -0.06690179                0.22131697                0.00222019               -0.00021271               -0.00021265
               1.00000000                0.00000000               40.00000000                0.49514038               -0.06673491               -0.06969983                0.22773318                0.00221570               -0.00107254               -0.00014647
               2.00000000                0.00000000               40.00000000                0.49727319               -0.06796012               -0.07103563                0.23405548                0.00101391               -0.00197841               -0.00004651
               3.00000000                0.00000000               40.00000000                0.51751635               -0.07072271               -0.07303375                0.24035483                0.00107407               -0.00217489               -0.00003467
               4.00000000                0.00000000               40.00000000                0.54640977               -0.07339083               -0.07493035                0.24665481                0.00106651               -0.00211339               -0.00001459
               5.00000000                0.00000000               40.00000000                0.58439880               -0.07588115               -0.07683657                0.25296672                0.00109700               -0.00187060               -0.00000658
               6.00000000                0.00000000               40.00000000                0.63226111               -0.07815250               -0.07873194                0.25930219                0.00112084               -0.00148685               -0.00000831
               7.00000000                0.00000000               40.00000000                0.69100204               -0.08019291               -0.08061684                0.26566903                0.00111842               -0.00101622               -0.00000565
               8.00000000                0.00000000               40.00000000                0.76188827               -0.08201213               -0.08250066                0.27206822                0.00106261               -0.00052800                0.00002551
               9.00000000                0.00000000               40.00000000                0.84650619               -0.08368673               -0.08440300                0.27849670                0.00100912               -0.00012916                0.00009415
              10.00000000                0.00000000               40.00000000                0.95325186               -0.08450371               -0.08656004                0.28493466                0.00003638                0.00006768                0.00032649
               0.00000000                1.00000000               40.00000000                0.49514049               -0.06969984               -0.06673470                0.22773245                0.00221587               -0.00014695               -0.00107174
               1.00000000                1.00000000               40.00000000                0.01000001               -0.07187346               -0.07187349                0.23415201                0.00367340               -0.00113287               -0.00113136
               2.00000000                1.00000000               40.00000000                0.01000000               -0.07459601               -0.06855065                0.24045964                0.01060191               -0.00265507                0.00490609
               3.00000000                1.00000000               40.00000000                0.01000001               -0.07557268               -0.06599689                0.24671547                0.01140487               -0.00331138                0.01036546
               4.00000000                1.00000000               40.00000000                0.04147364               -0.07652690               -0.07459822                0.25295820                0.00188762               -0.00341126               -0.00058132
               5.00000000                1.00000000               40.00000000                0.09201961               -0.07770870               -0.07736827                0.25920704                0.00176841               -0.00314416               -0.00107075
               6.00000000                1.00000000               40.00000000                0.15578133               -0.07917751               -0.07941117                0.26548120                0.00181305               -0.00260204               -0.00044579
               7.00000000                1.00000000               40.00000000                0.23470477               -0.08096746               -0.08125515                0.27179415                0.00154064               -0.00190376                0.00031614
               8.00000000                1.00000000               40.00000000                0.33135442               -0.08304577               -0.08313106                0.27815046                0.00104306               -0.00119404                0.00095289
               9.00000000                1.00000000               40.00000000                0.44906659               -0.08521105               -0.08510535                0.28454628                0.00057972               -0.00058451                0.00144699
              10.00000000                1.00000000               40.00000000                0.76606452               -0.08627447               -0.08801689                0.29097576               -0.00038184               -0.00027443                0.00188967
               0.00000000                2.00000000               40.00000000                0.49727513               -0.07103593               -0.06795978                0.23405452                0.00101384               -0.00004662               -0.00197783
               1.00000000                2.00000000               40.00000000                0.01000000               -0.06855078               -0.07459597                0.24045996                0.01060222                0.00490480               -0.00265365
               2.00000000                2.00000000               40.00000000                0.01000001               -0.07247836               -0.07247779                0.24764866                0.03211624                0.00920238                0.00920608
               3.00000000                2.00000000               40.00000000                0.01000000               -0.08895509               -0.06258836                0.25466904                0.03050893               -0.00863824                0.02447691
               4.00000000                2.00000000               40.00000000                0.01000000               -0.08936893               -0.06144904                0.25916884                0.03114519               -0.01589906                0.04555465
               5.00000000                2.00000000               40.00000000                0.01000001               -0.07967643               -0.05821379                0.26527504                0.03901346               -0.00405549                0.06895115
               6.00000000                2.00000000               40.00000000                0.02637484               -0.08046814               -0.06067105                0.27157528                0.03548827               -0.00213177                0.06792687
               7.00000000                2.00000000               40.00000000                0.05983670               -0.08245081               -0.06873748                0.27794332                0.02951412               -0.00128744                0.05748177
               8.00000000                2.00000000               40.00000000                0.10191526               -0.08478571               -0.07616488                0.28434570                0.02312971               -0.00075779                0.04955959
               9.00000000                2.00000000               40.00000000                0.15496869               -0.08687008               -0.08312769                0.29077601                0.01759508               -0.00037154                0.04423032
              10.00000000                2.00000000               40.00000000                0.59610108               -0.08776817               -0.09790581                0.29723675                0.01482108               -0.00015441                0.04258032
               0.00000000                3.00000000               40.00000000                0.51751733               -0.07303315               -0.07072164                0.24035165                0.00107354               -0.00003459               -0.00217556
               1.00000000                3.00000000               40.00000000                0.01000001               -0.06599608               -0.07557186                0.24671349                0.01140610                0.01036584               -0.00331149
               2.00000000                3.00000000               40.00000000                0.01000000               -0.06258783               -0.08895480                0.25466687                0.03050911                0.02447449               -0.00863967
               3.00000000                3.00000000               40.00000000                0.01000000               -0.06904828               -0.06904796                0.26305438                0.05023505                0.03462470                0.03463406
               4.00000000                3.00000000               40.00000000                0.01196991               -0.07555205               -0.05857161                0.27242896                0.06278184                0.04358801                0.07967736
               5.00000000                3.00000000               40.00000000                0.02054993               -0.08455957               -0.05959942                0.28202196                0.05811537                0.02139072                0.08916531
               6.00000000                3.00000000               40.00000000                0.04909337               -0.09184135               -0.06477604                0.28795752                0.04231014               -0.01217566                0.08610482
               7.00000000                3.00000000               40.00000000                0.08326100               -0.09485354               -0.07141661                0.29255578                0.03245182               -0.01869219                0.08098971
               8.00000000                3.00000000               40.00000000                0.12399933               -0.09575685               -0.07855686                0.29761861                0.02927424               -0.01321136                0.07604366
               9.00000000                3.00000000               40.00000000                0.17253819               -0.09356921               -0.08718549                0.30314348                0.01908814               -0.00655263                0.07209690
              10.00000000                3.00000000               40.00000000                0.60328322               -0.09154401               -0.09951702                0.30928485                0.00791432               -0.00255642                0.06873796
               0.00000000                4.00000000               40.00000000                0.54641297               -0.07492860               -0.07338883                0.24664864                0.00106619               -0.00001450               -0.00211383
               1.00000000                4.00000000               40.00000000                0.04147577               -0.07459710               -0.07652515                0.25295318                0.00188773               -0.00058743               -0.00341110
               2.00000000                4.00000000               40.00000000                0.01000000               -0.06144586               -0.08936829                0.25917212                0.03114496                0.04555903               -0.01589517
               3.00000000                4.00000000               40.00000000                0.01197134               -0.05856740               -0.07555513                0.27242359                0.06278269                0.07967973                0.04360097
               4.00000000                4.00000000               40.00000000                0.02051227               -0.07757950               -0.07758118                0.28351638                0.03602723                0.04115556                0.04116357
               5.00000000                4.00000000               40.00000000                0.04899912               -0.08897059               -0.08592815                0.29073512                0.02334724                0.00522200                0.02107003
               6.00000000                4.00000000               40.00000000                0.08304083               -0.09194774               -0.09065732                0.29640085                0.01866084               -0.00647225                0.02240492
               7.00000000                4.00000000               40.00000000                0.12352201               -0.09310808               -0.09088292                0.30194630                0.01786577               -0.00709263                0.03164655
               8.00000000                4.00000000               40.00000000                0.17155591               -0.09371493               -0.09246086                0.30757363                0.01743213               -0.00557687                0.03760080
               9.00000000                4.00000000               40.00000000                0.22854250               -0.09482243               -0.09555097                0.31339783                0.01263837               -0.00272458                0.04060366
              10.00000000                4.00000000               40.00000000                0.63402586               -0.09582656               -0.09258564                0.31949650                0.00565210               -0.00112777                0.03949125
               0.00000000                5.00000000               40.00000000                0.58440108               -0.07683469               -0.07587904                0.25295992                0.00109698               -0.00000654               -0.00187075
               1.00000000                5.00000000               40.00000000                0.09202678               -0.07736664               -0.07770688                0.25920139                0.00176831               -0.00106708               -0.00314365
               2.00000000                5.00000000               40.00000000                0.01000001               -0.05820774               -0.07967384                0.26526790                0.03900936                0.06896417               -0.00404777
               3.00000000                5.00000000               40.00000000                0.02055282               -0.05959520               -0.08456280                0.28202176                0.05810937                0.08915872                0.02138198
               4.00000000                5.00000000               40.00000000                0.04900010               -0.08592957               -0.08897059                0.29073803                0.02334641                0.02105294                0.00521744
               5.00000000                5.00000000               40.00000000                0.08304309               -0.09185416               -0.09185410                0.29717042                0.01626089                0.00317234                0.00317395
               6.00000000                5.00000000               40.00000000                0.12352931               -0.09291092               -0.09364352                0.30324525                0.01291459               -0.00036960                0.00807945
               7.00000000                5.00000000               40.00000000                0.17156766               -0.09365810               -0.09537376                0.30918667                0.01066053               -0.00161688                0.01222952
               8.00000000                5.00000000               40.00000000                0.22855597               -0.09459695               -0.09713829                0.31511189                0.00849499               -0.00156760                0.01516919
               9.00000000                5.00000000               40.00000000                0.29626948               -0.09650459               -0.09774195                0.32109399                0.00503684               -0.00077651                0.01653770
              10.00000000                5.00000000               40.00000000                0.67135928               -0.09783230               -0.09433697                0.32717164                0.00205257               -0.00034087                0.01597404
               0.00000000                6.00000000               40.00000000                0.63226398               -0.07873006               -0.07815039                0.25929538                0.00112073               -0.00000822               -0.00148750
               1.00000000                6.00000000               40.00000000                0.15578860               -0.07940926               -0.07917570                0.26547554                0.00181411               -0.00044437               -0.00260202
               2.00000000                6.00000000               40.00000000                0.02637887               -0.06066783               -0.08046618                0.27156958                0.03548341                0.06792224               -0.00213426
               3.00000000                6.00000000               40.00000000                0.04909671               -0.06477235               -0.09183901                0.28794750                0.04229866                0.08609287               -0.01219691
               4.00000000                6.00000000               40.00000000                0.08304225               -0.09065563               -0.09194638                0.29639714                0.01865863                0.02240267               -0.00647840
               5.00000000                6.00000000               40.00000000                0.12353028               -0.09364313               -0.09291093                0.30324545                0.01291447                0.00808340               -0.00037136
               6.00000000                6.00000000               40.00000000                0.17157547               -0.09463675               -0.09463682                0.30958401                0.00884034                0.00307017                0.00306858
               7.00000000                6.00000000               40.00000000                0.22857389               -0.09543577               -0.09660915                0.31571290                0.00598306                0.00092752                0.00523515
               8.00000000                6.00000000               40.00000000                0.29630157               -0.09658292               -0.09828842                0.32176176                0.00376598                0.00013221                0.00654635
               9.00000000                6.00000000               40.00000000                0.37703792               -0.09845601               -0.09896978                0.32780084                0.00183591               -0.00001214                0.00706388
              10.00000000                6.00000000               40.00000000                0.71592585               -0.09961674               -0.09787442                0.33386304                0.00024895               -0.00004171                0.00679919
               0.00000000                7.00000000               40.00000000                0.69100692               -0.08061428               -0.08019038                0.26566034                0.00111831               -0.00000552               -0.00101721
               1.00000000                7.00000000               40.00000000                0.23471164               -0.08125305               -0.08096528                0.27178681                0.00154120                0.00031683               -0.00190411
               2.00000000                7.00000000               40.00000000                0.05984123               -0.06873612               -0.08245025                0.27794301                0.02951063                0.05747153               -0.00128838
               3.00000000                7.00000000               40.00000000                0.08326526               -0.07141378               -0.09485001                0.29254544                0.03244429                0.08097847               -0.01869519
               4.00000000                7.00000000               40.00000000                0.12352605               -0.09087964               -0.09310592                0.30194061                0.01786167                0.03164760               -0.00709197
               5.00000000                7.00000000               40.00000000                0.17157045               -0.09537231               -0.09365708                0.30918338                0.01065946                0.01223148               -0.00161869
               6.00000000                7.00000000               40.00000000                0.22857587               -0.09660859               -0.09543534                0.31571149                0.00598311                0.00523633                0.00092592
               7.00000000                7.00000000               40.00000000                0.29631166               -0.09745976               -0.09745974                0.32194121                0.00313633                0.00221146                0.00221053
               8.00000000                7.00000000               40.00000000                0.37705922               -0.09865290               -0.09922493                0.32804571                0.00144003                0.00086908                0.00285274
               9.00000000                7.00000000               40.00000000                0.47378131               -0.10035511               -0.10043462                0.33410530                0.00051268                0.00028566                0.00307154
              10.00000000                7.00000000               40.00000000                0.76939800               -0.10133923               -0.10092156                0.34015847               -0.00052225                0.00007163                0.00297839
               0.00000000                8.00000000               40.00000000                0.76189244               -0.08249807               -0.08200931                0.27205877                0.00106250                0.00002568               -0.00052836
               1.00000000                8.00000000               40.00000000                0.33136392               -0.08312880               -0.08304335                0.27814237                0.00104268                0.00095300               -0.00119373
               2.00000000                8.00000000               40.00000000                0.10192171               -0.07616335               -0.08478437                0.28434132                0.02312706                0.04955081               -0.00075762
               3.00000000                8.00000000               40.00000000                0.12400467               -0.07855470               -0.09575441                0.29761138                0.02927036                0.07603217               -0.01320850
               4.00000000                8.00000000               40.00000000                0.17156086               -0.09245786               -0.09371273                0.30756717                0.01742898                0.03759784               -0.00557762
               5.00000000                8.00000000               40.00000000                0.22856047               -0.09713611               -0.09459531                0.31510618                0.00849361                0.01516947               -0.00156952
               6.00000000                8.00000000               40.00000000                0.29630426               -0.09828736               -0.09658205                0.32175883                0.00376560                0.00654757                0.00013036
               7.00000000                8.00000000               40.00000000                0.37706061               -0.09922452               -0.09865255                0.32804457                0.00143984                0.00285365                0.00086824
               8.00000000                8.00000000               40.00000000                0.47379295               -0.10051648               -0.10051656                0.33417290                0.00034666                0.00118185                0.00118126
               9.00000000                8.00000000               40.00000000                0.59041404               -0.10216080               -0.10211066                0.34023956               -0.00001565                0.00039599                0.00127664
              10.00000000                8.00000000               40.00000000                0.83402316               -0.10306168               -0.10345418                0.34628881               -0.00084741                0.00011155                0.00125674
               0.00000000                9.00000000               40.00000000                0.84651686               -0.08440011               -0.08368362                0.27848628                0.00100884                0.00009431               -0.00012863
               1.00000000                9.00000000               40.00000000                0.44908187               -0.08510264               -0.08520832                0.28453701                0.00057953                0.00144696               -0.00058340
               2.00000000                9.00000000               40.00000000                0.15497560               -0.08312556               -0.08686770                0.29076808                0.01759297                0.04422078               -0.00037068
               3.00000000                9.00000000               40.00000000                0.17254491               -0.08718331               -0.09356698                0.30313652                0.01908606                0.07208310               -0.00655167
               4.00000000                9.00000000               40.00000000                0.22854788               -0.09554854               -0.09482069                0.31339240                0.01263681                0.04059854               -0.00272542
               5.00000000                9.00000000               40.00000000                0.29627574               -0.09773997               -0.09650286                0.32108830                0.00503588                0.01653726               -0.00077729
               6.00000000                9.00000000               40.00000000                0.37704185               -0.09896845               -0.09845492                0.32779720                0.00183540                0.00706486               -0.00001308
               7.00000000                9.00000000               40.00000000                0.47378558               -0.10043378               -0.10035445                0.33410290                0.00051242                0.00307226                0.00028544
               8.00000000                9.00000000               40.00000000                0.59041635               -0.10211014               -0.10216045                0.34023807               -0.00001572                0.00127662                0.00039580
               9.00000000                9.00000000               40.00000000                0.73219478               -0.10388368               -0.10388374                0.34630553               -0.00011756                0.00042523                0.00042522
              10.00000000                9.00000000               40.00000000                0.91284825               -0.10478128               -0.10562678                0.35235284               -0.00096762                0.00012229                0.00042378
               0.00000000               10.00000000               40.00000000                0.95325722               -0.08655650               -0.08450036                0.28492254                0.00003584                0.00032628                0.00006830
               1.00000000               10.00000000               40.00000000                0.76607156               -0.08801352               -0.08627150                0.29096478               -0.00038213                0.00188882               -0.00027331
               2.00000000               10.00000000               40.00000000                0.59610583               -0.09790213               -0.08776560                0.29722731                0.01481898                0.04256913               -0.00015360
               3.00000000               10.00000000               40.00000000                0.60328730               -0.09951440               -0.09154171                0.30927684                0.00791295                0.06872277               -0.00255661
               4.00000000               10.00000000               40.00000000                0.63403002               -0.09258447               -0.09582504                0.31949092                0.00565103                0.03948552               -0.00112834
               5.00000000               10.00000000               40.00000000                0.67136285               -0.09433560               -0.09783055                0.32716554                0.00205198                0.01597298               -0.00034105
               6.00000000               10.00000000               40.00000000                0.71592872               -0.09787311               -0.09961556                0.33385845                0.00024834                0.00679942               -0.00004208
               7.00000000               10.00000000               40.00000000                0.76939951               -0.10092045               -0.10133840                0.34015473               -0.00052255                0.00297846                0.00007182
               8.00000000               10.00000000               40.00000000                0.83402325               -0.10345326               -0.10306108                0.34628583               -0.00084761                0.00125589                0.00011170
               9.00000000               10.00000000               40.00000000                0.91284925               -0.10562626               -0.10478109                0.35235133               -0.00096783                0.00042319                0.00012221
              10.00000000               10.00000000               40.00000000                0.98229519               -0.10663803               -0.10663829                0.35839764               -0.00195507                0.00012387                0.00012409
               0.00000000                0.00000000               41.00000000                0.74987123               -0.06698435               -0.06698408                0.22170117                0.00221266               -0.00022621               -0.00022590
               1.00000000                0.00000000               41.00000000                0.49518346               -0.06673482               -0.06981408                0.22806233                0.00229431               -0.00113995               -0.00015613
               2.00000000                0.00000000               41.00000000                0.49729254               -0.06790183               -0.07109796                0.23432231                0.00101392               -0.00209872               -0.00005131
               3.00000000                0.00000000               41.00000000                0.51753487               -0.07070900               -0.07308355                0.24055370                0.00107729               -0.00230237               -0.00003853
               4.00000000                0.00000000               41.00000000                0.54642365               -0.07341111               -0.07496107                0.24678354                0.00106985               -0.00223309               -0.00001722
               5.00000000                0.00000000               41.00000000                0.58440366               -0.07592065               -0.07684997                0.25302782                0.00110246               -0.00197281               -0.00000856
               6.00000000                0.00000000               41.00000000                0.63225681               -0.07819413               -0.07872699                0.25929669                0.00112720               -0.00156314               -0.00001029
               7.00000000                0.00000000               41.00000000                0.69098554               -0.08021945               -0.08059230                0.26559789                0.00112365               -0.00106255               -0.00000728
               8.00000000                0.00000000               41.00000000                0.76185443               -0.08200872               -0.08245632                0.27193400                0.00106365               -0.00054343                0.00002599
               9.00000000                0.00000000               41.00000000                0.84645489               -0.08364607               -0.08434171                0.27830226                0.00100373               -0.00012244                0.00009891
              10.00000000                0.00000000               41.00000000                0.95321540               -0.08444405               -0.08648883                0.28468437                0.00002925                0.00008306                0.00035346
               0.00000000                1.00000000               41.00000000                0.49518707               -0.06981372               -0.06673420                0.22806058                0.00229377               -0.00015688               -0.00113900
               1.00000000                1.00000000               41.00000000                0.01000001               -0.07206237               -0.07206222                0.23442594                0.00392167               -0.00120754               -0.00120571
               2.00000000                1.00000000               41.00000000                0.01000000               -0.07482004               -0.06841416                0.24067542                0.01126647               -0.00283203                0.00529154
               3.00000000                1.00000000               41.00000000                0.01000001               -0.07571031               -0.06560202                0.24686816                0.01213287               -0.00353474                0.01115877
               4.00000000                1.00000000               41.00000000                0.04148457               -0.07658047               -0.07454014                0.25304757                0.00206872               -0.00364494               -0.00062605
               5.00000000                1.00000000               41.00000000                0.09202225               -0.07769747               -0.07734950                0.25923642                0.00192990               -0.00336316               -0.00115713
               6.00000000                1.00000000               41.00000000                0.15577482               -0.07912282               -0.07938995                0.26545147                0.00196106               -0.00278585               -0.00048809
               7.00000000                1.00000000               41.00000000                0.23468292               -0.08089125               -0.08121536                0.27170583                0.00165797               -0.00204115                0.00033226
               8.00000000                1.00000000               41.00000000                0.33130830               -0.08296674               -0.08307137                0.27800513                0.00111826               -0.00128254                0.00101400
               9.00000000                1.00000000               41.00000000                0.44898824               -0.08513485               -0.08503133                0.28434640                0.00061835               -0.00062905                0.00154709
              10.00000000                1.00000000               41.00000000                0.76601354               -0.08619862               -0.08797797                0.29072199               -0.00034756               -0.00029601                0.00203199
               0.00000000                2.00000000               41.00000000                0.49729647               -0.07109669               -0.06790073                0.23431837                0.00101371               -0.00005147               -0.00209835
               1.00000000                2.00000000               41.00000000                0.01000000               -0.06841375               -0.07481920                0.24067265                0.01126631                0.00529017               -0.00283072
               2.00000000                2.00000000               41.00000000                0.01000001               -0.07243543               -0.07243369                0.24781855                0.03404738                0.00992695                0.00992932
               3.00000000                2.00000000               41.00000000                0.01000000               -0.08971682               -0.06186977                0.25479878                0.03239074               -0.00928101                0.02636662
               4.00000000                2.00000000               41.00000000                0.01000000               -0.09002657               -0.06054439                0.25922858                0.03308957               -0.01711596                0.04901985
               5.00000000                2.00000000               41.00000000                0.01000001               -0.07965134               -0.05700530                0.26528504                0.04140717               -0.00437628                0.07417268
               6.00000000                2.00000000               41.00000000                0.02637567               -0.08036294               -0.05945154                0.27152754                0.03769089               -0.00230726                0.07304441
               7.00000000                2.00000000               41.00000000                0.05983577               -0.08233876               -0.06782286                0.27784979                0.03136537               -0.00140343                0.06178993
               8.00000000                2.00000000               41.00000000                0.10191067               -0.08469287               -0.07552293                0.28419973                0.02459091               -0.00083533                0.05326911
               9.00000000                2.00000000               41.00000000                0.15495263               -0.08678265               -0.08273970                0.29058028                0.01870834               -0.00041010                0.04754017
              10.00000000                2.00000000               41.00000000                0.59608867               -0.08767434               -0.09827589                0.29698595                0.01580519               -0.00017018                0.04577143
               0.00000000                3.00000000               41.00000000                0.51753484               -0.07308271               -0.07070788                0.24055005                0.00107740               -0.00003877               -0.00230327
               1.00000000                3.00000000               41.00000000                0.01000001               -0.06560131               -0.07570944                0.24686574                0.01213374                0.01115828               -0.00353515
               2.00000000                3.00000000               41.00000000                0.01000000               -0.06186901               -0.08971678                0.25479571                0.03238913                0.02636530               -0.00927515
               3.00000000                3.00000000               41.00000000                0.01000000               -0.06851897               -0.06852070                0.26316827                0.05319397                0.03728680                0.03728896
               4.00000000                3.00000000               41.00000000                0.01197034               -0.07520410               -0.05734361                0.27256291                0.06649269                0.04690441                0.08574849
               5.00000000                3.00000000               41.00000000                0.02055124               -0.08458877               -0.05830012                0.28219105                0.06161204                0.02298811                0.09592469
               6.00000000                3.00000000               41.00000000                0.04909634               -0.09221160               -0.06362368                0.28809132                0.04494309               -0.01314154                0.09260515
               7.00000000                3.00000000               41.00000000                0.08326291               -0.09532117               -0.07048493                0.29264516                0.03451608               -0.02013844                0.08707867
               8.00000000                3.00000000               41.00000000                0.12400336               -0.09619471               -0.07786853                0.29765635                0.03113876               -0.01422807                0.08174607
               9.00000000                3.00000000               41.00000000                0.17254263               -0.09378643               -0.08683081                0.30312848                0.02030699               -0.00706011                0.07749050
              10.00000000                3.00000000               41.00000000                0.60328577               -0.09159176               -0.09974326                0.30922466                0.00849496               -0.00275365                0.07386446
               0.00000000                4.00000000               41.00000000                0.54642576               -0.07496013               -0.07340972                0.24677916                0.00106963               -0.00001708               -0.00223358
               1.00000000                4.00000000               41.00000000                0.04148729               -0.07454002               -0.07657934                0.25304439                0.00206815               -0.00062079               -0.00364487
               2.00000000                4.00000000               41.00000000                0.01000000               -0.06054225               -0.09002725                0.25924304                0.03308742                0.04901874               -0.01711723
               3.00000000                4.00000000               41.00000000                0.01197084               -0.05733837               -0.07520522                0.27255523                0.06649065                0.08574088                0.04689926
               4.00000000                4.00000000               41.00000000                0.02051423               -0.07722454               -0.07722681                0.28369533                0.03819280                0.04426445                0.04426399
               5.00000000                4.00000000               41.00000000                0.04899991               -0.08914194               -0.08593096                0.29093919                0.02475161                0.00557156                0.02264004
               6.00000000                4.00000000               41.00000000                0.08304265               -0.09219151               -0.09082377                0.29657962                0.01979209               -0.00699332                0.02407817
               7.00000000                4.00000000               41.00000000                0.12352643               -0.09332032               -0.09094166                0.30210037                0.01895763               -0.00765481                0.03401787
               8.00000000                4.00000000               41.00000000                0.17156281               -0.09386493               -0.09247120                0.30769924                0.01850917               -0.00602010                0.04040460
               9.00000000                4.00000000               41.00000000                0.22855148               -0.09494168               -0.09558813                0.31349594                0.01343181               -0.00294266                0.04361871
              10.00000000                4.00000000               41.00000000                0.63403038               -0.09595804               -0.09225814                0.31956689                0.00610372               -0.00121864                0.04240728
               0.00000000                5.00000000               41.00000000                0.58440727               -0.07684830               -0.07591859                0.25302116                0.00110225               -0.00000855               -0.00197288
               1.00000000                5.00000000               41.00000000                0.09202756               -0.07734798               -0.07769567                0.25923089                0.00192948               -0.00115934               -0.00336265
               2.00000000                5.00000000               41.00000000                0.01000001               -0.05700196               -0.07964970                0.26527709                0.04140537                0.07416401               -0.00438343
               3.00000000                5.00000000               41.00000000                0.02055262               -0.05829629               -0.08458855                0.28217777                0.06160700                0.09592034                0.02297755
               4.00000000                5.00000000               41.00000000                0.04900109               -0.08592995               -0.08914106                0.29093463                0.02474860                0.02264426                0.00556845
               5.00000000                5.00000000               41.00000000                0.08304532               -0.09207670               -0.09207658                0.29736803                0.01722913                0.00339380                0.00339187
               6.00000000                5.00000000               41.00000000                0.12353363               -0.09308779               -0.09385913                0.30343370                0.01368801               -0.00042224                0.00867292
               7.00000000                5.00000000               41.00000000                0.17157510               -0.09377295               -0.09557457                0.30936218                0.01130431               -0.00176507                0.01312968
               8.00000000                5.00000000               41.00000000                0.22856650               -0.09466158               -0.09731947                0.31526897                0.00901383               -0.00170836                0.01628094
               9.00000000                5.00000000               41.00000000                0.29628458               -0.09657872               -0.09782408                0.32123283                0.00534905               -0.00084640                0.01774094
              10.00000000                5.00000000               41.00000000                0.67136787               -0.09793444               -0.09405696                0.32729161                0.00225571               -0.00037187                0.01712174
               0.00000000                6.00000000               41.00000000                0.63225917               -0.07872523               -0.07819182                0.25928958                0.00112710               -0.00001050               -0.00156378
               1.00000000                6.00000000               41.00000000                0.15578061               -0.07938828               -0.07912083                0.26544548                0.00196044               -0.00049059               -0.00278578
               2.00000000                6.00000000               41.00000000                0.02637860               -0.05944974               -0.08036122                0.27152167                0.03768750                0.07302921               -0.00230387
               3.00000000                6.00000000               41.00000000                0.04909825               -0.06362037               -0.09221133                0.28808815                0.04493677                0.09259896               -0.01314195
               4.00000000                6.00000000               41.00000000                0.08304450               -0.09082107               -0.09219043                0.29657805                0.01978897                0.02408604               -0.00699602
               5.00000000                6.00000000               41.00000000                0.12353454               -0.09385857               -0.09308748                0.30343407                0.01368754                0.00867549               -0.00042481
               6.00000000                6.00000000               41.00000000                0.17158270               -0.09479849               -0.09479870                0.30977109                0.00936958                0.00327672                0.00327487
               7.00000000                6.00000000               41.00000000                0.22858570               -0.09553596               -0.09677193                0.31589171                0.00634407                0.00097044                0.00560064
               8.00000000                6.00000000               41.00000000                0.29631788               -0.09664365               -0.09843276                0.32193044                0.00399541                0.00011971                0.00700494
               9.00000000                6.00000000               41.00000000                0.37705979               -0.09852147               -0.09903070                0.32795732                0.00194844               -0.00002510                0.00755282
              10.00000000                6.00000000               41.00000000                0.71593890               -0.09969820               -0.09773530                0.33400491                0.00032774               -0.00005098                0.00725776
               0.00000000                7.00000000               41.00000000                0.69099057               -0.08059036               -0.08021700                0.26559016                0.00112344               -0.00000718               -0.00106286
               1.00000000                7.00000000               41.00000000                0.23469433               -0.08121334               -0.08088917                0.27169912                0.00165751                0.00033452               -0.00204072
               2.00000000                7.00000000               41.00000000                0.05983993               -0.06782085               -0.08233669                0.27784084                0.03136171                0.06177860               -0.00139975
               3.00000000                7.00000000               41.00000000                0.08326741               -0.07048235               -0.09531919                0.29263854                0.03451164                0.08706655               -0.02013131
               4.00000000                7.00000000               41.00000000                0.12353097               -0.09093927               -0.09331864                0.30209491                0.01895536                0.03401933               -0.00765543
               5.00000000                7.00000000               41.00000000                0.17157672               -0.09557335               -0.09377202                0.30935943                0.01130311                0.01313068               -0.00176803
               6.00000000                7.00000000               41.00000000                0.22858754               -0.09677119               -0.09553568                0.31589000                0.00634346                0.00560255                0.00096844
               7.00000000                7.00000000               41.00000000                0.29632966               -0.09756448               -0.09756476                0.32211774                0.00332638                0.00234940                0.00234805
               8.00000000                7.00000000               41.00000000                0.37708381               -0.09872111               -0.09931949                0.32821636                0.00152791                0.00091086                0.00303384
               9.00000000                7.00000000               41.00000000                0.47381551               -0.10041696               -0.10048353                0.33426759                0.00054322                0.00029482                0.00326326
              10.00000000                7.00000000               41.00000000                0.76941605               -0.10140577               -0.10087777                0.34030910               -0.00049595                0.00007166                0.00315599
               0.00000000                8.00000000               41.00000000                0.76186332               -0.08245386               -0.08200590                0.27192487                0.00106336                0.00002606               -0.00054358
               1.00000000                8.00000000               41.00000000                0.33132045               -0.08306889               -0.08296430                0.27799696                0.00111815                0.00101494               -0.00128221
               2.00000000                8.00000000               41.00000000                0.10191627               -0.07552082               -0.08469043                0.28419047                0.02458832                0.05325942               -0.00083674
               3.00000000                8.00000000               41.00000000                0.12400993               -0.07786631               -0.09619125                0.29764669                0.03113438                0.08173292               -0.01422422
               4.00000000                8.00000000               41.00000000                0.17156750               -0.09246918               -0.09386309                0.30769360                0.01850643                0.04040138               -0.00602086
               5.00000000                8.00000000               41.00000000                0.22857009               -0.09731822               -0.09466050                0.31526614                0.00901252                0.01628086               -0.00170969
               6.00000000                8.00000000               41.00000000                0.29632129               -0.09843159               -0.09664284                0.32192737                0.00399456                0.00700698                0.00011858
               7.00000000                8.00000000               41.00000000                0.37708663               -0.09931865               -0.09872074                0.32821445                0.00152747                0.00303503                0.00090982
               8.00000000                8.00000000               41.00000000                0.47382684               -0.10058179               -0.10058195                0.33434059                0.00036798                0.00124372                0.00124335
               9.00000000                8.00000000               41.00000000                0.59045968               -0.10221658               -0.10215596                0.34040049               -0.00001728                0.00041219                0.00134131
              10.00000000                8.00000000               41.00000000                0.83404706               -0.10311669               -0.10346353                0.34643882               -0.00084311                0.00011496                0.00131486
               0.00000000                9.00000000               41.00000000                0.84646216               -0.08433879               -0.08364289                0.27829195                0.00100348                0.00009881               -0.00012341
               1.00000000                9.00000000               41.00000000                0.44900223               -0.08502845               -0.08513197                0.28433696                0.00061831                0.00154645               -0.00062970
               2.00000000                9.00000000               41.00000000                0.15495998               -0.08273758               -0.08677975                0.29057053                0.01870641                0.04753105               -0.00041117
               3.00000000                9.00000000               41.00000000                0.17254882               -0.08682897               -0.09378387                0.30312181                0.02030406                0.07747774               -0.00705881
               4.00000000                9.00000000               41.00000000                0.22855789               -0.09558614               -0.09493978                0.31349022                0.01342909                0.04361322               -0.00294317
               5.00000000                9.00000000               41.00000000                0.29629006               -0.09782258               -0.09657738                0.32122865                0.00534826                0.01773982               -0.00084658
               6.00000000                9.00000000               41.00000000                0.37706437               -0.09902939               -0.09852030                0.32795346                0.00194810                0.00755347               -0.00002557
               7.00000000                9.00000000               41.00000000                0.47381913               -0.10048237               -0.10041595                0.33426403                0.00054286                0.00326353                0.00029366
               8.00000000                9.00000000               41.00000000                0.59046179               -0.10215531               -0.10221601                0.34039849               -0.00001741                0.00134136                0.00041157
               9.00000000                9.00000000               41.00000000                0.73225064               -0.10392890               -0.10392890                0.34646012               -0.00012530                0.00044080                0.00044058
              10.00000000                9.00000000               41.00000000                0.91287736               -0.10482691               -0.10566004                0.35249697               -0.00096905                0.00012549                0.00043623
               0.00000000               10.00000000               41.00000000                0.95322097               -0.08648552               -0.08444072                0.28467292                0.00002895                0.00035334                0.00008174
               1.00000000               10.00000000               41.00000000                0.76602079               -0.08797470               -0.08619554                0.29071136               -0.00034747                0.00203113               -0.00029701
               2.00000000               10.00000000               41.00000000                0.59609337               -0.09827216               -0.08767105                0.29697529                0.01580278                0.04576196               -0.00017039
               3.00000000               10.00000000               41.00000000                0.60329001               -0.09974092               -0.09158998                0.30921872                0.00849315                0.07385113               -0.00275328
               4.00000000               10.00000000               41.00000000                0.63403381               -0.09225748               -0.09595595                0.31956036                0.00610199                0.04240088               -0.00121846
               5.00000000               10.00000000               41.00000000                0.67137087               -0.09405596               -0.09793275                0.32728573                0.00225500                0.01711954               -0.00037197
               6.00000000               10.00000000               41.00000000                0.71594139               -0.09773399               -0.09969683                0.33399992                0.00032751                0.00725696               -0.00005117
               7.00000000               10.00000000               41.00000000                0.76941770               -0.10087634               -0.10140445                0.34030414               -0.00049623                0.00315517                0.00007098
               8.00000000               10.00000000               41.00000000                0.83404804               -0.10346244               -0.10311578                0.34643519               -0.00084347                0.00131435                0.00011440
               9.00000000               10.00000000               41.00000000                0.91287721               -0.10565953               -0.10482660                0.35249531               -0.00096938                0.00043595                0.00012528
              10.00000000               10.00000000               41.00000000                0.98230907               -0.10667725               -0.10667749                0.35853152               -0.00195323                0.00012653                0.00012680
               0.00000000                0.00000000               42.00000000                0.74990494               -0.06707174               -0.06707154                0.22210979                0.00220455               -0.00024031               -0.00024068
               1.00000000                0.00000000               42.00000000                0.49523525               -0.06673333               -0.06993548                0.22841151                0.00237778               -0.00121112               -0.00016677
               2.00000000                0.00000000               42.00000000                0.49731973               -0.06783711               -0.07116269                0.23460335                0.00101363               -0.00223187               -0.00005543
               3.00000000                0.00000000               42.00000000                0.51755229               -0.07069224               -0.07313621                0.24076464                0.00108093               -0.00244920               -0.00004221
               4.00000000                0.00000000               42.00000000                0.54643484               -0.07343137               -0.07499415                0.24692176                0.00107307               -0.00237197               -0.00001923
               5.00000000                0.00000000               42.00000000                0.58441040               -0.07596147               -0.07686398                0.25309329                0.00110781               -0.00209187               -0.00001012
               6.00000000                0.00000000               42.00000000                0.63225144               -0.07823767               -0.07872154                0.25929188                0.00113385               -0.00165521               -0.00001205
               7.00000000                0.00000000               42.00000000                0.69096691               -0.08024812               -0.08056671                0.26552525                0.00112933               -0.00112202               -0.00000862
               8.00000000                0.00000000               42.00000000                0.76181662               -0.08200647               -0.08241028                0.27179603                0.00106463               -0.00057013                0.00002716
               9.00000000                0.00000000               42.00000000                0.84639151               -0.08360416               -0.08427703                0.27809956                0.00099755               -0.00012481                0.00010545
              10.00000000                0.00000000               42.00000000                0.95317628               -0.08438166               -0.08641288                0.28442092                0.00002228                0.00009129                0.00038000
               0.00000000                1.00000000               42.00000000                0.49523441               -0.06993523               -0.06673288                0.22841002                0.00237746               -0.00016647               -0.00121128
               1.00000000                1.00000000               42.00000000                0.01000001               -0.07226388               -0.07226384                0.23471687                0.00418753               -0.00128303               -0.00128312
               2.00000000                1.00000000               42.00000000                0.01000000               -0.07505907               -0.06826484                0.24090158                0.01198024               -0.00301378                0.00568022
               3.00000000                1.00000000               42.00000000                0.01000001               -0.07585785               -0.06517301                0.24702886                0.01291278               -0.00376597                0.01196831
               4.00000000                1.00000000               42.00000000                0.04149534               -0.07663865               -0.07447837                0.25314192                0.00225592               -0.00388376               -0.00067282
               5.00000000                1.00000000               42.00000000                0.09202792               -0.07768567               -0.07732852                0.25926509                0.00209962               -0.00358434               -0.00123562
               6.00000000                1.00000000               42.00000000                0.15576667               -0.07906411               -0.07936650                0.26541697                0.00211680               -0.00297154               -0.00052736
               7.00000000                1.00000000               42.00000000                0.23466183               -0.08080983               -0.08117207                0.27160999                0.00178203               -0.00217900                0.00035210
               8.00000000                1.00000000               42.00000000                0.33126248               -0.08288253               -0.08300741                0.27784990                0.00119860               -0.00137097                0.00108300
               9.00000000                1.00000000               42.00000000                0.44890567               -0.08505322               -0.08495190                0.28413184                0.00065996               -0.00067421                0.00165543
              10.00000000                1.00000000               42.00000000                0.76595818               -0.08611696               -0.08793597                0.29044846               -0.00030936               -0.00031831                0.00217847
               0.00000000                2.00000000               42.00000000                0.49732264               -0.07116176               -0.06783609                0.23459977                0.00101325               -0.00005526               -0.00223075
               1.00000000                2.00000000               42.00000000                0.01000000               -0.06826431               -0.07505834                0.24089927                0.01198021                0.00567986               -0.00301241
               2.00000000                2.00000000               42.00000000                0.01000001               -0.07238877               -0.07238882                0.24800053                0.03612862                0.01066122                0.01066155
               3.00000000                2.00000000               42.00000000                0.01000000               -0.09054371               -0.06109099                0.25494068                0.03441372               -0.00993603                0.02827816
               4.00000000                2.00000000               42.00000000                0.01000000               -0.09073800               -0.05956380                0.25928660                0.03518045               -0.01833488                0.05255384
               5.00000000                2.00000000               42.00000000                0.01000001               -0.07962229               -0.05569661                0.26527741                0.04398824               -0.00468158                0.07949291
               6.00000000                2.00000000               42.00000000                0.02637602               -0.08024899               -0.05813476                0.27147003                0.04006171               -0.00247721                0.07826243
               7.00000000                2.00000000               42.00000000                0.05983426               -0.08221673               -0.06683512                0.27773593                0.03335446               -0.00150570                0.06621658
               8.00000000                2.00000000               42.00000000                0.10190490               -0.08459197               -0.07483264                0.28403602                0.02616110               -0.00090012                0.05708874
               9.00000000                2.00000000               42.00000000                0.15493506               -0.08668720               -0.08232544                0.29036334                0.01990536               -0.00044357                0.05095750
              10.00000000                2.00000000               42.00000000                0.59607632               -0.08757126               -0.09867748                0.29670922                0.01686392               -0.00018303                0.04907267
               0.00000000                3.00000000               42.00000000                0.51755580               -0.07313466               -0.07069101                0.24075983                0.00108086               -0.00004211               -0.00244832
               1.00000000                3.00000000               42.00000000                0.01000001               -0.06517144               -0.07585686                0.24702525                0.01291214                0.01196687               -0.00376460
               2.00000000                3.00000000               42.00000000                0.01000000               -0.06109105               -0.09054325                0.25493984                0.03441342                0.02827670               -0.00992660
               3.00000000                3.00000000               42.00000000                0.01000000               -0.06795036               -0.06794888                0.26329787                0.05639480                0.03998751                0.03998926
               4.00000000                3.00000000               42.00000000                0.01197092               -0.07483096               -0.05601463                0.27270922                0.07050141                0.05027380                0.09191086
               5.00000000                3.00000000               42.00000000                0.02055114               -0.08462556               -0.05689640                0.28237879                0.06538129                0.02460423                0.10279801
               6.00000000                3.00000000               42.00000000                0.04909558               -0.09261952               -0.06238131                0.28826779                0.04777770               -0.01409939                0.09924091
               7.00000000                3.00000000               42.00000000                0.08326787               -0.09582835               -0.06948342                0.29275187                0.03673578               -0.02158270                0.09331293
               8.00000000                3.00000000               42.00000000                0.12400853               -0.09666434               -0.07713238                0.29770034                0.03313971               -0.01525897                0.08759889
               9.00000000                3.00000000               42.00000000                0.17254780               -0.09401786               -0.08645780                0.30311755                0.02161529               -0.00757029                0.08304696
              10.00000000                3.00000000               42.00000000                0.60328797               -0.09164074               -0.09999770                0.30916565                0.00911775               -0.00295062                0.07917881
               0.00000000                4.00000000               42.00000000                0.54643703               -0.07499295               -0.07343017                0.24691734                0.00107299               -0.00001938               -0.00237298
               1.00000000                4.00000000               42.00000000                0.04150026               -0.07447738               -0.07663768                0.25313870                0.00225543               -0.00066218               -0.00388433
               2.00000000                4.00000000               42.00000000                0.01000000               -0.05956076               -0.09073691                0.25927785                0.03518009                0.05255420               -0.01833321
               3.00000000                4.00000000               42.00000000                0.01197156               -0.05600989               -0.07483280                0.27271401                0.07049963                0.09190125                0.05027945
               4.00000000                4.00000000               42.00000000                0.02051437               -0.07684902               -0.07684997                0.28390461                0.04052616                0.04741968                0.04742171
               5.00000000                4.00000000               42.00000000                0.04900045               -0.08933481               -0.08594139                0.29119047                0.02626233                0.00595839                0.02425166
               6.00000000                4.00000000               42.00000000                0.08304551               -0.09246130               -0.09100799                0.29679798                0.02100905               -0.00751303                0.02580402
               7.00000000                4.00000000               42.00000000                0.12353031               -0.09355332               -0.09101212                0.30228507                0.02013455               -0.00822205                0.03643785
               8.00000000                4.00000000               42.00000000                0.17156889               -0.09402892               -0.09248949                0.30784908                0.01966716               -0.00646657                0.04328056
               9.00000000                4.00000000               42.00000000                0.22856106               -0.09507047               -0.09563685                0.31361173                0.01428277               -0.00316128                0.04672539
              10.00000000                4.00000000               42.00000000                0.63403507               -0.09609880               -0.09191791                0.31964993                0.00658626               -0.00130868                0.04543470
               0.00000000                5.00000000               42.00000000                0.58441370               -0.07686207               -0.07595964                0.25308666                0.00110747               -0.00001011               -0.00209246
               1.00000000                5.00000000               42.00000000                0.09203345               -0.07732696               -0.07768409                0.25925962                0.00209958               -0.00123551               -0.00358440
               2.00000000                5.00000000               42.00000000                0.01000001               -0.05569320               -0.07962134                0.26527590                0.04398599                0.07949569               -0.00469120
               3.00000000                5.00000000               42.00000000                0.02055375               -0.05689313               -0.08462814                0.28238481                0.06537674                0.10279618                0.02460256
               4.00000000                5.00000000               42.00000000                0.04900212               -0.08593981               -0.08933292                0.29117838                0.02625747                0.02424527                0.00595465
               5.00000000                5.00000000               42.00000000                0.08304776               -0.09232432               -0.09232428                0.29760729                0.01827130                0.00362032                0.00361973
               6.00000000                5.00000000               42.00000000                0.12353753               -0.09328453               -0.09409769                0.30365933                0.01452249               -0.00047236                0.00927688
               7.00000000                5.00000000               42.00000000                0.17158306               -0.09390080               -0.09579699                0.30956627                0.01199810               -0.00191162                0.01405010
               8.00000000                5.00000000               42.00000000                0.22857801               -0.09473459               -0.09752078                0.31545285                0.00957223               -0.00184743                0.01742507
               9.00000000                5.00000000               42.00000000                0.29629956               -0.09666079               -0.09791886                0.32139402                0.00568442               -0.00091687                0.01898721
              10.00000000                5.00000000               42.00000000                0.67137658               -0.09804567               -0.09376377                0.32742848                0.00247288               -0.00040385                0.01832343
               0.00000000                6.00000000               42.00000000                0.63225827               -0.07871900               -0.07823517                0.25928322                0.00113366               -0.00001219               -0.00165506
               1.00000000                6.00000000               42.00000000                0.15577393               -0.07936439               -0.07906192                0.26540943                0.00211594               -0.00052666               -0.00297085
               2.00000000                6.00000000               42.00000000                0.02637903               -0.05813195               -0.08024722                0.27146426                0.04005848                0.07825885               -0.00247819
               3.00000000                6.00000000               42.00000000                0.04909937               -0.06237913               -0.09261838                0.28826305                0.04777198                0.09923122               -0.01411171
               4.00000000                6.00000000               42.00000000                0.08304654               -0.09100699               -0.09246020                0.29679793                0.02100675                0.02580212               -0.00751819
               5.00000000                6.00000000               42.00000000                0.12354035               -0.09409646               -0.09328294                0.30365438                0.01452035                0.00928010               -0.00047492
               6.00000000                6.00000000               42.00000000                0.17159066               -0.09497785               -0.09497803                0.30998933                0.00994032                0.00348955                0.00348862
               7.00000000                6.00000000               42.00000000                0.22859861               -0.09564818               -0.09695183                0.31609851                0.00673265                0.00101897                0.00597908
               8.00000000                6.00000000               42.00000000                0.29633654               -0.09671215               -0.09859233                0.32212356                0.00424180                0.00011144                0.00748160
               9.00000000                6.00000000               42.00000000                0.37708584               -0.09859374               -0.09910014                0.32813368                0.00206902               -0.00003635                0.00806602
              10.00000000                6.00000000               42.00000000                0.71595264               -0.09978693               -0.09758970                0.33416165                0.00041257               -0.00005926                0.00774672
               0.00000000                7.00000000               42.00000000                0.69097238               -0.08056420               -0.08024539                0.26551651                0.00112919               -0.00000891               -0.00112302
               1.00000000                7.00000000               42.00000000                0.23466961               -0.08116961               -0.08080746                0.27160222                0.00178163                0.00034971               -0.00217953
               2.00000000                7.00000000               42.00000000                0.05983747               -0.06683363               -0.08221365                0.27772476                0.03335149                0.06620463               -0.00150716
               3.00000000                7.00000000               42.00000000                0.08327077               -0.06948160               -0.09582611                0.29274843                0.03672954                0.09330306               -0.02158921
               4.00000000                7.00000000               42.00000000                0.12353415               -0.09100978               -0.09355226                0.30228061                0.02013222                0.03644010               -0.00822339
               5.00000000                7.00000000               42.00000000                0.17158490               -0.09579583               -0.09390009                0.30956507                0.01199715                0.01405333               -0.00191474
               6.00000000                7.00000000               42.00000000                0.22860007               -0.09695115               -0.09564768                0.31609702                0.00673164                0.00598069                0.00101661
               7.00000000                7.00000000               42.00000000                0.29634998               -0.09768070               -0.09768098                0.32231749                0.00353046                0.00249525                0.00249337
               8.00000000                7.00000000               42.00000000                0.37711191               -0.09879678               -0.09942355                0.32840692                0.00162219                0.00095836                0.00322663
               9.00000000                7.00000000               42.00000000                0.47385248               -0.10048412               -0.10053756                0.33444466                0.00057592                0.00030613                0.00346899
              10.00000000                7.00000000               42.00000000                0.76943502               -0.10147685               -0.10083137                0.34046893               -0.00046720                0.00007247                0.00334985
               0.00000000                8.00000000               42.00000000                0.76182247               -0.08240733               -0.08200348                0.27178616                0.00106458                0.00002697               -0.00057093
               1.00000000                8.00000000               42.00000000                0.33127068               -0.08300468               -0.08287993                0.27784104                0.00119888                0.00108106               -0.00137124
               2.00000000                8.00000000               42.00000000                0.10190849               -0.07483145               -0.08458923                0.28402708                0.02615797                0.05707645               -0.00089830
               3.00000000                8.00000000               42.00000000                0.12401328               -0.07713101               -0.09666208                0.29769519                0.03313476                0.08758843               -0.01525503
               4.00000000                8.00000000               42.00000000                0.17157420               -0.09248706               -0.09402747                0.30784373                0.01966473                0.04328118               -0.00646585
               5.00000000                8.00000000               42.00000000                0.22858251               -0.09751938               -0.09473372                0.31545004                0.00957120                0.01742554               -0.00184890
               6.00000000                8.00000000               42.00000000                0.29633857               -0.09859141               -0.09671144                0.32212129                0.00424117                0.00748167                0.00010984
               7.00000000                8.00000000               42.00000000                0.37711409               -0.09942281               -0.09879635                0.32840474                0.00162184                0.00322801                0.00095696
               8.00000000                8.00000000               42.00000000                0.47386489               -0.10065316               -0.10065324                0.33452400                0.00039104                0.00131383                0.00131239
               9.00000000                8.00000000               42.00000000                0.59050742               -0.10227624               -0.10220457                0.34057258               -0.00001884                0.00043066                0.00141501
              10.00000000                8.00000000               42.00000000                0.83407334               -0.10317472               -0.10347246                0.34659488               -0.00083816                0.00011823                0.00138373
               0.00000000                9.00000000               42.00000000                0.84640123               -0.08427405               -0.08360099                0.27808906                0.00099763                0.00010520               -0.00012439
               1.00000000                9.00000000               42.00000000                0.44891729               -0.08494918               -0.08505048                0.28412263                0.00066008                0.00165399               -0.00067338
               2.00000000                9.00000000               42.00000000                0.15494221               -0.08232386               -0.08668518                0.29035603                0.01990249                0.05094852               -0.00044197
               3.00000000                9.00000000               42.00000000                0.17255538               -0.08645626               -0.09401525                0.30311028                0.02161212                0.08303465               -0.00756547
               4.00000000                9.00000000               42.00000000                0.22856602               -0.09563489               -0.09506846                0.31360579                0.01428110                0.04672017               -0.00316114
               5.00000000                9.00000000               42.00000000                0.29630514               -0.09791756               -0.09665944                0.32139010                0.00568382                0.01898623               -0.00091810
               6.00000000                9.00000000               42.00000000                0.37708991               -0.09909896               -0.09859264                0.32813005                0.00206871                0.00806554               -0.00003662
               7.00000000                9.00000000               42.00000000                0.47385585               -0.10053651               -0.10048312                0.33444123                0.00057582                0.00346909                0.00030581
               8.00000000                9.00000000               42.00000000                0.59050852               -0.10220407               -0.10227575                0.34057099               -0.00001887                0.00141554                0.00042989
               9.00000000                9.00000000               42.00000000                0.73231041               -0.10397639               -0.10397636                0.34662217               -0.00013356                0.00046097                0.00046040
              10.00000000                9.00000000               42.00000000                0.91290831               -0.10487418               -0.10569352                0.35264350               -0.00097025                0.00013036                0.00045493
               0.00000000               10.00000000               42.00000000                0.95318119               -0.08640991               -0.08437849                0.28441010                0.00002208                0.00037949                0.00009197
               1.00000000               10.00000000               42.00000000                0.76596558               -0.08793314               -0.08611425                0.29043901               -0.00030975                0.00217652               -0.00031749
               2.00000000               10.00000000               42.00000000                0.59607995               -0.09867434               -0.08756944                0.29670151                0.01686132                0.04906410               -0.00018273
               3.00000000               10.00000000               42.00000000                0.60329173               -0.09999552               -0.09163809                0.30915732                0.00911630                0.07916493               -0.00294771
               4.00000000               10.00000000               42.00000000                0.63403820               -0.09191730               -0.09609625                0.31964273                0.00658481                0.04542644               -0.00130910
               5.00000000               10.00000000               42.00000000                0.67137975               -0.09376312               -0.09804418                0.32742374                0.00247213                0.01832146               -0.00040482
               6.00000000               10.00000000               42.00000000                0.71595593               -0.09758847               -0.09978563                0.33415677                0.00041236                0.00774574               -0.00005931
               7.00000000               10.00000000               42.00000000                0.76943667               -0.10082998               -0.10147562                0.34046436               -0.00046736                0.00334877                0.00007222
               8.00000000               10.00000000               42.00000000                0.83407431               -0.10347159               -0.10317406                0.34659217               -0.00083846                0.00138301                0.00011769
               9.00000000               10.00000000               42.00000000                0.91290817               -0.10569316               -0.10487398                0.35264223               -0.00097047                0.00045466                0.00012990
              10.00000000               10.00000000               42.00000000                0.98232375               -0.10671652               -0.10671670                0.35866306               -0.00195000                0.00013189                0.00013205
               0.00000000                0.00000000               43.00000000                0.74994744               -0.06716402               -0.06716377                0.22254176                0.00219601               -0.00025687               -0.00025636
               1.00000000                0.00000000               43.00000000                0.49528531               -0.06673162               -0.07006384                0.22878093                0.00246593               -0.00129069               -0.00017710
               2.00000000                0.00000000               43.00000000                0.49734759               -0.06776797               -0.07123111                0.23490069                0.00101277               -0.00237867               -0.00005828
               3.00000000                0.00000000               43.00000000                0.51757483               -0.07067329               -0.07319086                0.24098662                0.00108453               -0.00261046               -0.00004487
               4.00000000                0.00000000               43.00000000                0.54645026               -0.07345202               -0.07502920                0.24706927                0.00107651               -0.00252971               -0.00002089
               5.00000000                0.00000000               43.00000000                0.58441555               -0.07600423               -0.07687902                0.25316413                0.00111315               -0.00223076               -0.00001139
               6.00000000                0.00000000               43.00000000                0.63224733               -0.07828333               -0.07871572                0.25928784                0.00114054               -0.00176341               -0.00001360
               7.00000000                0.00000000               43.00000000                0.69094838               -0.08027803               -0.08053946                0.26544952                0.00113490               -0.00119448               -0.00001004
               8.00000000                0.00000000               43.00000000                0.76177971               -0.08200372               -0.08236078                0.27165039                0.00106544               -0.00060679                0.00002813
               9.00000000                0.00000000               43.00000000                0.84632620               -0.08356030               -0.08420867                0.27788743                0.00099119               -0.00013306                0.00011224
              10.00000000                0.00000000               43.00000000                0.95313341               -0.08431684               -0.08633348                0.28414637                0.00001618                0.00009604                0.00040449
               0.00000000                1.00000000               43.00000000                0.49528799               -0.07006372               -0.06673123                0.22877977                0.00246584               -0.00017765               -0.00129022
               1.00000000                1.00000000               43.00000000                0.01000001               -0.07247736               -0.07247730                0.23502474                0.00446839               -0.00136479               -0.00136379
               2.00000000                1.00000000               43.00000000                0.01000000               -0.07531245               -0.06810458                0.24114029                0.01273781               -0.00320223                0.00607801
               3.00000000                1.00000000               43.00000000                0.01000001               -0.07601447               -0.06471276                0.24719658                0.01374107               -0.00400064                0.01279437
               4.00000000                1.00000000               43.00000000                0.04150707               -0.07670112               -0.07441329                0.25324130                0.00245035               -0.00412823               -0.00070925
               5.00000000                1.00000000               43.00000000                0.09203096               -0.07767400               -0.07730619                0.25929459                0.00227694               -0.00381149               -0.00132119
               6.00000000                1.00000000               43.00000000                0.15575829               -0.07900215               -0.07934106                0.26537844                0.00228074               -0.00316011               -0.00056256
               7.00000000                1.00000000               43.00000000                0.23463662               -0.08072312               -0.08112538                0.27150604                0.00191263               -0.00231810                0.00037395
               8.00000000                1.00000000               43.00000000                0.33121053               -0.08279230               -0.08293844                0.27768167                0.00128270               -0.00145912                0.00115425
               9.00000000                1.00000000               43.00000000                0.44881651               -0.08496594               -0.08486701                0.28390196                0.00070302               -0.00071759                0.00176727
              10.00000000                1.00000000               43.00000000                0.76589766               -0.08603001               -0.08789137                0.29015758               -0.00026814               -0.00033869                0.00232471
               0.00000000                2.00000000               43.00000000                0.49734772               -0.07123097               -0.06776740                0.23489890                0.00101267               -0.00005805               -0.00237884
               1.00000000                2.00000000               43.00000000                0.01000000               -0.06810445               -0.07531212                0.24113970                0.01273781                0.00607721               -0.00320183
               2.00000000                2.00000000               43.00000000                0.01000001               -0.07233746               -0.07233918                0.24819462                0.03834321                0.01140487                0.01140727
               3.00000000                2.00000000               43.00000000                0.01000000               -0.09142627               -0.06025985                0.25509055                0.03656346               -0.01059469                0.03022248
               4.00000000                2.00000000               43.00000000                0.01000000               -0.09149875               -0.05851377                0.25935530                0.03740283               -0.01956587                0.05615765
               5.00000000                2.00000000               43.00000000                0.01000001               -0.07959127               -0.05430058                0.26526465                0.04673403               -0.00498600                0.08494533
               6.00000000                2.00000000               43.00000000                0.02637599               -0.08012776               -0.05672696                0.27140511                0.04258020               -0.00262936                0.08364972
               7.00000000                2.00000000               43.00000000                0.05983291               -0.08208677               -0.06578304                0.27761037                0.03546786               -0.00160035                0.07077337
               8.00000000                2.00000000               43.00000000                0.10189691               -0.08448296               -0.07409870                0.28385441                0.02782824               -0.00095408                0.06103298
               9.00000000                2.00000000               43.00000000                0.15491585               -0.08658293               -0.08188625                0.29012364                0.02117476               -0.00046816                0.05449670
              10.00000000                2.00000000               43.00000000                0.59606183               -0.08745856               -0.09910464                0.29640619                0.01798688               -0.00019164                0.05249662
               0.00000000                3.00000000               43.00000000                0.51757494               -0.07319024               -0.07067230                0.24098334                0.00108417               -0.00004466               -0.00261014
               1.00000000                3.00000000               43.00000000                0.01000001               -0.06471174               -0.07601369                0.24719453                0.01373957                0.01279492               -0.00399998
               2.00000000                3.00000000               43.00000000                0.01000000               -0.06025900               -0.09142610                0.25509195                0.03656362                0.03022131               -0.01059232
               3.00000000                3.00000000               43.00000000                0.01000000               -0.06734296               -0.06734401                0.26344335                0.05980800                0.04272592                0.04273401
               4.00000000                3.00000000               43.00000000                0.01197067               -0.07443828               -0.05459595                0.27287528                0.07476868                0.05371566                0.09819090
               5.00000000                3.00000000               43.00000000                0.02055205               -0.08467444               -0.05539981                0.28262077                0.06939208                0.02629576                0.10984303
               6.00000000                3.00000000               43.00000000                0.04909886               -0.09305810               -0.06105863                0.28847715                0.05079195               -0.01507370                0.10603569
               7.00000000                3.00000000               43.00000000                0.08327075               -0.09636773               -0.06841904                0.29287380                0.03908974               -0.02307817                0.09971796
               8.00000000                3.00000000               43.00000000                0.12401487               -0.09716331               -0.07635298                0.29775230                0.03526332               -0.01630235                0.09363415
               9.00000000                3.00000000               43.00000000                0.17255423               -0.09426221               -0.08606642                0.30310851                0.02300230               -0.00808415                0.08879406
              10.00000000                3.00000000               43.00000000                0.60329067               -0.09169053               -0.10027383                0.30910428                0.00977659               -0.00314818                0.08470561
               0.00000000                4.00000000               43.00000000                0.54645483               -0.07502755               -0.07345062                0.24706378                0.00107627               -0.00002082               -0.00252951
               1.00000000                4.00000000               43.00000000                0.04151166               -0.07441153               -0.07669992                0.25323703                0.00245009               -0.00071061               -0.00412755
               2.00000000                4.00000000               43.00000000                0.01000000               -0.05850840               -0.09149658                0.25933133                0.03740042                0.05616138               -0.01956470
               3.00000000                4.00000000               43.00000000                0.01197195               -0.05459373               -0.07443926                0.27287534                0.07476990                0.09818793                0.05371756
               4.00000000                4.00000000               43.00000000                0.02051379               -0.07645866               -0.07645667                0.28420093                0.04300974                0.05066153                0.05066057
               5.00000000                4.00000000               43.00000000                0.04900414               -0.08954370               -0.08595460                0.29145746                0.02786709                0.00636211                0.02589844
               6.00000000                4.00000000               43.00000000                0.08304698               -0.09275166               -0.09121188                0.29704818                0.02230494               -0.00804719                0.02754623
               7.00000000                4.00000000               43.00000000                0.12353597               -0.09380535               -0.09109107                0.30249554                0.02138565               -0.00879427                0.03892524
               8.00000000                4.00000000               43.00000000                0.17157614               -0.09420585               -0.09251413                0.30802053                0.02089642               -0.00691686                0.04624371
               9.00000000                4.00000000               43.00000000                0.22857211               -0.09520787               -0.09569495                0.31374291                0.01518528               -0.00338291                0.04993811
              10.00000000                4.00000000               43.00000000                0.63404020               -0.09624766               -0.09156513                0.31974302                0.00709638               -0.00139989                0.04858881
               0.00000000                5.00000000               43.00000000                0.58441452               -0.07687737               -0.07600259                0.25315849                0.00111293               -0.00001109               -0.00223193
               1.00000000                5.00000000               43.00000000                0.09203609               -0.07730498               -0.07767256                0.25929023                0.00227646               -0.00132089               -0.00381221
               2.00000000                5.00000000               43.00000000                0.01000001               -0.05429535               -0.07958971                0.26526422                0.04673150                0.08494547               -0.00498626
               3.00000000                5.00000000               43.00000000                0.02055416               -0.05539628               -0.08467369                0.28260048                0.06938429                0.10983033                0.02627729
               4.00000000                5.00000000               43.00000000                0.04900315               -0.08595600               -0.08954372                0.29146586                0.02786488                0.02589567                0.00635985
               5.00000000                5.00000000               43.00000000                0.08305044               -0.09259362               -0.09259356                0.29787941                0.01938221                0.00385625                0.00384197
               6.00000000                5.00000000               43.00000000                0.12354436               -0.09349763               -0.09435594                0.30391251                0.01540829               -0.00051986                0.00989677
               7.00000000                5.00000000               43.00000000                0.17159134               -0.09404074               -0.09603770                0.30979761                0.01273549               -0.00205754                0.01499662
               8.00000000                5.00000000               43.00000000                0.22859152               -0.09481509               -0.09773909                0.31565977                0.01016495               -0.00198566                0.01860497
               9.00000000                5.00000000               43.00000000                0.29631716               -0.09674972               -0.09802445                0.32157464                0.00604045               -0.00098700                0.02028063
              10.00000000                5.00000000               43.00000000                0.67138656               -0.09816514               -0.09345845                0.32758108                0.00270299               -0.00043496                0.01958398
               0.00000000                6.00000000               43.00000000                0.63225220               -0.07871315               -0.07828105                0.25927974                0.00114027               -0.00001315               -0.00176388
               1.00000000                6.00000000               43.00000000                0.15576357               -0.07933875               -0.07900012                0.26537154                0.00228086               -0.00056500               -0.00316008
               2.00000000                6.00000000               43.00000000                0.02637883               -0.05672581               -0.08012505                0.27139501                0.04257859                0.08363436               -0.00262979
               3.00000000                6.00000000               43.00000000                0.04910068               -0.06105687               -0.09305700                0.28847216                0.05078384                0.10603162               -0.01508189
               4.00000000                6.00000000               43.00000000                0.08304973               -0.09120961               -0.09275108                0.29704778                0.02230102                0.02755313               -0.00804239
               5.00000000                6.00000000               43.00000000                0.12354437               -0.09435486               -0.09349736                0.30390968                0.01540712                0.00989778               -0.00052269
               6.00000000                6.00000000               43.00000000                0.17160092               -0.09517291               -0.09517312                0.31023390                0.01054831                0.00371468                0.00370881
               7.00000000                6.00000000               43.00000000                0.22861250               -0.09577122               -0.09714683                0.31633055                0.00714582                0.00107253                0.00636981
               8.00000000                6.00000000               43.00000000                0.29635822               -0.09678758               -0.09876496                0.32233708                0.00450303                0.00010592                0.00797662
               9.00000000                6.00000000               43.00000000                0.37711413               -0.09867154               -0.09917672                0.32832602                0.00219678               -0.00004686                0.00860325
              10.00000000                6.00000000               43.00000000                0.71596733               -0.09988154               -0.09743801                0.33433094                0.00050272               -0.00006736                0.00826557
               0.00000000                7.00000000               43.00000000                0.69095294               -0.08053661               -0.08027532                0.26544016                0.00113497               -0.00000990               -0.00119439
               1.00000000                7.00000000               43.00000000                0.23464356               -0.08112287               -0.08072074                0.27149797                0.00191289                0.00037150               -0.00231728
               2.00000000                7.00000000               43.00000000                0.05983569               -0.06578165               -0.08208463                0.27760382                0.03546467                0.07076318               -0.00159656
               3.00000000                7.00000000               43.00000000                0.08327468               -0.06841774               -0.09636706                0.29287018                0.03908461                0.09970877               -0.02306999
               4.00000000                7.00000000               43.00000000                0.12353880               -0.09108942               -0.09380412                0.30249477                0.02138253                0.03892587               -0.00879885
               5.00000000                7.00000000               43.00000000                0.17159538               -0.09603643               -0.09403988                0.30979509                0.01273462                0.01499838               -0.00205781
               6.00000000                7.00000000               43.00000000                0.22861317               -0.09714610               -0.09577060                0.31632886                0.00714550                0.00637109                0.00107002
               7.00000000                7.00000000               43.00000000                0.29636948               -0.09780791               -0.09780779                0.32254206                0.00374818                0.00264970                0.00264708
               8.00000000                7.00000000               43.00000000                0.37714163               -0.09887934               -0.09953647                0.32861686                0.00172265                0.00101180                0.00343040
               9.00000000                7.00000000               43.00000000                0.47389254               -0.10055625               -0.10059656                0.33463632                0.00061080                0.00031996                0.00369021
              10.00000000                7.00000000               43.00000000                0.76945648               -0.10155279               -0.10078325                0.34063952               -0.00043665                0.00007401                0.00356299
               0.00000000                8.00000000               43.00000000                0.76178671               -0.08235826               -0.08200099                0.27164115                0.00106547                0.00002822               -0.00060721
               1.00000000                8.00000000               43.00000000                0.33122054               -0.08293610               -0.08278997                0.27767389                0.00128264                0.00115375               -0.00145862
               2.00000000                8.00000000               43.00000000                0.10190223               -0.07409730               -0.08448147                0.28384882                0.02782470                0.06102394               -0.00095082
               3.00000000                8.00000000               43.00000000                0.12401957               -0.07635205               -0.09716194                0.29775018                0.03525863                0.09362155               -0.01630068
               4.00000000                8.00000000               43.00000000                0.17158166               -0.09251246               -0.09420396                0.30801544                0.02089439                0.04623953               -0.00691727
               5.00000000                8.00000000               43.00000000                0.22859519               -0.09773736               -0.09481369                0.31565492                0.01016422                0.01860535               -0.00198795
               6.00000000                8.00000000               43.00000000                0.29636113               -0.09876407               -0.09678670                0.32233465                0.00450291                0.00797738                0.00010478
               7.00000000                8.00000000               43.00000000                0.37714321               -0.09953619               -0.09887878                0.32861535                0.00172253                0.00343152                0.00101000
               8.00000000                8.00000000               43.00000000                0.47390676               -0.10073044               -0.10073038                0.33472331                0.00041586                0.00139112                0.00138965
               9.00000000                8.00000000               43.00000000                0.59056088               -0.10233986               -0.10225681                0.34075632               -0.00002034                0.00045392                0.00149880
              10.00000000                8.00000000               43.00000000                0.83410137               -0.10323633               -0.10348186                0.34675919               -0.00083237                0.00012398                0.00146396
               0.00000000                9.00000000               43.00000000                0.84633477               -0.08420576               -0.08355724                0.27787694                0.00099102                0.00011232               -0.00013370
               1.00000000                9.00000000               43.00000000                0.44883012               -0.08486438               -0.08496334                0.28389306                0.00070299                0.00176734               -0.00071747
               2.00000000                9.00000000               43.00000000                0.15492382               -0.08188475               -0.08658090                0.29011671                0.02117180                0.05448688               -0.00046733
               3.00000000                9.00000000               43.00000000                0.17256057               -0.08606545               -0.09425931                0.30310077                0.02299959                0.08877974               -0.00808460
               4.00000000                9.00000000               43.00000000                0.22857728               -0.09569352               -0.09520615                0.31373836                0.01518458                0.04993279               -0.00338275
               5.00000000                9.00000000               43.00000000                0.29632378               -0.09802293               -0.09674809                0.32156941                0.00603974                0.02027931               -0.00098687
               6.00000000                9.00000000               43.00000000                0.37711782               -0.09917559               -0.09867044                0.32832245                0.00219659                0.00860238               -0.00004743
               7.00000000                9.00000000               43.00000000                0.47389419               -0.10059598               -0.10055563                0.33463440                0.00061076                0.00369005                0.00031905
               8.00000000                9.00000000               43.00000000                0.59056280               -0.10225648               -0.10233953                0.34075516               -0.00002047                0.00149949                0.00045316
               9.00000000                9.00000000               43.00000000                0.73237388               -0.10402609               -0.10402613                0.34679174               -0.00014234                0.00048507                0.00048472
              10.00000000                9.00000000               43.00000000                0.91293888               -0.10492319               -0.10572763                0.35279424               -0.00097088                0.00013620                0.00047744
               0.00000000               10.00000000               43.00000000                0.95313916               -0.08633024               -0.08431351                0.28413488                0.00001574                0.00040431                0.00009554
               1.00000000               10.00000000               43.00000000                0.76590279               -0.08788837               -0.08602719                0.29014771               -0.00026844                0.00232460               -0.00033866
               2.00000000               10.00000000               43.00000000                0.59606425               -0.09910190               -0.08745620                0.29639807                0.01798474                0.05248613               -0.00019136
               3.00000000               10.00000000               43.00000000                0.60329531               -0.10027254               -0.09168669                0.30909350                0.00977477                0.08468964               -0.00314837
               4.00000000               10.00000000               43.00000000                0.63404443               -0.09156492               -0.09624629                0.31973859                0.00709513                0.04858260               -0.00140007
               5.00000000               10.00000000               43.00000000                0.67139007               -0.09345747               -0.09816358                0.32757561                0.00270263                0.01958157               -0.00043373
               6.00000000               10.00000000               43.00000000                0.71597050               -0.09743684               -0.09988030                0.33432622                0.00050231                0.00826304               -0.00006740
               7.00000000               10.00000000               43.00000000                0.76945932               -0.10078244               -0.10155218                0.34063692               -0.00043688                0.00356172                0.00007330
               8.00000000               10.00000000               43.00000000                0.83410248               -0.10348122               -0.10323589                0.34675703               -0.00083256                0.00146370                0.00012373
               9.00000000               10.00000000               43.00000000                0.91294085               -0.10572719               -0.10492303                0.35279292               -0.00097107                0.00047695                0.00013619
              10.00000000               10.00000000               43.00000000                0.98233832               -0.10675603               -0.10675628                0.35879502               -0.00194564                0.00013721                0.00013778
               0.00000000                0.00000000               44.00000000                0.74998890               -0.06726196               -0.06726182                0.22299968                0.00218666               -0.00027201               -0.00027243
               1.00000000                0.00000000               44.00000000                0.49534681               -0.06673074               -0.07019945                0.22917221                0.00255837               -0.00137383               -0.00018762
               2.00000000                0.00000000               44.00000000                0.49737524               -0.06769630               -0.07130431                0.23521708                0.00101206               -0.00254018               -0.00005985
               3.00000000                0.00000000               44.00000000                0.51759383               -0.07065396               -0.07325000                0.24122454                0.00108777               -0.00279160               -0.00004641
               4.00000000                0.00000000               44.00000000                0.54646663               -0.07347346               -0.07506606                0.24722563                0.00107949               -0.00270586               -0.00002193
               5.00000000                0.00000000               44.00000000                0.58442022               -0.07604874               -0.07689491                0.25324029                0.00111846               -0.00238765               -0.00001223
               6.00000000                0.00000000               44.00000000                0.63224409               -0.07833085               -0.07870938                0.25928458                0.00114716               -0.00188859               -0.00001473
               7.00000000                0.00000000               44.00000000                0.69092788               -0.08030877               -0.08051010                0.26536932                0.00114051               -0.00128142               -0.00001111
               8.00000000                0.00000000               44.00000000                0.76173735               -0.08200025               -0.08230816                0.27149664                0.00106616               -0.00065455                0.00003001
               9.00000000                0.00000000               44.00000000                0.84625376               -0.08351365               -0.08413581                0.27766305                0.00098438               -0.00014779                0.00011990
              10.00000000                0.00000000               44.00000000                0.95308805               -0.08424806               -0.08624880                0.28385594                0.00001017                0.00009766                0.00042686
               0.00000000                1.00000000               44.00000000                0.49534577               -0.07019930               -0.06673043                0.22917134                0.00255824               -0.00018735               -0.00137361
               1.00000000                1.00000000               44.00000000                0.01000001               -0.07270203               -0.07270200                0.23535047                0.00476272               -0.00144794               -0.00144758
               2.00000000                1.00000000               44.00000000                0.01000000               -0.07557956               -0.06793591                0.24139428                0.01353358               -0.00339835                0.00648141
               3.00000000                1.00000000               44.00000000                0.01000001               -0.07618037               -0.06422754                0.24737639                0.01461011               -0.00424479                0.01364043
               4.00000000                1.00000000               44.00000000                0.04152066               -0.07676754               -0.07434403                0.25334552                0.00265511               -0.00437819               -0.00073785
               5.00000000                1.00000000               44.00000000                0.09203353               -0.07766228               -0.07728341                0.25932539                0.00246117               -0.00404310               -0.00140030
               6.00000000                1.00000000               44.00000000                0.15575119               -0.07893721               -0.07931385                0.26533649                0.00245133               -0.00335275               -0.00059345
               7.00000000                1.00000000               44.00000000                0.23461051               -0.08063147               -0.08107519                0.27139341                0.00204947               -0.00245994                0.00040111
               8.00000000                1.00000000               44.00000000                0.33115782               -0.08269651               -0.08286473                0.27750105                0.00137106               -0.00154813                0.00123372
               9.00000000                1.00000000               44.00000000                0.44871831               -0.08487287               -0.08477641                0.28365576                0.00074861               -0.00076010                0.00188571
              10.00000000                1.00000000               44.00000000                0.76583397               -0.08593709               -0.08784301                0.28984694               -0.00022435               -0.00035727                0.00247273
               0.00000000                2.00000000               44.00000000                0.49737925               -0.07130386               -0.06769565                0.23521500                0.00101199               -0.00006008               -0.00253893
               1.00000000                2.00000000               44.00000000                0.01000000               -0.06793574               -0.07557913                0.24139328                0.01353362                0.00648086               -0.00339675
               2.00000000                2.00000000               44.00000000                0.01000001               -0.07228521               -0.07228363                0.24840090                0.04067291                0.01215960                0.01216324
               3.00000000                2.00000000               44.00000000                0.01000000               -0.09235548               -0.05938147                0.25525292                0.03882531               -0.01126205                0.03220247
               4.00000000                2.00000000               44.00000000                0.01000000               -0.09230047               -0.05740613                0.25940995                0.03973767               -0.02080689                0.05985339
               5.00000000                2.00000000               44.00000000                0.01000001               -0.07956214               -0.05282596                0.26526636                0.04961946               -0.00528693                0.09055882
               6.00000000                2.00000000               44.00000000                0.02637539               -0.07999959               -0.05524329                0.27133015                0.04523169               -0.00277588                0.08918398
               7.00000000                2.00000000               44.00000000                0.05983231               -0.08194817               -0.06467361                0.27747336                0.03769135               -0.00168409                0.07548224
               8.00000000                2.00000000               44.00000000                0.10188917               -0.08436658               -0.07332565                0.28365674                0.02958023               -0.00099847                0.06511880
               9.00000000                2.00000000               44.00000000                0.15489603               -0.08647139               -0.08142441                0.28986512                0.02250797               -0.00048916                0.05817199
              10.00000000                2.00000000               44.00000000                0.59604553               -0.08733829               -0.09955312                0.29608172                0.01916629               -0.00019978                0.05605829
               0.00000000                3.00000000               44.00000000                0.51759627               -0.07324944               -0.07065284                0.24122140                0.00108767               -0.00004648               -0.00279165
               1.00000000                3.00000000               44.00000000                0.01000001               -0.06422670               -0.07617942                0.24737444                0.01461151                0.01364143               -0.00424426
               2.00000000                3.00000000               44.00000000                0.01000000               -0.05938117               -0.09235493                0.25524917                0.03882453                0.03220037               -0.01126807
               3.00000000                3.00000000               44.00000000                0.01000000               -0.06670550               -0.06670529                0.26359963                0.06339348                0.04552132                0.04552662
               4.00000000                3.00000000               44.00000000                0.01197178               -0.07403054               -0.05310076                0.27306655                0.07926181                0.05725216                0.10463514
               5.00000000                3.00000000               44.00000000                0.02055344               -0.08472713               -0.05382241                0.28286379                0.07361569                0.02802408                0.11703818
               6.00000000                3.00000000               44.00000000                0.04910094               -0.09351904               -0.05966455                0.28868558                0.05396229               -0.01606957                0.11300924
               7.00000000                3.00000000               44.00000000                0.08327467               -0.09693788               -0.06729881                0.29300901                0.04156454               -0.02458900                0.10631299
               8.00000000                3.00000000               44.00000000                0.12402060               -0.09768889               -0.07553473                0.29781246                0.03749293               -0.01736712                0.09986697
               9.00000000                3.00000000               44.00000000                0.17256250               -0.09451728               -0.08565799                0.30309857                0.02445801               -0.00860500                0.09475061
              10.00000000                3.00000000               44.00000000                0.60329456               -0.09174022               -0.10056768                0.30903692                0.01046729               -0.00334630                0.09046476
               0.00000000                4.00000000               44.00000000                0.54646720               -0.07506503               -0.07347199                0.24722107                0.00107947               -0.00002168               -0.00270674
               1.00000000                4.00000000               44.00000000                0.04152267               -0.07434386               -0.07676625                0.25334226                0.00265492               -0.00074861               -0.00437850
               2.00000000                4.00000000               44.00000000                0.01000000               -0.05740503               -0.09230029                0.25942185                0.03973652                0.05985250               -0.02080473
               3.00000000                4.00000000               44.00000000                0.01197217               -0.05309910               -0.07403149                0.27306430                0.07926530                0.10464378                0.05724117
               4.00000000                4.00000000               44.00000000                0.02051590               -0.07604167               -0.07604508                0.28449059                0.04562225                0.05397630                0.05398153
               5.00000000                4.00000000               44.00000000                0.04900356               -0.08976813               -0.08597370                0.29176215                0.02955895                0.00675620                0.02757547
               6.00000000                4.00000000               44.00000000                0.08304978               -0.09306258               -0.09142875                0.29732737                0.02366895               -0.00856623                0.02934590
               7.00000000                4.00000000               44.00000000                0.12354046               -0.09407351               -0.09117796                0.30272986                0.02269971               -0.00937586                0.04148073
               8.00000000                4.00000000               44.00000000                0.17158482               -0.09439347               -0.09254359                0.30820874                0.02218706               -0.00737324                0.04930094
               9.00000000                4.00000000               44.00000000                0.22858271               -0.09535273               -0.09576016                0.31388713                0.01613235               -0.00360772                0.05326745
              10.00000000                4.00000000               44.00000000                0.63404806               -0.09640414               -0.09120010                0.31984624                0.00763063               -0.00149274                0.05187998
               0.00000000                5.00000000               44.00000000                0.58441995               -0.07689411               -0.07604744                0.25323613                0.00111862               -0.00001204               -0.00238834
               1.00000000                5.00000000               44.00000000                0.09204053               -0.07728253               -0.07766115                0.25932262                0.00246141               -0.00139765               -0.00404320
               2.00000000                5.00000000               44.00000000                0.01000001               -0.05282035               -0.07956006                0.26525722                0.04961780                0.09054377               -0.00527778
               3.00000000                5.00000000               44.00000000                0.02055462               -0.05381841               -0.08472840                0.28285950                0.07361013                0.11703725                0.02801958
               4.00000000                5.00000000               44.00000000                0.04900549               -0.08597606               -0.08977126                0.29177800                0.02955916                0.02758781                0.00675146
               5.00000000                5.00000000               44.00000000                0.08305400               -0.09288001               -0.09288003                0.29817697                0.02054987                0.00409181                0.00409724
               6.00000000                5.00000000               44.00000000                0.12354934               -0.09372562               -0.09463213                0.30419107                0.01634000               -0.00056450                0.01053069
               7.00000000                5.00000000               44.00000000                0.17159917               -0.09419194               -0.09629524                0.31005536                0.01351114               -0.00220076                0.01597061
               8.00000000                5.00000000               44.00000000                0.22860477               -0.09490248               -0.09797227                0.31588747                0.01078819               -0.00212294                0.01982409
               9.00000000                5.00000000               44.00000000                0.29633722               -0.09684397               -0.09813894                0.32177003                0.00641422               -0.00105705                0.02162578
              10.00000000                5.00000000               44.00000000                0.67139667               -0.09829059               -0.09314191                0.32774491                0.00294409               -0.00046576                0.02090923
               0.00000000                6.00000000               44.00000000                0.63224280               -0.07870872               -0.07832949                0.25928007                0.00114702               -0.00001449               -0.00188952
               1.00000000                6.00000000               44.00000000                0.15575220               -0.07931292               -0.07893603                0.26533352                0.00245248               -0.00059779               -0.00335306
               2.00000000                6.00000000               44.00000000                0.02637899               -0.05524162               -0.07999865                0.27132790                0.04522898                0.08917857               -0.00277905
               3.00000000                6.00000000               44.00000000                0.04910410               -0.05966168               -0.09351928                0.28868780                0.05395032                0.11300532               -0.01606390
               4.00000000                6.00000000               44.00000000                0.08305243               -0.09142646               -0.09306133                0.29732128                0.02366374                0.02934416               -0.00857894
               5.00000000                6.00000000               44.00000000                0.12354958               -0.09463172               -0.09372660                0.30419365                0.01634088                0.01053256               -0.00056790
               6.00000000                6.00000000               44.00000000                0.17160992               -0.09538197               -0.09538212                0.31050473                0.01118662                0.00394374                0.00394057
               7.00000000                6.00000000               44.00000000                0.22862828               -0.09590337               -0.09735520                0.31658476                0.00757999                0.00113264                0.00677782
               8.00000000                6.00000000               44.00000000                0.29637980               -0.09686908               -0.09894968                0.32257041                0.00477825                0.00010348                0.00849320
               9.00000000                6.00000000               44.00000000                0.37714362               -0.09875484               -0.09926018                0.32853490                0.00233128               -0.00005527                0.00916776
              10.00000000                6.00000000               44.00000000                0.71598399               -0.09998207               -0.09728172                0.33451348                0.00059718               -0.00007381                0.00881803
               0.00000000                7.00000000               44.00000000                0.69093356               -0.08050836               -0.08030663                0.26536188                0.00114011               -0.00001095               -0.00128161
               1.00000000                7.00000000               44.00000000                0.23461476               -0.08107365               -0.08062958                0.27138767                0.00205022                0.00039842               -0.00245929
               2.00000000                7.00000000               44.00000000                0.05983477               -0.06467350               -0.08194762                0.27747254                0.03768853                0.07547093               -0.00167990
               3.00000000                7.00000000               44.00000000                0.08327709               -0.06729790               -0.09693697                0.29300845                0.04155818                0.10630490               -0.02459175
               4.00000000                7.00000000               44.00000000                0.12354534               -0.09117501               -0.09407158                0.30272557                0.02269569                0.04148124               -0.00937958
               5.00000000                7.00000000               44.00000000                0.17160354               -0.09629313               -0.09419073                0.31004960                0.01350973                0.01597090               -0.00220365
               6.00000000                7.00000000               44.00000000                0.22862927               -0.09735458               -0.09590310                0.31658328                0.00758032                0.00677964                0.00112996
               7.00000000                7.00000000               44.00000000                0.29639236               -0.09794398               -0.09794373                0.32278654                0.00397699                0.00281324                0.00281046
               8.00000000                7.00000000               44.00000000                0.37717566               -0.09896792               -0.09965753                0.32884428                0.00182811                0.00106876                0.00364824
               9.00000000                7.00000000               44.00000000                0.47393717               -0.10063306               -0.10066031                0.33484189                0.00064753                0.00033571                0.00392819
              10.00000000                7.00000000               44.00000000                0.76947861               -0.10163309               -0.10073402                0.34082100               -0.00040400                0.00007657                0.00379526
               0.00000000                8.00000000               44.00000000                0.76174236               -0.08230560               -0.08199741                0.27148739                0.00106587                0.00002999               -0.00065477
               1.00000000                8.00000000               44.00000000                0.33116525               -0.08286258               -0.08269407                0.27749353                0.00137110                0.00123244               -0.00154741
               2.00000000                8.00000000               44.00000000                0.10189444               -0.07332544               -0.08436505                0.28365218                0.02957722                0.06510897               -0.00099566
               3.00000000                8.00000000               44.00000000                0.12402517               -0.07553437               -0.09768684                0.29780878                0.03748878                0.09985410               -0.01736501
               4.00000000                8.00000000               44.00000000                0.17159003               -0.09254133               -0.09439156                0.30820245                0.02218535                0.04929681               -0.00737438
               5.00000000                8.00000000               44.00000000                0.22860875               -0.09797024               -0.09490067                0.31588168                0.01078748                0.01982454               -0.00212478
               6.00000000                8.00000000               44.00000000                0.29638314               -0.09894859               -0.09686780                0.32256617                0.00477815                0.00849398                0.00010201
               7.00000000                8.00000000               44.00000000                0.37717635               -0.09965725               -0.09896720                0.32884263                0.00182811                0.00364972                0.00106734
               8.00000000                8.00000000               44.00000000                0.47395377               -0.10081278               -0.10081259                0.33493617                0.00044238                0.00147567                0.00147384
               9.00000000                8.00000000               44.00000000                0.59061906               -0.10240684               -0.10231205                0.34094982               -0.00002113                0.00047937                0.00159173
              10.00000000                8.00000000               44.00000000                0.83413158               -0.10330066               -0.10349147                0.34693056               -0.00082563                0.00013047                0.00155528
               0.00000000                9.00000000               44.00000000                0.84626379               -0.08413289               -0.08351048                0.27765272                0.00098420                0.00011989               -0.00014794
               1.00000000                9.00000000               44.00000000                0.44872914               -0.08477389               -0.08487021                0.28364719                0.00074846                0.00188461               -0.00075951
               2.00000000                9.00000000               44.00000000                0.15490292               -0.08142385               -0.08646925                0.28985855                0.02250532                0.05816097               -0.00048824
               3.00000000                9.00000000               44.00000000                0.17256846               -0.08565765               -0.09451438                0.30309191                0.02445551                0.09473717               -0.00860533
               4.00000000                9.00000000               44.00000000                0.22859167               -0.09575825               -0.09535013                0.31387954                0.01613131                0.05326201               -0.00360565
               5.00000000                9.00000000               44.00000000                0.29634296               -0.09813711               -0.09684178                0.32176327                0.00641408                0.02162320               -0.00105726
               6.00000000                9.00000000               44.00000000                0.37714890               -0.09925911               -0.09875319                0.32853011                0.00233152                0.00916770               -0.00005587
               7.00000000                9.00000000               44.00000000                0.47394066               -0.10065985               -0.10063219                0.33483963                0.00064735                0.00392825                0.00033602
               8.00000000                9.00000000               44.00000000                0.59062022               -0.10231183               -0.10240633                0.34094862               -0.00002138                0.00159188                0.00047869
               9.00000000                9.00000000               44.00000000                0.73244169               -0.10407824               -0.10407818                0.34696929               -0.00015071                0.00051344                0.00051290
              10.00000000                9.00000000               44.00000000                0.91297350               -0.10497453               -0.10576294                0.35295097               -0.00097119                0.00014441                0.00050551
               0.00000000               10.00000000               44.00000000                0.95309278               -0.08624552               -0.08424472                0.28384434                0.00000970                0.00042634                0.00009779
               1.00000000               10.00000000               44.00000000                0.76584090               -0.08784007               -0.08593432                0.28983716               -0.00022474                0.00247080               -0.00035664
               2.00000000               10.00000000               44.00000000                0.59605101               -0.09955132               -0.08733598                0.29607387                0.01916423                0.05604559               -0.00019973
               3.00000000               10.00000000               44.00000000                0.60329924               -0.10056719               -0.09173699                0.30902834                0.01046624                0.09045104               -0.00334724
               4.00000000               10.00000000               44.00000000                0.63405152               -0.09119944               -0.09640124                0.31983810                0.00762981                0.05187406               -0.00149019
               5.00000000               10.00000000               44.00000000                0.67140085               -0.09314048               -0.09828792                0.32773666                0.00294361                0.02090430               -0.00046529
               6.00000000               10.00000000               44.00000000                0.71598790               -0.09728067               -0.09998034                0.33450813                0.00059682                0.00881682               -0.00007388
               7.00000000               10.00000000               44.00000000                0.76948200               -0.10073350               -0.10163226                0.34081818               -0.00040443                0.00379412                0.00007749
               8.00000000               10.00000000               44.00000000                0.83413186               -0.10349097               -0.10329998                0.34692817               -0.00082596                0.00155356                0.00013036
               9.00000000               10.00000000               44.00000000                0.91297551               -0.10576254               -0.10497424                0.35294958               -0.00097151                0.00050481                0.00014386
              10.00000000               10.00000000               44.00000000                0.98235583               -0.10679724               -0.10679748                0.35893119               -0.00194090                0.00014573                0.00014603
               0.00000000                0.00000000               45.00000000                0.75003585               -0.06736687               -0.06736686                0.22348640                0.00217645               -0.00029019               -0.00028978
               1.00000000                0.00000000               45.00000000                0.49540529               -0.06673236               -0.07034312                0.22958813                0.00265417               -0.00146509               -0.00019803
               2.00000000                0.00000000               45.00000000                0.49740518               -0.06762344               -0.07138254                0.23555364                0.00101112               -0.00271451               -0.00006052
               3.00000000                0.00000000               45.00000000                0.51761839               -0.07063498               -0.07331353                0.24147851                0.00109089               -0.00298944               -0.00004768
               4.00000000                0.00000000               45.00000000                0.54648274               -0.07349631               -0.07510591                0.24739290                0.00108220               -0.00290334               -0.00002232
               5.00000000                0.00000000               45.00000000                0.58442456               -0.07609517               -0.07691241                0.25332263                0.00112368               -0.00256470               -0.00001269
               6.00000000                0.00000000               45.00000000                0.63223728               -0.07838012               -0.07870344                0.25928300                0.00115363               -0.00203133               -0.00001572
               7.00000000                0.00000000               45.00000000                0.69090761               -0.08034017               -0.08047924                0.26528509                0.00114586               -0.00138199               -0.00001188
               8.00000000                0.00000000               45.00000000                0.76169367               -0.08199572               -0.08225244                0.27133426                0.00106662               -0.00071243                0.00003199
               9.00000000                0.00000000               45.00000000                0.84617985               -0.08346374               -0.08405825                0.27742520                0.00097712               -0.00016914                0.00012842
              10.00000000                0.00000000               45.00000000                0.95303922               -0.08417476               -0.08615814                0.28354709                0.00000389                0.00009492                0.00044784
               0.00000000                1.00000000               45.00000000                0.49540804               -0.07034294               -0.06673224                0.22958756                0.00265405               -0.00019872               -0.00146498
               1.00000000                1.00000000               45.00000000                0.01000001               -0.07293794               -0.07293805                0.23569679                0.00506875               -0.00153680               -0.00153575
               2.00000000                1.00000000               45.00000000                0.01000000               -0.07585926               -0.06776139                0.24166448                0.01436209               -0.00360042                0.00689504
               3.00000000                1.00000000               45.00000000                0.01000001               -0.07635465               -0.06372183                0.24756836                0.01551524               -0.00449505                0.01450811
               4.00000000                1.00000000               45.00000000                0.04153436               -0.07683782               -0.07427408                0.25345692                0.00286387               -0.00463659               -0.00077143
               5.00000000                1.00000000               45.00000000                0.09203961               -0.07765074               -0.07726011                0.25935872                0.00265088               -0.00428132               -0.00146924
               6.00000000                1.00000000               45.00000000                0.15574258               -0.07886976               -0.07928547                0.26529276                0.00262817               -0.00355003               -0.00062278
               7.00000000                1.00000000               45.00000000                0.23458262               -0.08053542               -0.08102199                0.27127332                0.00219160               -0.00260385                0.00043146
               8.00000000                1.00000000               45.00000000                0.33109856               -0.08259548               -0.08278637                0.27730844                0.00146374               -0.00163694                0.00131577
               9.00000000                1.00000000               45.00000000                0.44861123               -0.08477414               -0.08468013                0.28339331                0.00079702               -0.00080122                0.00200912
              10.00000000                1.00000000               45.00000000                0.76576414               -0.08583820               -0.08779030                0.28951556               -0.00017828               -0.00037419                0.00262300
               0.00000000                2.00000000               45.00000000                0.49740625               -0.07138186               -0.06762280                0.23555155                0.00101094               -0.00006018               -0.00271527
               1.00000000                2.00000000               45.00000000                0.01000000               -0.06776121               -0.07585881                0.24166341                0.01436246                0.00689411               -0.00360007
               2.00000000                2.00000000               45.00000000                0.01000001               -0.07223146               -0.07223010                0.24862020                0.04310198                0.01292956                0.01292907
               3.00000000                2.00000000               45.00000000                0.01000000               -0.09332938               -0.05846555                0.25542487                0.04118207               -0.01194997                0.03422238
               4.00000000                2.00000000               45.00000000                0.01000000               -0.09313940               -0.05625344                0.25947494                0.04217165               -0.02206085                0.06364360
               5.00000000                2.00000000               45.00000000                0.01000001               -0.07952945               -0.05128331                0.26525233                0.05263202               -0.00557636                0.09631446
               6.00000000                2.00000000               45.00000000                0.02637504               -0.07986511               -0.05369376                0.27124632                0.04799711               -0.00292070                0.09489884
               7.00000000                2.00000000               45.00000000                0.05982923               -0.08180201               -0.06351650                0.27732195                0.04000968               -0.00175774                0.08035128
               8.00000000                2.00000000               45.00000000                0.10188196               -0.08424272               -0.07251921                0.28344129                0.03140585               -0.00103247                0.06935740
               9.00000000                2.00000000               45.00000000                0.15487499               -0.08635344               -0.08094247                0.28958926                0.02389577               -0.00050110                0.06199236
              10.00000000                2.00000000               45.00000000                0.59603038               -0.08721173               -0.10001872                0.29573736                0.02039349               -0.00020220                0.05976493
               0.00000000                3.00000000               45.00000000                0.51761965               -0.07331237               -0.07063387                0.24147460                0.00109099               -0.00004766               -0.00299002
               1.00000000                3.00000000               45.00000000                0.01000001               -0.06372057               -0.07635368                0.24756559                0.01551617                0.01450587               -0.00449488
               2.00000000                3.00000000               45.00000000                0.01000000               -0.05846446               -0.09332923                0.25542144                0.04118012                0.03422076               -0.01193753
               3.00000000                3.00000000               45.00000000                0.01000000               -0.06604087               -0.06604028                0.26376764                0.06713846                0.04838167                0.04838367
               4.00000000                3.00000000               45.00000000                0.01197121               -0.07360498               -0.05154463                0.27327862                0.08396009                0.06086355                0.11121884
               5.00000000                3.00000000               45.00000000                0.02055341               -0.08478425               -0.05217408                0.28313762                0.07802448                0.02981381                0.12443188
               6.00000000                3.00000000               45.00000000                0.04910272               -0.09400403               -0.05820988                0.28893282                0.05726145               -0.01706508                0.12018786
               7.00000000                3.00000000               45.00000000                0.08327756               -0.09753393               -0.06613197                0.29316042                0.04414164               -0.02613842                0.11312094
               8.00000000                3.00000000               45.00000000                0.12402493               -0.09823715               -0.07468396                0.29788382                0.03981496               -0.01845147                0.10632202
               9.00000000                3.00000000               45.00000000                0.17257075               -0.09478236               -0.08523406                0.30308923                0.02597319               -0.00913527                0.10093658
              10.00000000                3.00000000               45.00000000                0.60329880               -0.09179036               -0.10087486                0.30896375                0.01118524               -0.00354851                0.09647531
               0.00000000                4.00000000               45.00000000                0.54648398               -0.07510535               -0.07349516                0.24738935                0.00108229               -0.00002242               -0.00290289
               1.00000000                4.00000000               45.00000000                0.04153930               -0.07427426               -0.07683683                0.25345470                0.00286333               -0.00075875               -0.00463528
               2.00000000                4.00000000               45.00000000                0.01000000               -0.05624763               -0.09313800                0.25948383                0.04217087                0.06364813               -0.02206083
               3.00000000                4.00000000               45.00000000                0.01197311               -0.05153457               -0.07360568                0.27325785                0.08395110                0.11120523                0.06086120
               4.00000000                4.00000000               45.00000000                0.02051540               -0.07561515               -0.07561520                0.28480369                0.04834993                0.05738939                0.05739529
               5.00000000                4.00000000               45.00000000                0.04900452               -0.09001124               -0.08600030                0.29212186                0.03132670                0.00720561                0.02931865
               6.00000000                4.00000000               45.00000000                0.08305417               -0.09338852               -0.09165717                0.29762274                0.02508456               -0.00910762                0.03119169
               7.00000000                4.00000000               45.00000000                0.12354734               -0.09435314               -0.09126986                0.30298069                0.02406511               -0.00996879                0.04412068
               8.00000000                4.00000000               45.00000000                0.17159626               -0.09458954               -0.09257656                0.30840946                0.02353082               -0.00783809                0.05246406
               9.00000000                4.00000000               45.00000000                0.22859520               -0.09550430               -0.09583070                0.31404203                0.01711951               -0.00383606                0.05672487
              10.00000000                4.00000000               45.00000000                0.63405403               -0.09656798               -0.09082335                0.31995868                0.00818655               -0.00158565                0.05532181
               0.00000000                5.00000000               45.00000000                0.58442931               -0.07691134               -0.07609381                0.25331779                0.00112354               -0.00001298               -0.00256452
               1.00000000                5.00000000               45.00000000                0.09204369               -0.07725871               -0.07764953                0.25935528                0.00265261               -0.00147613               -0.00428027
               2.00000000                5.00000000               45.00000000                0.01000001               -0.05128144               -0.07952640                0.26524306                0.05263027                0.09631116               -0.00558883
               3.00000000                5.00000000               45.00000000                0.02055540               -0.05217051               -0.08478531                0.28312754                0.07801021                0.12443293                0.02980102
               4.00000000                5.00000000               45.00000000                0.04900821               -0.08599665               -0.09000527                0.29209676                0.03131626                0.02931625                0.00720028
               5.00000000                5.00000000               45.00000000                0.08305566               -0.09318448               -0.09318436                0.29850700                0.02176918                0.00434076                0.00434411
               6.00000000                5.00000000               45.00000000                0.12355475               -0.09396872               -0.09492369                0.30449818                0.01731337               -0.00060182                0.01118254
               7.00000000                5.00000000               45.00000000                0.17161139               -0.09435072               -0.09656563                0.31032950                0.01431770               -0.00234239                0.01697392
               8.00000000                5.00000000               45.00000000                0.22862105               -0.09499368               -0.09821711                0.31612777                0.01143663               -0.00226402                0.02108711
               9.00000000                5.00000000               45.00000000                0.29635841               -0.09694297               -0.09826069                0.32197820                0.00680342               -0.00113001                0.02302721
              10.00000000                5.00000000               45.00000000                0.67140788               -0.09842246               -0.09281553                0.32792048                0.00319504               -0.00049736                0.02230233
               0.00000000                6.00000000               45.00000000                0.63224067               -0.07870205               -0.07837843                0.25927725                0.00115354               -0.00001618               -0.00203260
               1.00000000                6.00000000               45.00000000                0.15574417               -0.07928420               -0.07886820                0.26528859                0.00262985               -0.00062508               -0.00355035
               2.00000000                6.00000000               45.00000000                0.02637811               -0.05369414               -0.07986517                0.27124904                0.04799398                0.09488679               -0.00291317
               3.00000000                6.00000000               45.00000000                0.04910575               -0.05820796               -0.09400344                0.28892499                0.05725318                0.12017820               -0.01706892
               4.00000000                6.00000000               45.00000000                0.08305607               -0.09165315               -0.09338556                0.29761494                0.02507891                0.03119530               -0.00911800
               5.00000000                6.00000000               45.00000000                0.12355599               -0.09492235               -0.09396669                0.30449597                0.01731057                0.01118652               -0.00060621
               6.00000000                6.00000000               45.00000000                0.17162082               -0.09560316               -0.09560302                0.31079834                0.01185232                0.00418369                0.00418164
               7.00000000                6.00000000               45.00000000                0.22864483               -0.09604323               -0.09757495                0.31685774                0.00803289                0.00119699                0.00719737
               8.00000000                6.00000000               45.00000000                0.29640616               -0.09695479               -0.09914426                0.32281834                0.00506511                0.00010387                0.00903053
               9.00000000                6.00000000               45.00000000                0.37717620               -0.09884256               -0.09934930                0.32875741                0.00247187               -0.00006400                0.00976102
              10.00000000                6.00000000               45.00000000                0.71600180               -0.10008806               -0.09712147                0.33470842                0.00069579               -0.00008070                0.00940559
               0.00000000                7.00000000               45.00000000                0.69091176               -0.08047743               -0.08033815                0.26527807                0.00114574               -0.00001193               -0.00138351
               1.00000000                7.00000000               45.00000000                0.23458842               -0.08102063               -0.08053363                0.27126810                0.00219182                0.00043263               -0.00260439
               2.00000000                7.00000000               45.00000000                0.05983249               -0.06351659               -0.08180236                0.27732434                0.04000629                0.08034392               -0.00175443
               3.00000000                7.00000000               45.00000000                0.08328110               -0.06613100               -0.09753360                0.29316029                0.04413799                0.11310750               -0.02613324
               4.00000000                7.00000000               45.00000000                0.12355109               -0.09126699               -0.09435207                0.30297326                0.02406249                0.04411560               -0.00996992
               5.00000000                7.00000000               45.00000000                0.17161405               -0.09656375               -0.09434928                0.31032450                0.01431607                0.01697627               -0.00234648
               6.00000000                7.00000000               45.00000000                0.22864591               -0.09757449               -0.09604253                0.31685525                0.00803254                0.00720120                0.00119387
               7.00000000                7.00000000               45.00000000                0.29641905               -0.09808718               -0.09808706                0.32304577                0.00421529                0.00298593                0.00298312
               8.00000000                7.00000000               45.00000000                0.37721348               -0.09906064               -0.09978479                0.32908272                0.00193830                0.00113144                0.00387729
               9.00000000                7.00000000               45.00000000                0.47398279               -0.10071401               -0.10072836                0.33505989                0.00068579                0.00035261                0.00418131
              10.00000000                7.00000000               45.00000000                0.76950683               -0.10171828               -0.10068476                0.34101522               -0.00036999                0.00007935                0.00404701
               0.00000000                8.00000000               45.00000000                0.76169759               -0.08225032               -0.08199336                0.27132614                0.00106646                0.00003220               -0.00071304
               1.00000000                8.00000000               45.00000000                0.33110726               -0.08278462               -0.08259349                0.27730205                0.00146332                0.00131659               -0.00163652
               2.00000000                8.00000000               45.00000000                0.10188729               -0.07251844               -0.08424146                0.28343782                0.03140242                0.06934922               -0.00103198
               3.00000000                8.00000000               45.00000000                0.12403090               -0.07468314               -0.09823525                0.29787837                0.03981099                0.10630624               -0.01845214
               4.00000000                8.00000000               45.00000000                0.17159864               -0.09257498               -0.09458862                0.30840557                0.02352968                0.05245686               -0.00783838
               5.00000000                8.00000000               45.00000000                0.22862432               -0.09821551               -0.09499258                0.31612391                0.01143605                0.02108770               -0.00226410
               6.00000000                8.00000000               45.00000000                0.29640698               -0.09914331               -0.09695401                0.32281534                0.00506468                0.00903267                0.00010240
               7.00000000                8.00000000               45.00000000                0.37721322               -0.09978473               -0.09906046                0.32908280                0.00193862                0.00387985                0.00112981
               8.00000000                8.00000000               45.00000000                0.47400126               -0.10089931               -0.10089910                0.33516037                0.00046984                0.00156656                0.00156470
               9.00000000                8.00000000               45.00000000                0.59068231               -0.10247753               -0.10237067                0.34115463               -0.00002324                0.00050856                0.00169481
              10.00000000                8.00000000               45.00000000                0.83416395               -0.10336867               -0.10350260                0.34711160               -0.00081916                0.00013879                0.00165887
               0.00000000                9.00000000               45.00000000                0.84618701               -0.08405593               -0.08346104                0.27741602                0.00097688                0.00012862               -0.00016966
               1.00000000                9.00000000               45.00000000                0.44862445               -0.08467801               -0.08477191                0.28338577                0.00079683                0.00200957               -0.00080077
               2.00000000                9.00000000               45.00000000                0.15487980               -0.08094191               -0.08635150                0.28958318                0.02389342                0.06198140               -0.00050062
               3.00000000                9.00000000               45.00000000                0.17257753               -0.08523347               -0.09477918                0.30308232                0.02596953                0.10091937               -0.00913708
               4.00000000                9.00000000               45.00000000                0.22860146               -0.09582889               -0.09550192                0.31403439                0.01711802                0.05671800               -0.00383555
               5.00000000                9.00000000               45.00000000                0.29636321               -0.09825931               -0.09694148                0.32197348                0.00680344                0.02302650               -0.00112986
               6.00000000                9.00000000               45.00000000                0.37718122               -0.09934822               -0.09884127                0.32875321                0.00247147                0.00976181               -0.00006359
               7.00000000                9.00000000               45.00000000                0.47398608               -0.10072775               -0.10071310                0.33505708                0.00068607                0.00418216                0.00035257
               8.00000000                9.00000000               45.00000000                0.59068181               -0.10237072               -0.10247728                0.34115430               -0.00002262                0.00169547                0.00050780
               9.00000000                9.00000000               45.00000000                0.73251845               -0.10413322               -0.10413304                0.34715624               -0.00016039                0.00054754                0.00054698
              10.00000000                9.00000000               45.00000000                0.91301218               -0.10502812               -0.10579964                0.35311371               -0.00097181                0.00015481                0.00053947
               0.00000000               10.00000000               45.00000000                0.95304286               -0.08615515               -0.08417186                0.28353597                0.00000327                0.00044770                0.00009433
               1.00000000               10.00000000               45.00000000                0.76576882               -0.08778753               -0.08583583                0.28950612               -0.00017856                0.00262307               -0.00037388
               2.00000000               10.00000000               45.00000000                0.59603433               -0.10001715               -0.08720974                0.29572977                0.02039206                0.05975248               -0.00020158
               3.00000000               10.00000000               45.00000000                0.60330236               -0.10087434               -0.09178703                0.30895594                0.01118399                0.09645749               -0.00354965
               4.00000000               10.00000000               45.00000000                0.63405830               -0.09082275               -0.09656440                0.31994798                0.00818500                0.05531460               -0.00158548
               5.00000000               10.00000000               45.00000000                0.67141129               -0.09281471               -0.09842046                0.32791407                0.00319431                0.02230042               -0.00049816
               6.00000000               10.00000000               45.00000000                0.71600572               -0.09712034               -0.10008632                0.33470283                0.00069543                0.00940528               -0.00008056
               7.00000000               10.00000000               45.00000000                0.76950866               -0.10068376               -0.10171672                0.34101000               -0.00037029                0.00404610                0.00007967
               8.00000000               10.00000000               45.00000000                0.83416400               -0.10350237               -0.10336831                0.34711011               -0.00081917                0.00165790                0.00013834
               9.00000000               10.00000000               45.00000000                0.91301232               -0.10579975               -0.10502802                0.35311346               -0.00097172                0.00053903                0.00015427
              10.00000000               10.00000000               45.00000000                0.98237317               -0.10683983               -0.10683975                0.35907099               -0.00193529                0.00015622                0.00015649
               0.00000000                0.00000000               46.00000000                0.75008429               -0.06747900               -0.06747882                0.22400259                0.00216544               -0.00030754               -0.00030805
               1.00000000                0.00000000               46.00000000                0.49547348               -0.06673794               -0.07049460                0.23002997                0.00275269               -0.00156067               -0.00020897
               2.00000000                0.00000000               46.00000000                0.49743887               -0.06755123               -0.07146622                0.23591172                0.00100953               -0.00290434               -0.00006019
               3.00000000                0.00000000               46.00000000                0.51764464               -0.07061688               -0.07338006                0.24174610                0.00109377               -0.00320841               -0.00004848
               4.00000000                0.00000000               46.00000000                0.54649793               -0.07352092               -0.07514853                0.24757082                0.00108495               -0.00312086               -0.00002269
               5.00000000                0.00000000               46.00000000                0.58443447               -0.07614359               -0.07693111                0.25341006                0.00112858               -0.00276065               -0.00001333
               6.00000000                0.00000000               46.00000000                0.63223187               -0.07843071               -0.07869691                0.25928113                0.00115997               -0.00219253               -0.00001677
               7.00000000                0.00000000               46.00000000                0.69088463               -0.08037183               -0.08044649                0.26519633                0.00115122               -0.00149866               -0.00001248
               8.00000000                0.00000000               46.00000000                0.76164330               -0.08198983               -0.08219327                0.27116236                0.00106687               -0.00078239                0.00003450
               9.00000000                0.00000000               46.00000000                0.84609264               -0.08341068               -0.08397657                0.27717428                0.00096923               -0.00019830                0.00013838
              10.00000000                0.00000000               46.00000000                0.95298441               -0.08409748               -0.08606240                0.28322097               -0.00000272                0.00008696                0.00046796
               0.00000000                1.00000000               46.00000000                0.49547304               -0.07049463               -0.06673776                0.23002935                0.00275285               -0.00020913               -0.00156122
               1.00000000                1.00000000               46.00000000                0.01000001               -0.07318496               -0.07318493                0.23606487                0.00538401               -0.00162754               -0.00162720
               2.00000000                1.00000000               46.00000000                0.01000000               -0.07615075               -0.06758343                0.24195183                0.01521851               -0.00381072                0.00731542
               3.00000000                1.00000000               46.00000000                0.01000001               -0.07653612               -0.06319889                0.24776994                0.01645092               -0.00475558                0.01539782
               4.00000000                1.00000000               46.00000000                0.04155050               -0.07691157               -0.07420355                0.25357537                0.00307578               -0.00490159               -0.00078956
               5.00000000                1.00000000               46.00000000                0.09204472               -0.07763947               -0.07723609                0.25939392                0.00284576               -0.00452434               -0.00154581
               6.00000000                1.00000000               46.00000000                0.15573425               -0.07879982               -0.07925522                0.26524584                0.00281206               -0.00375233               -0.00065092
               7.00000000                1.00000000               46.00000000                0.23454765               -0.08043534               -0.08096597                0.27114636                0.00233971               -0.00275172                0.00046341
               8.00000000                1.00000000               46.00000000                0.33103240               -0.08248971               -0.08270409                0.27710456                0.00155904               -0.00172673                0.00140312
               9.00000000                1.00000000               46.00000000                0.44849785               -0.08467023               -0.08457883                0.28311574                0.00084580               -0.00084157                0.00214082
              10.00000000                1.00000000               46.00000000                0.76568710               -0.08573391               -0.08773307                0.28916441               -0.00013075               -0.00039000                0.00277837
               0.00000000                2.00000000               46.00000000                0.49743830               -0.07146662               -0.06755107                0.23591140                0.00100956               -0.00006009               -0.00290465
               1.00000000                2.00000000               46.00000000                0.01000000               -0.06758346               -0.07615078                0.24195265                0.01521858                0.00731476               -0.00380978
               2.00000000                2.00000000               46.00000000                0.01000001               -0.07217699               -0.07217782                0.24885249                0.04561443                0.01371225                0.01371271
               3.00000000                2.00000000               46.00000000                0.01000000               -0.09434072               -0.05751902                0.25560705                0.04361894               -0.01264093                0.03628512
               4.00000000                2.00000000               46.00000000                0.01000000               -0.09400916               -0.05505464                0.25954370                0.04469004               -0.02332959                0.06755124
               5.00000000                2.00000000               46.00000000                0.01000001               -0.07949192               -0.04968815                0.26522615                0.05574561               -0.00586786                0.10226706
               6.00000000                2.00000000               46.00000000                0.02637646               -0.07972362               -0.05209105                0.27115218                0.05085459               -0.00304892                0.10080829
               7.00000000                2.00000000               46.00000000                0.05982807               -0.08165142               -0.06231910                0.27716583                0.04240436               -0.00182092                0.08540200
               8.00000000                2.00000000               46.00000000                0.10187406               -0.08411514               -0.07168421                0.28321882                0.03329139               -0.00105277                0.07376637
               9.00000000                2.00000000               46.00000000                0.15485060               -0.08622920               -0.08044266                0.28929584                0.02532985               -0.00050396                0.06597119
              10.00000000                2.00000000               46.00000000                0.59601182               -0.08707700               -0.10049608                0.29536814                0.02166048               -0.00020003                0.06362930
               0.00000000                3.00000000               46.00000000                0.51764725               -0.07337971               -0.07061628                0.24174388                0.00109331               -0.00004822               -0.00320854
               1.00000000                3.00000000               46.00000000                0.01000001               -0.06319862               -0.07653568                0.24776891                0.01645075                0.01539658               -0.00475457
               2.00000000                3.00000000               46.00000000                0.01000000               -0.05751610               -0.09433770                0.25560540                0.04361746                0.03628293               -0.01264087
               3.00000000                3.00000000               46.00000000                0.01000000               -0.06535117               -0.06535458                0.26394406                0.07101851                0.05130921                0.05129467
               4.00000000                3.00000000               46.00000000                0.01197269               -0.07316947               -0.04992851                0.27349631                0.08881540                0.06459221                0.11799359
               5.00000000                3.00000000               46.00000000                0.02055484               -0.08484901               -0.05047211                0.28344082                0.08257503                0.03166101                0.13204149
               6.00000000                3.00000000               46.00000000                0.04910569               -0.09450473               -0.05670785                0.28917990                0.06067050               -0.01809411                0.12757435
               7.00000000                3.00000000               46.00000000                0.08328153               -0.09814948               -0.06492741                0.29332479                0.04680229               -0.02772640                0.12015565
               8.00000000                3.00000000               46.00000000                0.12403450               -0.09880188               -0.07380473                0.29795368                0.04221184               -0.01956598                0.11301051
               9.00000000                3.00000000               46.00000000                0.17258109               -0.09505505               -0.08479573                0.30307871                0.02753734               -0.00968126                0.10736561
              10.00000000                3.00000000               46.00000000                0.60330483               -0.09184261               -0.10119099                0.30888887                0.01192600               -0.00375625                0.10275447
               0.00000000                4.00000000               46.00000000                0.54650154               -0.07514701               -0.07351945                0.24756579                0.00108457               -0.00002272               -0.00312125
               1.00000000                4.00000000               46.00000000                0.04155472               -0.07420166               -0.07691024                0.25357159                0.00307883               -0.00079019               -0.00490092
               2.00000000                4.00000000               46.00000000                0.01000000               -0.05505182               -0.09400615                0.25952986                0.04468718                0.06753181               -0.02332937
               3.00000000                4.00000000               46.00000000                0.01197200               -0.04992300               -0.07316824                0.27347321                0.08880188                0.11798180                0.06457064
               4.00000000                4.00000000               46.00000000                0.02051679               -0.07517615               -0.07517777                0.28515625                0.05116099                0.06091742                0.06089475
               5.00000000                4.00000000               46.00000000                0.04900720               -0.09025960               -0.08602843                0.29247691                0.03314468                0.00764383                0.03109461
               6.00000000                4.00000000               46.00000000                0.08305684               -0.09372647               -0.09189606                0.29793713                0.02654717               -0.00966371                0.03308692
               7.00000000                4.00000000               46.00000000                0.12355406               -0.09464405               -0.09136788                0.30324474                0.02547614               -0.01056881                0.04683556
               8.00000000                4.00000000               46.00000000                0.17160533               -0.09479276               -0.09261309                0.30862016                0.02491881               -0.00831016                0.05572925
               9.00000000                4.00000000               46.00000000                0.22860988               -0.09566047               -0.09590516                0.31420339                0.01813672               -0.00406717                0.06031638
              10.00000000                4.00000000               46.00000000                0.63406121               -0.09673615               -0.09043636                0.32007479                0.00875930               -0.00167838                0.05892417
               0.00000000                5.00000000               46.00000000                0.58443841               -0.07692908               -0.07614159                0.25340333                0.00112838               -0.00001342               -0.00276161
               1.00000000                5.00000000               46.00000000                0.09204719               -0.07723444               -0.07763762                0.25938854                0.00284720               -0.00155024               -0.00452425
               2.00000000                5.00000000               46.00000000                0.01000001               -0.04968935               -0.07949330                0.26523462                0.05574261                0.10224198               -0.00586530
               3.00000000                5.00000000               46.00000000                0.02055511               -0.05046938               -0.08484841                0.28343580                0.08256653                0.13202828                0.03166931
               4.00000000                5.00000000               46.00000000                0.04900846               -0.08602270               -0.09025605                0.29245528                0.03313757                0.03111228                0.00763943
               5.00000000                5.00000000               46.00000000                0.08306062               -0.09349917               -0.09349896                0.29885006                0.02302567                0.00461093                0.00459566
               6.00000000                5.00000000               46.00000000                0.12356200               -0.09421940               -0.09522592                0.30481825                0.01831530               -0.00064531                0.01185729
               7.00000000                5.00000000               46.00000000                0.17162238               -0.09451576               -0.09684620                0.31061537                0.01515092               -0.00248988                0.01801125
               8.00000000                5.00000000               46.00000000                0.22863646               -0.09508957               -0.09847200                0.31638168                0.01210684               -0.00240320                0.02239607
               9.00000000                5.00000000               46.00000000                0.29638193               -0.09704629               -0.09838839                0.32219786                0.00720510               -0.00120036                0.02448766
              10.00000000                5.00000000               46.00000000                0.67142092               -0.09855892               -0.09248113                0.32810492                0.00345337               -0.00052744                0.02376782
               0.00000000                6.00000000               46.00000000                0.63223336               -0.07869441               -0.07842866                0.25927333                0.00115995               -0.00001685               -0.00219342
               1.00000000                6.00000000               46.00000000                0.15573741               -0.07925338               -0.07879794                0.26523945                0.00281159               -0.00064958               -0.00375209
               2.00000000                6.00000000               46.00000000                0.02637836               -0.05209018               -0.07972358                0.27115257                0.05084996                0.10079680               -0.00304189
               3.00000000                6.00000000               46.00000000                0.04910955               -0.05670606               -0.09450464                0.28917533                0.06066807                0.12756204               -0.01807790
               4.00000000                6.00000000               46.00000000                0.08305831               -0.09189384               -0.09372442                0.29793234                0.02654603                0.03308891               -0.00965543
               5.00000000                6.00000000               46.00000000                0.12356336               -0.09522540               -0.09421761                0.30481516                0.01831393                0.01186333               -0.00064925
               6.00000000                6.00000000               46.00000000                0.17163160               -0.09583260               -0.09583220                0.31110556                0.01253898                0.00443256                0.00442831
               7.00000000                6.00000000               46.00000000                0.22866500               -0.09618866               -0.09780280                0.31714205                0.00850030                0.00126546                0.00763718
               8.00000000                6.00000000               46.00000000                0.29643062               -0.09704502               -0.09934637                0.32307897                0.00536156                0.00010615                0.00959264
               9.00000000                6.00000000               46.00000000                0.37721337               -0.09893424               -0.09944284                0.32899064                0.00261673               -0.00006983                0.01038520
              10.00000000                6.00000000               46.00000000                0.71602298               -0.10019779               -0.09695792                0.33491180                0.00079711               -0.00008498                0.01003137
               0.00000000                7.00000000               46.00000000                0.69088842               -0.08044436               -0.08037005                0.26518924                0.00115130               -0.00001237               -0.00149868
               1.00000000                7.00000000               46.00000000                0.23455663               -0.08096414               -0.08043379                0.27114061                0.00233908                0.00046712               -0.00275076
               2.00000000                7.00000000               46.00000000                0.05983111               -0.06231815               -0.08165007                0.27716103                0.04240035                0.08539397               -0.00182084
               3.00000000                7.00000000               46.00000000                0.08328603               -0.06492556               -0.09814676                0.29331475                0.04679795                0.12013777               -0.02772360
               4.00000000                7.00000000               46.00000000                0.12355663               -0.09136575               -0.09464280                0.30323865                0.02547480                0.04683038               -0.01056645
               5.00000000                7.00000000               46.00000000                0.17162412               -0.09684587               -0.09451504                0.31061436                0.01515029                0.01801415               -0.00249130
               6.00000000                7.00000000               46.00000000                0.22866417               -0.09780295               -0.09618833                0.31714236                0.00850030                0.00764118                0.00126296
               7.00000000                7.00000000               46.00000000                0.29644837               -0.09823614               -0.09823613                0.32331572                0.00446179                0.00316677                0.00316425
               8.00000000                7.00000000               46.00000000                0.37724900               -0.09915838               -0.09991790                0.32933547                0.00205248                0.00119888                0.00412149
               9.00000000                7.00000000               46.00000000                0.47403521               -0.10079918               -0.10080035                0.33528998                0.00072541                0.00037577                0.00445294
              10.00000000                7.00000000               46.00000000                0.76953417               -0.10180694               -0.10063564                0.34121807               -0.00033543                0.00008719                0.00431910
               0.00000000                8.00000000               46.00000000                0.76165040               -0.08219116               -0.08198781                0.27115458                0.00106664                0.00003434               -0.00078204
               1.00000000                8.00000000               46.00000000                0.33104012               -0.08270214               -0.08248802                0.27709813                0.00155874                0.00140354               -0.00172562
               2.00000000                8.00000000               46.00000000                0.10187842               -0.07168308               -0.08411372                0.28321398                0.03328881                0.07375544               -0.00105531
               3.00000000                8.00000000               46.00000000                0.12403968               -0.07380335               -0.09879941                0.29794618                0.04220785                0.11299538               -0.01956651
               4.00000000                8.00000000               46.00000000                0.17160937               -0.09261139               -0.09479187                0.30861781                0.02491632                0.05572500               -0.00830850
               5.00000000                8.00000000               46.00000000                0.22864025               -0.09847120               -0.09508888                0.31637928                0.01210609                0.02239584               -0.00240252
               6.00000000                8.00000000               46.00000000                0.29643181               -0.09934607               -0.09704469                0.32307849                0.00536159                0.00959501                0.00010563
               7.00000000                8.00000000               46.00000000                0.37725143               -0.09991778               -0.09915825                0.32933501                0.00205264                0.00412347                0.00119746
               8.00000000                8.00000000               46.00000000                0.47405350               -0.10099047               -0.10099044                0.33539851                0.00049764                0.00166671                0.00166675
               9.00000000                8.00000000               46.00000000                0.59074881               -0.10255234               -0.10243320                0.34137225               -0.00002498                0.00054195                0.00180807
              10.00000000                8.00000000               46.00000000                0.83419907               -0.10344044               -0.10351603                0.34730319               -0.00081227                0.00014872                0.00177141
               0.00000000                9.00000000               46.00000000                0.84610564               -0.08397364               -0.08340775                0.27716403                0.00096880                0.00013799               -0.00019827
               1.00000000                9.00000000               46.00000000                0.44851153               -0.08457617               -0.08466769                0.28310668                0.00084565                0.00214001               -0.00084087
               2.00000000                9.00000000               46.00000000                0.15485606               -0.08044160               -0.08622701                0.28928813                0.02532816                0.06595875               -0.00050394
               3.00000000                9.00000000               46.00000000                0.17258529               -0.08479499               -0.09505274                0.30307295                0.02753464                0.10734966               -0.00968088
               4.00000000                9.00000000               46.00000000                0.22861652               -0.09590363               -0.09565926                0.31419935                0.01813485                0.06031105               -0.00406802
               5.00000000                9.00000000               46.00000000                0.29638640               -0.09838743               -0.09704547                0.32219477                0.00720485                0.02448658               -0.00120065
               6.00000000                9.00000000               46.00000000                0.37721596               -0.09944228               -0.09893375                0.32898897                0.00261664                0.01038532               -0.00007045
               7.00000000                9.00000000               46.00000000                0.47403685               -0.10079994               -0.10079873                0.33528834                0.00072563                0.00445447                0.00037378
               8.00000000                9.00000000               46.00000000                0.59075085               -0.10243306               -0.10255211                0.34137168               -0.00002479                0.00180876                0.00054185
               9.00000000                9.00000000               46.00000000                0.73260007               -0.10419116               -0.10419110                0.34735335               -0.00017029                0.00058441                0.00058500
              10.00000000                9.00000000               46.00000000                0.91305264               -0.10508460               -0.10583902                0.35328572               -0.00097189                0.00016520                0.00057747
               0.00000000               10.00000000               46.00000000                0.95298924               -0.08605879               -0.08409405                0.28320879               -0.00000328                0.00046730                0.00008691
               1.00000000               10.00000000               46.00000000                0.76569541               -0.08772960               -0.08573085                0.28915328               -0.00013108                0.00277689               -0.00038930
               2.00000000               10.00000000               46.00000000                0.59601573               -0.10049361               -0.08707429                0.29535797                0.02165886                0.06361584               -0.00019890
               3.00000000               10.00000000               46.00000000                0.60330678               -0.10119034               -0.09184009                0.30888247                0.01192446                0.10273741               -0.00375655
               4.00000000               10.00000000               46.00000000                0.63406503               -0.09043639               -0.09673443                0.32006810                0.00875745                0.05891792               -0.00167999
               5.00000000               10.00000000               46.00000000                0.67142401               -0.09248082               -0.09855811                0.32810092                0.00345282                0.02376620               -0.00052795
               6.00000000               10.00000000               46.00000000                0.71602349               -0.09695734               -0.10019724                0.33490897                0.00079699                0.01002998               -0.00008591
               7.00000000               10.00000000               46.00000000                0.76953534               -0.10063491               -0.10180632                0.34121528               -0.00033529                0.00431974                0.00008501
               8.00000000               10.00000000               46.00000000                0.83420006               -0.10351562               -0.10344014                0.34730201               -0.00081224                0.00177228                0.00014831
               9.00000000               10.00000000               46.00000000                0.91305480               -0.10583893               -0.10508451                0.35328536               -0.00097191                0.00057673                0.00016588
              10.00000000               10.00000000               46.00000000                0.98239300               -0.10688447               -0.10688449                0.35921820               -0.00192918                0.00016728                0.00016825
               0.00000000                0.00000000               47.00000000                0.75013415               -0.06759993               -0.06759956                0.22455249                0.00215291               -0.00032683               -0.00032654
               1.00000000                0.00000000               47.00000000                0.49554292               -0.06674867               -0.07065485                0.23050022                0.00285347               -0.00166383               -0.00021946
               2.00000000                0.00000000               47.00000000                0.49747455               -0.06748091               -0.07155505                0.23629102                0.00100761               -0.00310944               -0.00005891
               3.00000000                0.00000000               47.00000000                0.51767350               -0.07060125               -0.07345065                0.24203034                0.00109613               -0.00344568               -0.00004784
               4.00000000                0.00000000               47.00000000                0.54652097               -0.07354763               -0.07519255                0.24775807                0.00108711               -0.00335993               -0.00002209
               5.00000000                0.00000000               47.00000000                0.58444341               -0.07619338               -0.07694968                0.25350072                0.00113349               -0.00297943               -0.00001331
               6.00000000                0.00000000               47.00000000                0.63222501               -0.07848231               -0.07868963                0.25927834                0.00116658               -0.00237305               -0.00001770
               7.00000000                0.00000000               47.00000000                0.69085590               -0.08040386               -0.08041246                0.26510351                0.00115659               -0.00163012               -0.00001285
               8.00000000                0.00000000               47.00000000                0.76159052               -0.08198258               -0.08213163                0.27098191                0.00106663               -0.00086265                0.00003776
               9.00000000                0.00000000               47.00000000                0.84600584               -0.08335373               -0.08389026                0.27690835                0.00096058               -0.00023310                0.00014863
              10.00000000                0.00000000               47.00000000                0.95292351               -0.08401499               -0.08596040                0.28287436               -0.00001002                0.00007590                0.00048501
               0.00000000                1.00000000               47.00000000                0.49554941               -0.07065471               -0.06674806                0.23049852                0.00285320               -0.00022072               -0.00166281
               1.00000000                1.00000000               47.00000000                0.01000001               -0.07344222               -0.07344196                0.23645545                0.00570865               -0.00172362               -0.00172091
               2.00000000                1.00000000               47.00000000                0.01000000               -0.07645279               -0.06740368                0.24225597                0.01609802               -0.00402867                0.00774613
               3.00000000                1.00000000               47.00000000                0.01000001               -0.07672465               -0.06266577                0.24798411                0.01741065               -0.00502236                0.01631260
               4.00000000                1.00000000               47.00000000                0.04156643               -0.07698836               -0.07412995                0.25369966                0.00330013               -0.00517368               -0.00081259
               5.00000000                1.00000000               47.00000000                0.09204511               -0.07762789               -0.07721143                0.25942955                0.00304858               -0.00477517               -0.00162335
               6.00000000                1.00000000               47.00000000                0.15571989               -0.07872774               -0.07922408                0.26519583                0.00299999               -0.00395946               -0.00068204
               7.00000000                1.00000000               47.00000000                0.23451329               -0.08033213               -0.08090810                0.27101363                0.00249042               -0.00290117                0.00050331
               8.00000000                1.00000000               47.00000000                0.33096319               -0.08237981               -0.08261826                0.27689052                0.00165671               -0.00181572                0.00149985
               9.00000000                1.00000000               47.00000000                0.44837190               -0.08456099               -0.08447221                0.28282199                0.00089651               -0.00087973                0.00227753
              10.00000000                1.00000000               47.00000000                0.76560464               -0.08562365               -0.08767058                0.28879194               -0.00008171               -0.00040340                0.00293274
               0.00000000                2.00000000               47.00000000                0.49747789               -0.07155479               -0.06748013                0.23628890                0.00100757               -0.00005912               -0.00310996
               1.00000000                2.00000000               47.00000000                0.01000000               -0.06740305               -0.07645219                0.24225507                0.01609721                0.00774405               -0.00402734
               2.00000000                2.00000000               47.00000000                0.01000001               -0.07212433               -0.07212490                0.24909763                0.04819041                0.01450936                0.01450966
               3.00000000                2.00000000               47.00000000                0.01000000               -0.09537383               -0.05654719                0.25580006                0.04611826               -0.01335238                0.03839110
               4.00000000                2.00000000               47.00000000                0.01000000               -0.09489873               -0.05382967                0.25960666                0.04727027               -0.02461409                0.07155931
               5.00000000                2.00000000               47.00000000                0.01000001               -0.07946014               -0.04805704                0.26523163                0.05893794               -0.00615102                0.10839337
               6.00000000                2.00000000               47.00000000                0.02637616               -0.07958197               -0.05045109                0.27106594                0.05378418               -0.00316351                0.10690552
               7.00000000                2.00000000               47.00000000                0.05982480               -0.08149622               -0.06109148                0.27700570                0.04485849               -0.00186466                0.09063812
               8.00000000                2.00000000               47.00000000                0.10186594               -0.08398155               -0.07082672                0.28298248                0.03522500               -0.00106519                0.07834344
               9.00000000                2.00000000               47.00000000                0.15482611               -0.08609877               -0.07992750                0.28898554                0.02679982               -0.00050368                0.07011414
              10.00000000                2.00000000               47.00000000                0.59599318               -0.08693605               -0.10097979                0.29497827                0.02295742               -0.00019668                0.06766095
               0.00000000                3.00000000               47.00000000                0.51767274               -0.07345044               -0.07060037                0.24202816                0.00109600               -0.00004813               -0.00344814
               1.00000000                3.00000000               47.00000000                0.01000001               -0.06266516               -0.07672396                0.24798316                0.01740974                0.01630886               -0.00502374
               2.00000000                3.00000000               47.00000000                0.01000000               -0.05654752               -0.09537112                0.25579737                0.04611827                0.03838954               -0.01335167
               3.00000000                3.00000000               47.00000000                0.01000000               -0.06464923               -0.06465035                0.26412587                0.07498683                0.05429861                0.05428329
               4.00000000                3.00000000               47.00000000                0.01197349               -0.07271964               -0.04827437                0.27371075                0.09377747                0.06841216                0.12493277
               5.00000000                3.00000000               47.00000000                0.02055577               -0.08491148               -0.04872792                0.28372919                0.08723674                0.03356713                0.13986087
               6.00000000                3.00000000               47.00000000                0.04910687               -0.09502110               -0.05516973                0.28944878                0.06416743               -0.01913437                0.13519831
               7.00000000                3.00000000               47.00000000                0.08328810               -0.09878045               -0.06369181                0.29348781                0.04953236               -0.02934597                0.12742423
               8.00000000                3.00000000               47.00000000                0.12404201               -0.09937878               -0.07290276                0.29802062                0.04466827               -0.02070677                0.11994082
               9.00000000                3.00000000               47.00000000                0.17259146               -0.09533383               -0.08434500                0.30306474                0.02913930               -0.01023186                0.11405183
              10.00000000                3.00000000               47.00000000                0.60330894               -0.09189578               -0.10151124                0.30880765                0.01268372               -0.00396228                0.10931901
               0.00000000                4.00000000               47.00000000                0.54652127               -0.07519178               -0.07354617                0.24775360                0.00108683               -0.00002221               -0.00336087
               1.00000000                4.00000000               47.00000000                0.04157153               -0.07412908               -0.07698709                0.25369637                0.00330182               -0.00081133               -0.00517347
               2.00000000                4.00000000               47.00000000                0.01000000               -0.05383265               -0.09489572                0.25959605                0.04726842                0.07153850               -0.02461398
               3.00000000                4.00000000               47.00000000                0.01197184               -0.04827447               -0.07272457                0.27373362                0.09378029                0.12492871                0.06841214
               4.00000000                4.00000000               47.00000000                0.02051706               -0.07472120               -0.07472669                0.28549145                0.05404525                0.06453154                0.06450680
               5.00000000                4.00000000               47.00000000                0.04900950               -0.09051220               -0.08605547                0.29283924                0.03500183                0.00812141                0.03292406
               6.00000000                4.00000000               47.00000000                0.08306139               -0.09407363               -0.09214015                0.29826424                0.02804423               -0.01022161                0.03504586
               7.00000000                4.00000000               47.00000000                0.12356064               -0.09494288               -0.09146898                0.30351809                0.02692295               -0.01118482                0.04963783
               8.00000000                4.00000000               47.00000000                0.17161503               -0.09500224               -0.09265126                0.30884278                0.02633815               -0.00879260                0.05911745
               9.00000000                4.00000000               47.00000000                0.22862477               -0.09582140               -0.09598217                0.31437273                0.01917700               -0.00430326                0.06405161
              10.00000000                4.00000000               47.00000000                0.63407058               -0.09690882               -0.09004110                0.32019491                0.00934443               -0.00177315                0.06269222
               0.00000000                5.00000000               47.00000000                0.58444697               -0.07694830               -0.07619152                0.25349435                0.00113330               -0.00001344               -0.00297898
               1.00000000                5.00000000               47.00000000                0.09204952               -0.07721013               -0.07762622                0.25942436                0.00304969               -0.00161794               -0.00477362
               2.00000000                5.00000000               47.00000000                0.01000001               -0.04805233               -0.07946094                0.26523312                0.05893225                0.10838835               -0.00614964
               3.00000000                5.00000000               47.00000000                0.02055710               -0.04872567               -0.08491325                0.28374833                0.08723826                0.13984366                0.03357470
               4.00000000                5.00000000               47.00000000                0.04900897               -0.08605694               -0.09051491                0.29284104                0.03500603                0.03292433                0.00811552
               5.00000000                5.00000000               47.00000000                0.08306233               -0.09382367               -0.09382378                0.29921268                0.02430921                0.00487554                0.00486088
               6.00000000                5.00000000               47.00000000                0.12356930               -0.09447621               -0.09553641                0.30514863                0.01934109               -0.00067839                0.01254902
               7.00000000                5.00000000               47.00000000                0.17163416               -0.09468636               -0.09713622                0.31091653                0.01600452               -0.00263227                0.01908029
               8.00000000                5.00000000               47.00000000                0.22865533               -0.09518960               -0.09873500                0.31664853                0.01279248               -0.00254390                0.02375501
               9.00000000                5.00000000               47.00000000                0.29640513               -0.09715353               -0.09852115                0.32242830                0.00761619               -0.00127542                0.02601199
              10.00000000                5.00000000               47.00000000                0.67143378               -0.09870024               -0.09214147                0.32829908                0.00371754               -0.00056021                0.02531017
               0.00000000                6.00000000               47.00000000                0.63222545               -0.07868801               -0.07848062                0.25927194                0.00116638               -0.00001758               -0.00237236
               1.00000000                6.00000000               47.00000000                0.15572252               -0.07922278               -0.07872627                0.26519066                0.00299922               -0.00067947               -0.00395781
               2.00000000                6.00000000               47.00000000                0.02637952               -0.05044807               -0.07958229                0.27106717                0.05377936                0.10689248               -0.00316504
               3.00000000                6.00000000               47.00000000                0.04910990               -0.05516711               -0.09501770                0.28943768                0.06416026                0.13518133               -0.01913812
               4.00000000                6.00000000               47.00000000                0.08306271               -0.09214016               -0.09407428                0.29826598                0.02804463                0.03504952               -0.01021476
               5.00000000                6.00000000               47.00000000                0.12357109               -0.09553655               -0.09447594                0.30514625                0.01934127                0.01255546               -0.00068189
               6.00000000                6.00000000               47.00000000                0.17164480               -0.09606796               -0.09606792                0.31142203                0.01324182                0.00469135                0.00468828
               7.00000000                6.00000000               47.00000000                0.22868234               -0.09633930               -0.09803792                0.31743935                0.00897854                0.00133995                0.00809060
               8.00000000                6.00000000               47.00000000                0.29645925               -0.09713946               -0.09955544                0.32335253                0.00566483                0.00011336                0.01017842
               9.00000000                6.00000000               47.00000000                0.37725049               -0.09902975               -0.09954085                0.32923552                0.00276469               -0.00007700                0.01104145
              10.00000000                6.00000000               47.00000000                0.71604327               -0.10031167               -0.09679312                0.33512612                0.00090080               -0.00009231                0.01069545
               0.00000000                7.00000000               47.00000000                0.69086280               -0.08041043               -0.08040202                0.26509648                0.00115620               -0.00001293               -0.00162958
               1.00000000                7.00000000               47.00000000                0.23452249               -0.08090606               -0.08033056                0.27100760                0.00249002                0.00050406               -0.00289973
               2.00000000                7.00000000               47.00000000                0.05982941               -0.06109002               -0.08149446                0.27699737                0.04485594                0.09062400               -0.00186365
               3.00000000                7.00000000               47.00000000                0.08329031               -0.06369018               -0.09877691                0.29347815                0.04952628                0.12740668               -0.02934140
               4.00000000                7.00000000               47.00000000                0.12356214               -0.09146724               -0.09494227                0.30351774                0.02692095                0.04963800               -0.01118217
               5.00000000                7.00000000               47.00000000                0.17163568               -0.09713573               -0.09468654                0.31091644                0.01600518                0.01908571               -0.00263460
               6.00000000                7.00000000               47.00000000                0.22868288               -0.09803809               -0.09633947                0.31744092                0.00897901                0.00809370                0.00133740
               7.00000000                7.00000000               47.00000000                0.29647589               -0.09839071               -0.09839060                0.32359964                0.00471352                0.00335831                0.00335659
               8.00000000                7.00000000               47.00000000                0.37729197               -0.09926043               -0.10005628                0.32960124                0.00216896                0.00127554                0.00437932
               9.00000000                7.00000000               47.00000000                0.47408943               -0.10088781               -0.10087593                0.33553104                0.00076619                0.00039772                0.00474329
              10.00000000                7.00000000               47.00000000                0.76956361               -0.10189898               -0.10058724                0.34143112               -0.00029958                0.00009067                0.00461448
               0.00000000                8.00000000               47.00000000                0.76159872               -0.08212862               -0.08197992                0.27097226                0.00106621                0.00003775               -0.00086341
               1.00000000                8.00000000               47.00000000                0.33097478               -0.08261553               -0.08237750                0.27688188                0.00165654                0.00150129               -0.00181569
               2.00000000                8.00000000               47.00000000                0.10186990               -0.07082548               -0.08397939                0.28297537                0.03522289                0.07833219               -0.00106439
               3.00000000                8.00000000               47.00000000                0.12404804               -0.07290172               -0.09937645                0.29801471                0.04466390                0.11992455               -0.02070177
               4.00000000                8.00000000               47.00000000                0.17162037               -0.09264950               -0.09500055                0.30883739                0.02633474                0.05911202               -0.00878972
               5.00000000                8.00000000               47.00000000                0.22865734               -0.09873416               -0.09518941                0.31664697                0.01279209                0.02375471               -0.00254461
               6.00000000                8.00000000               47.00000000                0.29646027               -0.09955535               -0.09713938                0.32335260                0.00566573                0.01018039                0.00011138
               7.00000000                8.00000000               47.00000000                0.37729161               -0.10005622               -0.09926033                0.32960073                0.00216943                0.00438081                0.00127395
               8.00000000                8.00000000               47.00000000                0.47411138               -0.10108554               -0.10108562                0.33564767                0.00052670                0.00177592                0.00177454
               9.00000000                8.00000000               47.00000000                0.59082299               -0.10263010               -0.10249879                0.34159955               -0.00002581                0.00057831                0.00193160
              10.00000000                8.00000000               47.00000000                0.83423718               -0.10351507               -0.10353142                0.34750487               -0.00080474                0.00015891                0.00189891
               0.00000000                9.00000000               47.00000000                0.84601353               -0.08388682               -0.08335038                0.27689721                0.00096032                0.00014887               -0.00023453
               1.00000000                9.00000000               47.00000000                0.44838600               -0.08446903               -0.08455794                0.28281166                0.00089603                0.00227803               -0.00088063
               2.00000000                9.00000000               47.00000000                0.15483383               -0.07992603               -0.08609596                0.28897595                0.02679761                0.07010389               -0.00050496
               3.00000000                9.00000000               47.00000000                0.17259456               -0.08434483               -0.09533208                0.30306115                0.02913697                0.11403570               -0.01023027
               4.00000000                9.00000000               47.00000000                0.22863139               -0.09598098               -0.09581942                0.31436798                0.01917411                0.06404447               -0.00430425
               5.00000000                9.00000000               47.00000000                0.29641151               -0.09851956               -0.09715198                0.32242313                0.00761535                0.02601092               -0.00127482
               6.00000000                9.00000000               47.00000000                0.37725500               -0.09954027               -0.09902904                0.32923340                0.00276551                0.01104167               -0.00007693
               7.00000000                9.00000000               47.00000000                0.47408981               -0.10087582               -0.10088771                0.33553071                0.00076650                0.00474344                0.00039742
               8.00000000                9.00000000               47.00000000                0.59082519               -0.10249851               -0.10263001                0.34159875               -0.00002599                0.00193220                0.00057790
               9.00000000                9.00000000               47.00000000                0.73268980               -0.10425222               -0.10425236                0.34756105               -0.00017960                0.00062706                0.00062692
              10.00000000                9.00000000               47.00000000                0.91309893               -0.10514448               -0.10588165                0.35346965               -0.00097198                0.00017823                0.00062111
               0.00000000               10.00000000               47.00000000                0.95293301               -0.08595682               -0.08401144                0.28286249               -0.00001025                0.00048499                0.00007458
               1.00000000               10.00000000               47.00000000                0.76561252               -0.08766694               -0.08562033                0.28878062               -0.00008217                0.00293231               -0.00040427
               2.00000000               10.00000000               47.00000000                0.59599657               -0.10097652               -0.08693267                0.29496630                0.02295457                0.06765010               -0.00019752
               3.00000000               10.00000000               47.00000000                0.60331148               -0.10151084               -0.09189424                0.30880388                0.01268234                0.10930229               -0.00396219
               4.00000000               10.00000000               47.00000000                0.63407379               -0.09004169               -0.09690691                0.32019040                0.00934328                0.06268487               -0.00177465
               5.00000000               10.00000000               47.00000000                0.67143637               -0.09214046               -0.09869793                0.32829207                0.00371669                0.02530942               -0.00055959
               6.00000000               10.00000000               47.00000000                0.71604529               -0.09679254               -0.10031074                0.33512281                0.00090048                0.01069467               -0.00009134
               7.00000000               10.00000000               47.00000000                0.76956434               -0.10058704               -0.10189901                0.34143059               -0.00029966                0.00461353                0.00009091
               8.00000000               10.00000000               47.00000000                0.83423914               -0.10353084               -0.10351489                0.34750322               -0.00080481                0.00189864                0.00015917
               9.00000000               10.00000000               47.00000000                0.91310088               -0.10588109               -0.10514441                0.35346831               -0.00097215                0.00062070                0.00017851
              10.00000000               10.00000000               47.00000000                0.98241675               -0.10693274               -0.10693309                0.35937796               -0.00192352                0.00018080                0.00018118
               0.00000000                0.00000000               48.00000000                0.75019294               -0.06772898               -0.06772854                0.22513461                0.00213906               -0.00034728               -0.00034815
               1.00000000                0.00000000               48.00000000                0.49562488               -0.06676482               -0.07082298                0.23099732                0.00295579               -0.00177396               -0.00023222
               2.00000000                0.00000000               48.00000000                0.49751145               -0.06741363               -0.07165023                0.23669273                0.00100587               -0.00333239               -0.00005627
               3.00000000                0.00000000               48.00000000                0.51769936               -0.07058929               -0.07352736                0.24233398                0.00109852               -0.00370631               -0.00004695
               4.00000000                0.00000000               48.00000000                0.54653416               -0.07357808               -0.07524133                0.24795990                0.00108886               -0.00362252               -0.00002085
               5.00000000                0.00000000               48.00000000                0.58445223               -0.07624589               -0.07697100                0.25359953                0.00113763               -0.00321835               -0.00001262
               6.00000000                0.00000000               48.00000000                0.63221983               -0.07853487               -0.07868224                0.25927582                0.00117233               -0.00257118               -0.00001804
               7.00000000                0.00000000               48.00000000                0.69082955               -0.08043508               -0.08037614                0.26500463                0.00116132               -0.00177704               -0.00001308
               8.00000000                0.00000000               48.00000000                0.76153529               -0.08197264               -0.08206589                0.27078956                0.00106593               -0.00095661                0.00004075
               9.00000000                0.00000000               48.00000000                0.84590671               -0.08329191               -0.08379819                0.27662469                0.00095145               -0.00027787                0.00016026
              10.00000000                0.00000000               48.00000000                0.95286463               -0.08392653               -0.08585143                0.28250523               -0.00001793                0.00005824                0.00050117
               0.00000000                1.00000000               48.00000000                0.49562548               -0.07082253               -0.06676402                0.23099488                0.00295497               -0.00023172               -0.00177397
               1.00000000                1.00000000               48.00000000                0.01000001               -0.07370820               -0.07370795                0.23686795                0.00603896               -0.00182240               -0.00182200
               2.00000000                1.00000000               48.00000000                0.01000000               -0.07676349               -0.06722530                0.24257794                0.01699131               -0.00425456                0.00818466
               3.00000000                1.00000000               48.00000000                0.01000001               -0.07691962               -0.06212780                0.24821367                0.01838907               -0.00529954                0.01725203
               4.00000000                1.00000000               48.00000000                0.04158223               -0.07706909               -0.07405941                0.25383522                0.00353091               -0.00545342               -0.00082911
               5.00000000                1.00000000               48.00000000                0.09205223               -0.07761747               -0.07718840                0.25947070                0.00325601               -0.00502960               -0.00167532
               6.00000000                1.00000000               48.00000000                0.15570741               -0.07865414               -0.07919255                0.26514416                0.00319083               -0.00416873               -0.00069917
               7.00000000                1.00000000               48.00000000                0.23447852               -0.08022549               -0.08084733                0.27087316                0.00264366               -0.00305258                0.00054873
               8.00000000                1.00000000               48.00000000                0.33088631               -0.08226522               -0.08252787                0.27666334                0.00175697               -0.00190615                0.00160014
               9.00000000                1.00000000               48.00000000                0.44823841               -0.08444598               -0.08435974                0.28251015                0.00094864               -0.00091796                0.00242317
              10.00000000                1.00000000               48.00000000                0.76552303               -0.08550711               -0.08760186                0.28839684               -0.00003239               -0.00041563                0.00309373
               0.00000000                2.00000000               48.00000000                0.49751866               -0.07164876               -0.06741237                0.23668782                0.00100542               -0.00005670               -0.00333098
               1.00000000                2.00000000               48.00000000                0.01000000               -0.06722431               -0.07676238                0.24257415                0.01699055                0.00818396               -0.00425252
               2.00000000                2.00000000               48.00000000                0.01000001               -0.07207125               -0.07207383                0.24935670                0.05080884                0.01532331                0.01532389
               3.00000000                2.00000000               48.00000000                0.01000000               -0.09642371               -0.05556666                0.25599563                0.04865719               -0.01408197                0.04054144
               4.00000000                2.00000000               48.00000000                0.01000000               -0.09580737               -0.05258772                0.25971177                0.04989274               -0.02591479                0.07567370
               5.00000000                2.00000000               48.00000000                0.01000001               -0.07943185               -0.04640190                0.26524229                0.06218367               -0.00642437                0.11470799
               6.00000000                2.00000000               48.00000000                0.02637776               -0.07943808               -0.04878301                0.27098269                0.05676250               -0.00328631                0.11322799
               7.00000000                2.00000000               48.00000000                0.05982326               -0.08133491               -0.05984256                0.27683147                0.04735639               -0.00190740                0.09606568
               8.00000000                2.00000000               48.00000000                0.10185522               -0.08384202               -0.06995290                0.28273159                0.03719189               -0.00106572                0.08310220
               9.00000000                2.00000000               48.00000000                0.15480072               -0.08596334               -0.07940005                0.28865961                0.02829293               -0.00049127                0.07443095
              10.00000000                2.00000000               48.00000000                0.59597428               -0.08679005               -0.10146456                0.29456774                0.02427262               -0.00018531                0.07186760
               0.00000000                3.00000000               48.00000000                0.51770335               -0.07352597               -0.07058794                0.24232929                0.00109842               -0.00004727               -0.00370587
               1.00000000                3.00000000               48.00000000                0.01000001               -0.06212636               -0.07691845                0.24821013                0.01838549                0.01724849               -0.00529802
               2.00000000                3.00000000               48.00000000                0.01000000               -0.05556646               -0.09642987                0.25599844                0.04865500                0.04053801               -0.01408718
               3.00000000                3.00000000               48.00000000                0.01000000               -0.06393863               -0.06393928                0.26432435                0.07902715                0.05735331                0.05736027
               4.00000000                3.00000000               48.00000000                0.01197371               -0.07226469               -0.04659852                0.27392880                0.09882455                0.07234125                0.13205734
               5.00000000                3.00000000               48.00000000                0.02055772               -0.08497601               -0.04695766                0.28402666                0.09197655                0.03555483                0.14788375
               6.00000000                3.00000000               48.00000000                0.04911158               -0.09554148               -0.05360798                0.28971633                0.06772553               -0.02019084                0.14303751
               7.00000000                3.00000000               48.00000000                0.08329486               -0.09941705               -0.06243786                0.29364699                0.05230652               -0.03102306                0.13493239
               8.00000000                3.00000000               48.00000000                0.12405205               -0.09996533               -0.07198628                0.29809422                0.04716366               -0.02187477                0.12713136
               9.00000000                3.00000000               48.00000000                0.17260215               -0.09561769               -0.08388469                0.30304953                0.03076631               -0.01079465                0.12100680
              10.00000000                3.00000000               48.00000000                0.60331420               -0.09194962               -0.10183148                0.30871899                0.01345216               -0.00417282                0.11617949
               0.00000000                4.00000000               48.00000000                0.54654089               -0.07523948               -0.07357642                0.24795383                0.00108853               -0.00002110               -0.00362368
               1.00000000                4.00000000               48.00000000                0.04158773               -0.07405930               -0.07706764                0.25383022                0.00352323               -0.00083800               -0.00545357
               2.00000000                4.00000000               48.00000000                0.01000000               -0.05258489               -0.09580402                0.25968674                0.04989116                0.07567837               -0.02590835
               3.00000000                4.00000000               48.00000000                0.01197413               -0.04659722               -0.07226688                0.27394527                0.09883741                0.13206509                0.07234462
               4.00000000                4.00000000               48.00000000                0.02051572               -0.07427279               -0.07427268                0.28588799                0.05697867                0.06823520                0.06823136
               5.00000000                4.00000000               48.00000000                0.04901420               -0.09077135               -0.08608287                0.29320045                0.03689577                0.00861954                0.03481944
               6.00000000                4.00000000               48.00000000                0.08306497               -0.09442435               -0.09239083                0.29859303                0.02956715               -0.01079245                0.03704495
               7.00000000                4.00000000               48.00000000                0.12356830               -0.09524591               -0.09157311                0.30379579                0.02839014               -0.01180801                0.05252918
               8.00000000                4.00000000               48.00000000                0.17162680               -0.09521483               -0.09269098                0.30906913                0.02777843               -0.00928148                0.06262201
               9.00000000                4.00000000               48.00000000                0.22864268               -0.09598536               -0.09606034                0.31454642                0.02023320               -0.00454542                0.06793514
              10.00000000                4.00000000               48.00000000                0.63407940               -0.09708508               -0.08963886                0.32031894                0.00993863               -0.00187013                0.06663905
               0.00000000                5.00000000               48.00000000                0.58445641               -0.07696847               -0.07624398                0.25359178                0.00113754               -0.00001276               -0.00321829
               1.00000000                5.00000000               48.00000000                0.09206014               -0.07718552               -0.07761579                0.25946388                0.00325451               -0.00167415               -0.00502846
               2.00000000                5.00000000               48.00000000                0.01000001               -0.04639517               -0.07942246                0.26520557                0.06218123                0.11470450               -0.00640845
               3.00000000                5.00000000               48.00000000                0.02055902               -0.04695647               -0.08497576                0.28401754                0.09197190                0.14786380                0.03553820
               4.00000000                5.00000000               48.00000000                0.04901204               -0.08608760               -0.09077352                0.29321597                0.03689889                0.03481698                0.00861607
               5.00000000                5.00000000               48.00000000                0.08306913               -0.09415402               -0.09415404                0.29957477                0.02562115                0.00514861                0.00513388
               6.00000000                5.00000000               48.00000000                0.12357772               -0.09473832               -0.09585300                0.30548572                0.02038375               -0.00072177                0.01326180
               7.00000000                5.00000000               48.00000000                0.17164761               -0.09486008               -0.09743085                0.31122122                0.01687035               -0.00277915                0.02018644
               8.00000000                5.00000000               48.00000000                0.22867268               -0.09529200               -0.09900302                0.31692190                0.01348802               -0.00268642                0.02516070
               9.00000000                5.00000000               48.00000000                0.29643215               -0.09726319               -0.09865713                0.32266474                0.00803371               -0.00134863                0.02759934
              10.00000000                5.00000000               48.00000000                0.67144840               -0.09884389               -0.09179799                0.32849818                0.00398558               -0.00059038                0.02693322
               0.00000000                6.00000000               48.00000000                0.63222324               -0.07868010               -0.07853313                0.25926922                0.00117233               -0.00001796               -0.00257012
               1.00000000                6.00000000               48.00000000                0.15571518               -0.07919040               -0.07865268                0.26513855                0.00319085               -0.00069251               -0.00416673
               2.00000000                6.00000000               48.00000000                0.02638011               -0.04878174               -0.07943563                0.27097382                0.05675832                0.11320885               -0.00328354
               3.00000000                6.00000000               48.00000000                0.04911380               -0.05360586               -0.09554057                0.28970960                0.06771543                0.14301964               -0.02019718
               4.00000000                6.00000000               48.00000000                0.08306786               -0.09238887               -0.09442440                0.29859038                0.02956546                0.03705283               -0.01078477
               5.00000000                6.00000000               48.00000000                0.12357742               -0.09585270               -0.09473939                0.30548618                0.02038358                0.01326477               -0.00072527
               6.00000000                6.00000000               48.00000000                0.17165592               -0.09630939               -0.09630973                0.31175148                0.01395721                0.00495990                0.00495566
               7.00000000                6.00000000               48.00000000                0.22870186               -0.09649381               -0.09827897                0.31774821                0.00946476                0.00142131                0.00856296
               8.00000000                6.00000000               48.00000000                0.29648755               -0.09723633               -0.09976966                0.32363552                0.00597251                0.00012164                0.01078940
               9.00000000                6.00000000               48.00000000                0.37728917               -0.09912849               -0.09964267                0.32949130                0.00291596               -0.00008191                0.01172959
              10.00000000                6.00000000               48.00000000                0.71606517               -0.10042973               -0.09662885                0.33535261                0.00100597               -0.00009665                0.01139965
               0.00000000                7.00000000               48.00000000                0.69083550               -0.08037360               -0.08043297                0.26499662                0.00116114               -0.00001305               -0.00177730
               1.00000000                7.00000000               48.00000000                0.23448639               -0.08084495               -0.08022372                0.27086614                0.00264356                0.00054898               -0.00305213
               2.00000000                7.00000000               48.00000000                0.05982607               -0.05984089               -0.08133375                0.27682332                0.04735229                0.09605096               -0.00191130
               3.00000000                7.00000000               48.00000000                0.08329775               -0.06243638               -0.09941624                0.29364405                0.05230173                0.13491867               -0.03101346
               4.00000000                7.00000000               48.00000000                0.12356911               -0.09157232               -0.09524592                0.30380034                0.02838832                0.05253026               -0.01180991
               5.00000000                7.00000000               48.00000000                0.17164977               -0.09743024               -0.09486030                0.31122196                0.01686979                0.02018882               -0.00277859
               6.00000000                7.00000000               48.00000000                0.22870449               -0.09827780               -0.09649373                0.31774583                0.00946427                0.00856552                0.00141965
               7.00000000                7.00000000               48.00000000                0.29650646               -0.09854961               -0.09854990                0.32389568                0.00496987                0.00355893                0.00355850
               8.00000000                7.00000000               48.00000000                0.37733362               -0.09936559               -0.10019875                0.32987652                0.00228794                0.00135474                0.00465144
               9.00000000                7.00000000               48.00000000                0.47414774               -0.10097999               -0.10095527                0.33578339                0.00080778                0.00042409                0.00505134
              10.00000000                7.00000000               48.00000000                0.76959480               -0.10199552               -0.10054160                0.34165784               -0.00026327                0.00009860                0.00493084
               0.00000000                8.00000000               48.00000000                0.76153979               -0.08206300               -0.08196998                0.27078011                0.00106589                0.00004117               -0.00095734
               1.00000000                8.00000000               48.00000000                0.33089662               -0.08252523               -0.08226294                0.27665493                0.00175672                0.00160057               -0.00190640
               2.00000000                8.00000000               48.00000000                0.10186112               -0.06995154               -0.08384009                0.28272355                0.03718808                0.08309069               -0.00106621
               3.00000000                8.00000000               48.00000000                0.12405640               -0.07198520               -0.09996246                0.29808704                0.04715795                0.12711517               -0.02186930
               4.00000000                8.00000000               48.00000000                0.17163203               -0.09268959               -0.09521344                0.30906446                0.02777605                0.06261896               -0.00928192
               5.00000000                8.00000000               48.00000000                0.22867580               -0.09900220               -0.09529144                0.31692014                0.01348817                0.02516254               -0.00268812
               6.00000000                8.00000000               48.00000000                0.29648962               -0.09976895               -0.09723599                0.32363351                0.00597262                0.01079056                0.00011915
               7.00000000                8.00000000               48.00000000                0.37733600               -0.10019818               -0.09936522                0.32987501                0.00228773                0.00465186                0.00135407
               8.00000000                8.00000000               48.00000000                0.47417132               -0.10118403               -0.10118418                0.33590679                0.00055668                0.00189151                0.00189181
               9.00000000                8.00000000               48.00000000                0.59089932               -0.10271174               -0.10256791                0.34183873               -0.00002711                0.00061836                0.00206563
              10.00000000                8.00000000               48.00000000                0.83428040               -0.10359390               -0.10355004                0.34771955               -0.00079747                0.00017116                0.00203728
               0.00000000                9.00000000               48.00000000                0.84591610               -0.08379558               -0.08328913                0.27661522                0.00095141                0.00016027               -0.00027777
               1.00000000                9.00000000               48.00000000                0.44824786               -0.08435717               -0.08444350                0.28250164                0.00094832                0.00242164               -0.00091773
               2.00000000                9.00000000               48.00000000                0.15480626               -0.07939858               -0.08596088                0.28865095                0.02829002                0.07442207               -0.00049283
               3.00000000                9.00000000               48.00000000                0.17260897               -0.08388390               -0.09561485                0.30304340                0.03076331                0.12099237               -0.01079129
               4.00000000                9.00000000               48.00000000                0.22864656               -0.09605932               -0.09598302                0.31454133                0.02023105                0.06792656               -0.00454437
               5.00000000                9.00000000               48.00000000                0.29643561               -0.09865611               -0.09726197                0.32266148                0.00803261                0.02759829               -0.00135166
               6.00000000                9.00000000               48.00000000                0.37729409               -0.09964170               -0.09912745                0.32948760                0.00291597                0.01173164               -0.00008381
               7.00000000                9.00000000               48.00000000                0.47415075               -0.10095459               -0.10097941                0.33578170                0.00080778                0.00505233                0.00042336
               8.00000000                9.00000000               48.00000000                0.59090297               -0.10256738               -0.10271134                0.34183708               -0.00002743                0.00206507                0.00061838
               9.00000000                9.00000000               48.00000000                0.73278924               -0.10431713               -0.10431723                0.34778114               -0.00018943                0.00067395                0.00067436
              10.00000000                9.00000000               48.00000000                0.91315064               -0.10520829               -0.10592776                0.35366590               -0.00097230                0.00019365                0.00067097
               0.00000000               10.00000000               48.00000000                0.95286892               -0.08584856               -0.08392374                0.28249468               -0.00001819                0.00050044                0.00005850
               1.00000000               10.00000000               48.00000000                0.76552098               -0.08759901               -0.08550456                0.28838721               -0.00003238                0.00309052               -0.00041556
               2.00000000               10.00000000               48.00000000                0.59597786               -0.10146128               -0.08678716                0.29455812                0.02426994                0.07185860               -0.00018752
               3.00000000               10.00000000               48.00000000                0.60331777               -0.10183009               -0.09194736                0.30871306                0.01345076                0.11616603               -0.00417060
               4.00000000               10.00000000               48.00000000                0.63408025               -0.08963988               -0.09708296                0.32031520                0.00993729                0.06662787               -0.00186955
               5.00000000               10.00000000               48.00000000                0.67145081               -0.09179794               -0.09884255                0.32849423                0.00398457                0.02693033               -0.00059305
               6.00000000               10.00000000               48.00000000                0.71606834               -0.09662776               -0.10042807                0.33534717                0.00100574                0.01140154               -0.00009768
               7.00000000               10.00000000               48.00000000                0.76959574               -0.10054071               -0.10199481                0.34165547               -0.00026355                0.00493125                0.00009851
               8.00000000               10.00000000               48.00000000                0.83427938               -0.10354918               -0.10359317                0.34771660               -0.00079782                0.00203593                0.00017109
               9.00000000               10.00000000               48.00000000                0.91315234               -0.10592707               -0.10520800                0.35366385               -0.00097274                0.00066989                0.00019368
              10.00000000               10.00000000               48.00000000                0.98244323               -0.10698488               -0.10698531                0.35954986               -0.00191797                0.00019758                0.00019815
               0.00000000                0.00000000               49.00000000                0.75025798               -0.06786620               -0.06786626                0.22574827                0.00212380               -0.00036975               -0.00036996
               1.00000000                0.00000000               49.00000000                0.49571094               -0.06678794               -0.07099848                0.23152037                0.00305793               -0.00189122               -0.00024426
               2.00000000                0.00000000               49.00000000                0.49755657               -0.06735151               -0.07175031                0.23711594                0.00100313               -0.00356959               -0.00005278
               3.00000000                0.00000000               49.00000000                0.51773911               -0.07058140               -0.07360676                0.24265216                0.00110065               -0.00398520               -0.00004564
               4.00000000                0.00000000               49.00000000                0.54655952               -0.07361196               -0.07529280                0.24817252                0.00109064               -0.00390894               -0.00002022
               5.00000000                0.00000000               49.00000000                0.58446335               -0.07630099               -0.07699391                0.25370441                0.00114144               -0.00348385               -0.00001263
               6.00000000                0.00000000               49.00000000                0.63220858               -0.07858850               -0.07867501                0.25927419                0.00117753               -0.00279177               -0.00001852
               7.00000000                0.00000000               49.00000000                0.69080013               -0.08046518               -0.08033775                0.26489957                0.00116540               -0.00194022               -0.00001309
               8.00000000                0.00000000               49.00000000                0.76147328               -0.08195949               -0.08199598                0.27058454                0.00106462               -0.00106228                0.00004483
               9.00000000                0.00000000               49.00000000                0.84580286               -0.08322538               -0.08370114                0.27632441                0.00094144               -0.00032920                0.00017343
              10.00000000                0.00000000               49.00000000                0.95279439               -0.08383266               -0.08573587                0.28211429               -0.00002661                0.00003672                0.00051513
               0.00000000                1.00000000               49.00000000                0.49571005               -0.07099820               -0.06678769                0.23151965                0.00305764               -0.00024378               -0.00189119
               1.00000000                1.00000000               49.00000000                0.01000001               -0.07398255               -0.07398260                0.23730296                0.00637260               -0.00192560               -0.00192543
               2.00000000                1.00000000               49.00000000                0.01000000               -0.07708166               -0.06705017                0.24291655                0.01789234               -0.00448538                0.00863471
               3.00000000                1.00000000               49.00000000                0.01000001               -0.07711943               -0.06158913                0.24845364                0.01937018               -0.00558039                0.01820909
               4.00000000                1.00000000               49.00000000                0.04160661               -0.07715269               -0.07399310                0.25397828                0.00374674               -0.00573970               -0.00081444
               5.00000000                1.00000000               49.00000000                0.09206812               -0.07760826               -0.07716452                0.25951534                0.00346075               -0.00529289               -0.00172449
               6.00000000                1.00000000               49.00000000                0.15569553               -0.07857985               -0.07915969                0.26509152                0.00338533               -0.00438388               -0.00071214
               7.00000000                1.00000000               49.00000000                0.23443949               -0.08011613               -0.08078388                0.27072542                0.00280048               -0.00320541                0.00059694
               8.00000000                1.00000000               49.00000000                0.33080504               -0.08214639               -0.08243344                0.27642331                0.00185798               -0.00199521                0.00170880
               9.00000000                1.00000000               49.00000000                0.44809753               -0.08432557               -0.08424189                0.28218109                0.00099988               -0.00095323                0.00257661
              10.00000000                1.00000000               49.00000000                0.76541935               -0.08538453               -0.08752631                0.28797882                0.00001743               -0.00042486                0.00325566
               0.00000000                2.00000000               49.00000000                0.49756607               -0.07174891               -0.06735035                0.23711157                0.00100266               -0.00005243               -0.00356961
               1.00000000                2.00000000               49.00000000                0.01000000               -0.06704987               -0.07708068                0.24291320                0.01789272                0.00863404               -0.00448508
               2.00000000                2.00000000               49.00000000                0.01000001               -0.07202774               -0.07202705                0.24962926                0.05344871                0.01614705                0.01615098
               3.00000000                2.00000000               49.00000000                0.01000000               -0.09750112               -0.05458129                0.25620935                0.05121439               -0.01480116                0.04274314
               4.00000000                2.00000000               49.00000000                0.01000000               -0.09672379               -0.05133879                0.25979126                0.05253861               -0.02721149                0.07989547
               5.00000000                2.00000000               49.00000000                0.01000001               -0.07938550               -0.04473571                0.26518641                0.06545644               -0.00671231                0.12120725
               6.00000000                2.00000000               49.00000000                0.02637641               -0.07928605               -0.04710771                0.27087728                0.05976460               -0.00339844                0.11974376
               7.00000000                2.00000000               49.00000000                0.05982246               -0.08117176               -0.05858524                0.27664734                0.04987336               -0.00193536                0.10168396
               8.00000000                2.00000000               49.00000000                0.10184697               -0.08370046               -0.06907013                0.28247223                0.03917371               -0.00105070                0.08804931
               9.00000000                2.00000000               49.00000000                0.15477079               -0.08582205               -0.07886369                0.28831399                0.02979813               -0.00047189                0.07892909
              10.00000000                2.00000000               49.00000000                0.59595279               -0.08663563               -0.10194392                0.29412923                0.02559568               -0.00017131                0.07625659
               0.00000000                3.00000000               49.00000000                0.51773772               -0.07360502               -0.07057953                0.24264592                0.00110059               -0.00004557               -0.00398661
               1.00000000                3.00000000               49.00000000                0.01000001               -0.06158834               -0.07711764                0.24844837                0.01936987                0.01821031               -0.00558097
               2.00000000                3.00000000               49.00000000                0.01000000               -0.05458256               -0.09749755                0.25621025                0.05121646                0.04274092               -0.01481189
               3.00000000                3.00000000               49.00000000                0.01000000               -0.06322424               -0.06322348                0.26452468                0.08309687                0.06047267                0.06047931
               4.00000000                3.00000000               49.00000000                0.01197372               -0.07180924               -0.04490917                0.27415741                0.10392638                0.07636294                0.13937170
               5.00000000                3.00000000               49.00000000                0.02055819               -0.08503976               -0.04518171                0.28434381                0.09675361                0.03760445                0.15611260
               6.00000000                3.00000000               49.00000000                0.04911560               -0.09606243               -0.05203814                0.28996924                0.07130700               -0.02126410                0.15111086
               7.00000000                3.00000000               49.00000000                0.08330126               -0.10005736               -0.06117624                0.29380712                0.05510405               -0.03272351                0.14269093
               8.00000000                3.00000000               49.00000000                0.12406423               -0.10055234               -0.07106247                0.29815901                0.04967805               -0.02306393                0.13458025
               9.00000000                3.00000000               49.00000000                0.17261638               -0.09590194               -0.08341775                0.30302972                0.03240595               -0.01136864                0.12823824
              10.00000000                3.00000000               49.00000000                0.60332172               -0.09200511               -0.10214677                0.30862654                0.01422557               -0.00438594                0.12335294
               0.00000000                4.00000000               49.00000000                0.54655908               -0.07529090               -0.07361016                0.24816652                0.00109059               -0.00001980               -0.00391025
               1.00000000                4.00000000               49.00000000                0.04160685               -0.07399066               -0.07715108                0.25397327                0.00374881               -0.00083479               -0.00574011
               2.00000000                4.00000000               49.00000000                0.01000000               -0.05133951               -0.09672297                0.25977877                0.05253752                0.07989732               -0.02722301
               3.00000000                4.00000000               49.00000000                0.01197313               -0.04491153               -0.07181067                0.27417038                0.10392741                0.13939129                0.07635959
               4.00000000                4.00000000               49.00000000                0.02051850               -0.07381224               -0.07381505                0.28626142                0.05992504                0.07206955                0.07206932
               5.00000000                4.00000000               49.00000000                0.04901450               -0.09103288               -0.08611408                0.29357918                0.03880315                0.00910460                0.03675865
               6.00000000                4.00000000               49.00000000                0.08306991               -0.09477941               -0.09264126                0.29892412                0.03110248               -0.01135671                0.03911269
               7.00000000                4.00000000               49.00000000                0.12357497               -0.09555101               -0.09167853                0.30407894                0.02986677               -0.01244431                0.05551324
               8.00000000                4.00000000               49.00000000                0.17164098               -0.09542758               -0.09273163                0.30929326                0.02922652               -0.00977989                0.06624799
               9.00000000                4.00000000               49.00000000                0.22866015               -0.09614865               -0.09613876                0.31471832                0.02129470               -0.00479137                0.07196852
              10.00000000                4.00000000               49.00000000                0.63408660               -0.09726111               -0.08923304                0.32044310                0.01053669               -0.00196782                0.07076517
               0.00000000                5.00000000               49.00000000                0.58445961               -0.07699190               -0.07629944                0.25369855                0.00114146               -0.00001201               -0.00348184
               1.00000000                5.00000000               49.00000000                0.09206112               -0.07716362               -0.07760694                0.25951055                0.00345962               -0.00175094               -0.00528984
               2.00000000                5.00000000               49.00000000                0.01000001               -0.04473293               -0.07938664                0.26519899                0.06545327                0.12119345               -0.00668898
               3.00000000                5.00000000               49.00000000                0.02055829               -0.04517903               -0.08504180                0.28435348                0.09675357                0.15613577                0.03759511
               4.00000000                5.00000000               49.00000000                0.04901338               -0.08611474               -0.09103689                0.29359305                0.03880538                0.03676729                0.00909565
               5.00000000                5.00000000               49.00000000                0.08307264               -0.09448351               -0.09448432                0.29993617                0.02693630                0.00543058                0.00543006
               6.00000000                5.00000000               49.00000000                0.12358496               -0.09500297               -0.09617226                0.30582791                0.02143334               -0.00075140                0.01399787
               7.00000000                5.00000000               49.00000000                0.17165831               -0.09503667               -0.09772904                0.31153616                0.01774259               -0.00292090                0.02132743
               8.00000000                5.00000000               49.00000000                0.22869483               -0.09539515               -0.09927367                0.31719814                0.01418859               -0.00282779                0.02661878
               9.00000000                5.00000000               49.00000000                0.29645727               -0.09737358               -0.09879515                0.32290575                0.00845298               -0.00142811                0.02925454
              10.00000000                5.00000000               49.00000000                0.67146402               -0.09898937               -0.09145463                0.32870519                0.00425391               -0.00062640                0.02863961
               0.00000000                6.00000000               49.00000000                0.63221452               -0.07867318               -0.07858674                0.25926823                0.00117757               -0.00001818               -0.00278945
               1.00000000                6.00000000               49.00000000                0.15570302               -0.07915776               -0.07857843                0.26508653                0.00338516               -0.00071414               -0.00438046
               2.00000000                6.00000000               49.00000000                0.02638071               -0.04710505               -0.07928381                0.27086405                0.05976141                0.11972590               -0.00337171
               3.00000000                6.00000000               49.00000000                0.04911602               -0.05203595               -0.09606368                0.28997451                0.07130013                0.15109779               -0.02126131
               4.00000000                6.00000000               49.00000000                0.08307075               -0.09264056               -0.09477997                0.29892709                0.03110091                0.03912148               -0.01136100
               5.00000000                6.00000000               49.00000000                0.12358563               -0.09617186               -0.09500439                0.30583060                0.02143444                0.01400572               -0.00075348
               6.00000000                6.00000000               49.00000000                0.17167125               -0.09655278               -0.09655341                0.31208431                0.01467526                0.00523800                0.00523502
               7.00000000                6.00000000               49.00000000                0.22872274               -0.09665029               -0.09852194                0.31806104                0.00995422                0.00150410                0.00905463
               8.00000000                6.00000000               49.00000000                0.29651959               -0.09733517               -0.09998671                0.32392402                0.00628295                0.00013267                0.01142490
               9.00000000                6.00000000               49.00000000                0.37733397               -0.09922911               -0.09974692                0.32975313                0.00306692               -0.00008725                0.01245289
              10.00000000                6.00000000               49.00000000                0.71608931               -0.10054965               -0.09646598                0.33558617                0.00111069               -0.00010147                0.01214860
               0.00000000                7.00000000               49.00000000                0.69080074               -0.08033566               -0.08046309                0.26489211                0.00116549               -0.00001291               -0.00194039
               1.00000000                7.00000000               49.00000000                0.23444285               -0.08078214               -0.08011443                0.27071926                0.00280057                0.00059505               -0.00320454
               2.00000000                7.00000000               49.00000000                0.05982546               -0.05858388               -0.08117015                0.27664512                0.04986867                0.10167088               -0.00193120
               3.00000000                7.00000000               49.00000000                0.08330387               -0.06117420               -0.10005692                0.29380635                0.05509736                0.14268257               -0.03271707
               4.00000000                7.00000000               49.00000000                0.12357931               -0.09167655               -0.09555010                0.30407603                0.02986465                0.05551508               -0.01244111
               5.00000000                7.00000000               49.00000000                0.17165972               -0.09772814               -0.09503631                0.31153495                0.01774138                0.02132599               -0.00292365
               6.00000000                7.00000000               49.00000000                0.22872321               -0.09852131               -0.09665043                0.31806053                0.00995392                0.00905543                0.00150197
               7.00000000                7.00000000               49.00000000                0.29653606               -0.09871094               -0.09871129                0.32419786                0.00522838                0.00377155                0.00376855
               8.00000000                7.00000000               49.00000000                0.37738006               -0.09947364               -0.10034428                0.33016126                0.00240777                0.00144082                0.00493728
               9.00000000                7.00000000               49.00000000                0.47421002               -0.10107482               -0.10103759                0.33604454                0.00084967                0.00045133                0.00537825
              10.00000000                7.00000000               49.00000000                0.76962797               -0.10209406               -0.10049860                0.34189290               -0.00022730                0.00010612                0.00527030
               0.00000000                8.00000000               49.00000000                0.76148015               -0.08199424               -0.08195727                0.27057711                0.00106467                0.00004504               -0.00106284
               1.00000000                8.00000000               49.00000000                0.33081807               -0.08243160               -0.08214452                0.27641713                0.00185826                0.00170919               -0.00199486
               2.00000000                8.00000000               49.00000000                0.10185318               -0.06906867               -0.08369848                0.28246444                0.03916976                0.08803640               -0.00104768
               3.00000000                8.00000000               49.00000000                0.12406722               -0.07106103               -0.10055035                0.29815345                0.04967279                0.13456463               -0.02305969
               4.00000000                8.00000000               49.00000000                0.17164357               -0.09273031               -0.09542698                0.30929293                0.02922526                0.06624563               -0.00978302
               5.00000000                8.00000000               49.00000000                0.22869730               -0.09927271               -0.09539434                0.31719641                0.01418762                0.02661951               -0.00283033
               6.00000000                8.00000000               49.00000000                0.29652074               -0.09998557               -0.09733445                0.32392112                0.00628218                0.01142563                0.00013150
               7.00000000                8.00000000               49.00000000                0.37737976               -0.10034353               -0.09947335                0.33015960                0.00240744                0.00493859                0.00143968
               8.00000000                8.00000000               49.00000000                0.47423630               -0.10128588               -0.10128596                0.33617661                0.00058713                0.00201781                0.00201572
               9.00000000                8.00000000               49.00000000                0.59098573               -0.10279683               -0.10264067                0.34208955               -0.00002841                0.00066261                0.00221025
              10.00000000                8.00000000               49.00000000                0.83432632               -0.10367630               -0.10357283                0.34794725               -0.00079077                0.00018502                0.00218878
               0.00000000                9.00000000               49.00000000                0.84581078               -0.08369869               -0.08322266                0.27631508                0.00094132                0.00017322               -0.00033005
               1.00000000                9.00000000               49.00000000                0.44810453               -0.08423960               -0.08432334                0.28217354                0.00100104                0.00257587               -0.00095357
               2.00000000                9.00000000               49.00000000                0.15477960               -0.07886237               -0.08582028                0.28830853                0.02979489                0.07891881               -0.00047255
               3.00000000                9.00000000               49.00000000                0.17262181               -0.08341647               -0.09589869                0.30302128                0.03240163                0.12822248               -0.01136464
               4.00000000                9.00000000               49.00000000                0.22866578               -0.09613747               -0.09614768                0.31471550                0.02129376                0.07196209               -0.00479035
               5.00000000                9.00000000               49.00000000                0.29646149               -0.09879461               -0.09737318                0.32290454                0.00845330                0.02925339               -0.00142798
               6.00000000                9.00000000               49.00000000                0.37733626               -0.09974609               -0.09922842                0.32975056                0.00306663                0.01245300               -0.00008855
               7.00000000                9.00000000               49.00000000                0.47421380               -0.10103664               -0.10107409                0.33604193                0.00084927                0.00537849                0.00045193
               8.00000000                9.00000000               49.00000000                0.59098477               -0.10264020               -0.10279646                0.34208828               -0.00002852                0.00221034                0.00066164
               9.00000000                9.00000000               49.00000000                0.73290184               -0.10438595               -0.10438596                0.34801385               -0.00020020                0.00072681                0.00072563
              10.00000000                9.00000000               49.00000000                0.91320885               -0.10527562               -0.10597772                0.35387419               -0.00097338                0.00021106                0.00072531
               0.00000000               10.00000000               49.00000000                0.95280022               -0.08573260               -0.08382950                0.28210271               -0.00002722                0.00051464                0.00003551
               1.00000000               10.00000000               49.00000000                0.76542934               -0.08752372               -0.08538202                0.28796965                0.00001771                0.00325421               -0.00042591
               2.00000000               10.00000000               49.00000000                0.59595458               -0.10194120               -0.08663465                0.29412567                0.02559311                0.07624734               -0.00017278
               3.00000000               10.00000000               49.00000000                0.60332546               -0.10214507               -0.09200131                0.30861652                0.01422331                0.12333831               -0.00438406
               4.00000000               10.00000000               49.00000000                0.63409224               -0.08923344               -0.09725952                0.32043777                0.01053455                0.07075682               -0.00196588
               5.00000000               10.00000000               49.00000000                0.67146677               -0.09145494               -0.09898914                0.32870311                0.00425378                0.02863591               -0.00062518
               6.00000000               10.00000000               49.00000000                0.71609066               -0.09646535               -0.10054920                0.33558342                0.00111087                0.01214765               -0.00010264
               7.00000000               10.00000000               49.00000000                0.76963042               -0.10049744               -0.10209322                0.34188948               -0.00022746                0.00526981                0.00010680
               8.00000000               10.00000000               49.00000000                0.83432630               -0.10357199               -0.10367578                0.34794484               -0.00079103                0.00218669                0.00018463
               9.00000000               10.00000000               49.00000000                0.91320718               -0.10597736               -0.10527547                0.35387306               -0.00097355                0.00072501                0.00020971
              10.00000000               10.00000000               49.00000000                0.98247354               -0.10704049               -0.10704066                0.35973340               -0.00191226                0.00021551                0.00021503
               0.00000000                0.00000000               50.00000000                0.75032795               -0.06801329               -0.06801351                0.22639741                0.00210686               -0.00039186               -0.00039207
               1.00000000                0.00000000               50.00000000                0.49580547               -0.06682015               -0.07118198                0.23207348                0.00315954               -0.00201497               -0.00025551
               2.00000000                0.00000000               50.00000000                0.49760320               -0.06729721               -0.07185647                0.23756280                0.00099984               -0.00382584               -0.00004754
               3.00000000                0.00000000               50.00000000                0.51777274               -0.07057943               -0.07369061                0.24298797                0.00110149               -0.00428826               -0.00004282
               4.00000000                0.00000000               50.00000000                0.54659069               -0.07364891               -0.07534402                0.24839201                0.00109125               -0.00421815               -0.00001810
               5.00000000                0.00000000               50.00000000                0.58447417               -0.07635746               -0.07701535                0.25381140                0.00114533               -0.00377028               -0.00001173
               6.00000000                0.00000000               50.00000000                0.63220468               -0.07864254               -0.07866650                0.25927165                0.00118298               -0.00303251               -0.00001874
               7.00000000                0.00000000               50.00000000                0.69076440               -0.08049419               -0.08029761                0.26478872                0.00116929               -0.00212223               -0.00001297
               8.00000000                0.00000000               50.00000000                0.76140515               -0.08194337               -0.08192369                0.27036922                0.00106256               -0.00118225                0.00004956
               9.00000000                0.00000000               50.00000000                0.84568451               -0.08315372               -0.08359926                0.27600687                0.00093057               -0.00038973                0.00018731
              10.00000000                0.00000000               50.00000000                0.95271814               -0.08373258               -0.08561342                0.28169992               -0.00003628                0.00000876                0.00052634
               0.00000000                1.00000000               50.00000000                0.49580213               -0.07118210               -0.06682037                0.23207418                0.00316000               -0.00025554               -0.00201686
               1.00000000                1.00000000               50.00000000                0.01000001               -0.07426467               -0.07426485                0.23776243                0.00670675               -0.00203248               -0.00203389
               2.00000000                1.00000000               50.00000000                0.01000000               -0.07740650               -0.06688207                0.24327389                0.01879333               -0.00472516                0.00909334
               3.00000000                1.00000000               50.00000000                0.01000001               -0.07732374               -0.06105818                0.24870704                0.02035173               -0.00586951                0.01920166
               4.00000000                1.00000000               50.00000000                0.04162705               -0.07723794               -0.07392391                0.25412485                0.00397777               -0.00602966               -0.00082367
               5.00000000                1.00000000               50.00000000                0.09206445               -0.07759928               -0.07714113                0.25955998                0.00367115               -0.00555739               -0.00181609
               6.00000000                1.00000000               50.00000000                0.15568035               -0.07850523               -0.07912631                0.26503690                0.00358002               -0.00460070               -0.00073081
               7.00000000                1.00000000               50.00000000                0.23439353               -0.08000526               -0.08071938                0.27057201                0.00295574               -0.00336081                0.00064865
               8.00000000                1.00000000               50.00000000                0.33072244               -0.08202432               -0.08233618                0.27617304                0.00195830               -0.00208491                0.00182586
               9.00000000                1.00000000               50.00000000                0.44793950               -0.08420008               -0.08411895                0.28183536                0.00105237               -0.00098794                0.00273665
              10.00000000                1.00000000               50.00000000                0.76531606               -0.08525600               -0.08744404                0.28753865                0.00006785               -0.00043377                0.00341861
               0.00000000                2.00000000               50.00000000                0.49760458               -0.07185674               -0.06729655                0.23756244                0.00099963               -0.00004693               -0.00382748
               1.00000000                2.00000000               50.00000000                0.01000000               -0.06688299               -0.07740594                0.24327444                0.01879473                0.00909410               -0.00472584
               2.00000000                2.00000000               50.00000000                0.01000001               -0.07199048               -0.07198471                0.24991544                0.05608412                0.01699629                0.01699658
               3.00000000                2.00000000               50.00000000                0.01000000               -0.09856697               -0.05360276                0.25643586                0.05377622               -0.01555109                0.04498453
               4.00000000                2.00000000               50.00000000                0.01000000               -0.09763392               -0.05010436                0.25985089                0.05518351               -0.02855408                0.08423806
               5.00000000                2.00000000               50.00000000                0.01000001               -0.07935183               -0.04307819                0.26519456                0.06872167               -0.00696570                0.12791032
               6.00000000                2.00000000               50.00000000                0.02637998               -0.07913993               -0.04543579                0.27078336                0.06276133               -0.00345566                0.12647153
               7.00000000                2.00000000               50.00000000                0.05982140               -0.08100794               -0.05733043                0.27646936                0.05238533               -0.00193984                0.10750276
               8.00000000                2.00000000               50.00000000                0.10183801               -0.08355365               -0.06818663                0.28219720                0.04115273               -0.00102060                0.09318280
               9.00000000                2.00000000               50.00000000                0.15474407               -0.08567471               -0.07832199                0.28795026                0.03129996               -0.00044627                0.08361389
              10.00000000                2.00000000               50.00000000                0.59593031               -0.08647618               -0.10241073                0.29367118                0.02691289               -0.00015558                0.08083921
               0.00000000                3.00000000               50.00000000                0.51777794               -0.07368940               -0.07057741                0.24298254                0.00110148               -0.00004235               -0.00428825
               1.00000000                3.00000000               50.00000000                0.01000001               -0.06105784               -0.07732170                0.24870247                0.02035697                0.01920248               -0.00586850
               2.00000000                3.00000000               50.00000000                0.01000000               -0.05360543               -0.09855902                0.25642933                0.05377979                0.04498446               -0.01556696
               3.00000000                3.00000000               50.00000000                0.01000000               -0.06251478               -0.06251108                0.26472305                0.08715394                0.06366157                0.06368075
               4.00000000                3.00000000               50.00000000                0.01197287               -0.07135382               -0.04323574                0.27441627                0.10900777                0.08051286                0.14687456
               5.00000000                3.00000000               50.00000000                0.02056001               -0.08510153               -0.04341464                0.28466151                0.10152791                0.03972224                0.16461768
               6.00000000                3.00000000               50.00000000                0.04911760               -0.09658345               -0.05047672                0.29023842                0.07488303               -0.02236983                0.15941912
               7.00000000                3.00000000               50.00000000                0.08330896               -0.10069427               -0.05991912                0.29396753                0.05789445               -0.03447156                0.15070222
               8.00000000                3.00000000               50.00000000                0.12407599               -0.10113489               -0.07013996                0.29821942                0.05218844               -0.02428050                0.14229333
               9.00000000                3.00000000               50.00000000                0.17263135               -0.09618320               -0.08294751                0.30300101                0.03404255               -0.01194652                0.13575400
              10.00000000                3.00000000               50.00000000                0.60333145               -0.09205867               -0.10245172                0.30852172                0.01499574               -0.00459627                0.13085125
               0.00000000                4.00000000               50.00000000                0.54658728               -0.07534393               -0.07364714                0.24838826                0.00109176               -0.00001808               -0.00421815
               1.00000000                4.00000000               50.00000000                0.04162551               -0.07392278               -0.07723629                0.25412211                0.00398422               -0.00084137               -0.00602852
               2.00000000                4.00000000               50.00000000                0.01000000               -0.05010025               -0.09763805                0.25988348                0.05518409                0.08425494               -0.02854233
               3.00000000                4.00000000               50.00000000                0.01197516               -0.04323238               -0.07135582                0.27441066                0.10900248                0.14689575                0.08052485
               4.00000000                4.00000000               50.00000000                0.02052059               -0.07335261               -0.07335257                0.28658465                0.06286583                0.07598978                0.07600557
               5.00000000                4.00000000               50.00000000                0.04901666               -0.09129636               -0.08614742                0.29396681                0.04070443                0.00962916                0.03874513
               6.00000000                4.00000000               50.00000000                0.08307280               -0.09513597               -0.09289739                0.29926790                0.03263244               -0.01194642                0.04123527
               7.00000000                4.00000000               50.00000000                0.12358337               -0.09585526               -0.09178600                0.30436464                0.03134019               -0.01308938                0.05859190
               8.00000000                4.00000000               50.00000000                0.17165287               -0.09563922               -0.09277337                0.30951981                0.03067087               -0.01028940                0.06999905
               9.00000000                4.00000000               50.00000000                0.22867833               -0.09631204               -0.09621746                0.31489269                0.02235316               -0.00504188                0.07615726
              10.00000000                4.00000000               50.00000000                0.63409805               -0.09743759               -0.08882832                0.32056916                0.01113159               -0.00206586                0.07508123
               0.00000000                5.00000000               50.00000000                0.58447201               -0.07701591               -0.07635644                0.25380954                0.00114522               -0.00001161               -0.00376882
               1.00000000                5.00000000               50.00000000                0.09206812               -0.07714237               -0.07759847                0.25955931                0.00367073               -0.00179871               -0.00555481
               2.00000000                5.00000000               50.00000000                0.01000001               -0.04307247               -0.07935985                0.26522152                0.06871906                0.12792184               -0.00694445
               3.00000000                5.00000000               50.00000000                0.02056171               -0.04340928               -0.08510709                0.28465365                0.10151997                0.16459631                0.03969557
               4.00000000                5.00000000               50.00000000                0.04901604               -0.08614894               -0.09129697                0.29397038                0.04070011                0.03873334                0.00962690
               5.00000000                5.00000000               50.00000000                0.08307920               -0.09481407               -0.09481438                0.30030219                0.02824032                0.00572036                0.00572011
               6.00000000                5.00000000               50.00000000                0.12359408               -0.09526731               -0.09649088                0.30617257                0.02247854               -0.00078389                0.01475423
               7.00000000                5.00000000               50.00000000                0.17167344               -0.09521234               -0.09802711                0.31185035                0.01861247               -0.00306934                0.02250189
               8.00000000                5.00000000               50.00000000                0.22871307               -0.09549860               -0.09954504                0.31747853                0.01488627               -0.00297734                0.02812827
               9.00000000                5.00000000               50.00000000                0.29648637               -0.09748575               -0.09893478                0.32315331                0.00887128               -0.00150396                0.03097843
              10.00000000                5.00000000               50.00000000                0.67147999               -0.09913705               -0.09111513                0.32891937                0.00452192               -0.00065581                0.03043255
               0.00000000                6.00000000               50.00000000                0.63221023               -0.07866584               -0.07864106                0.25926711                0.00118249               -0.00001885               -0.00303119
               1.00000000                6.00000000               50.00000000                0.15568588               -0.07912580               -0.07850406                0.26503354                0.00357872               -0.00073349               -0.00459807
               2.00000000                6.00000000               50.00000000                0.02637997               -0.04543413               -0.07913853                0.27077942                0.06275941                0.12645974               -0.00346434
               3.00000000                6.00000000               50.00000000                0.04911998               -0.05047265               -0.09658569                0.29024605                0.07487373                0.15941548               -0.02238712
               4.00000000                6.00000000               50.00000000                0.08307550               -0.09289464               -0.09513511                0.29926828                0.03262927                0.04123891               -0.01195332
               5.00000000                6.00000000               50.00000000                0.12359451               -0.09649076               -0.09526762                0.30617318                0.02248000                0.01475331               -0.00078762
               6.00000000                6.00000000               50.00000000                0.17168479               -0.09679523               -0.09679513                0.31241386                0.01539127                0.00552356                0.00552262
               7.00000000                6.00000000               50.00000000                0.22874385               -0.09680736               -0.09876470                0.31837616                0.01044179                0.00159440                0.00955814
               8.00000000                6.00000000               50.00000000                0.29655328               -0.09743511               -0.10020365                0.32421528                0.00659165                0.00014502                0.01208823
               9.00000000                6.00000000               50.00000000                0.37737978               -0.09933075               -0.09985264                0.33001881                0.00321809               -0.00009161                0.01320950
              10.00000000                6.00000000               50.00000000                0.71611179               -0.10067056               -0.09630667                0.33582585                0.00121585               -0.00010522                0.01293602
               0.00000000                7.00000000               50.00000000                0.69076654               -0.08029621               -0.08049199                0.26478257                0.00116890               -0.00001266               -0.00212245
               1.00000000                7.00000000               50.00000000                0.23440501               -0.08071775               -0.08000341                0.27056695                0.00295620                0.00065162               -0.00335972
               2.00000000                7.00000000               50.00000000                0.05982510               -0.05732905               -0.08100395                0.27645878                0.05238206                0.10749115               -0.00193702
               3.00000000                7.00000000               50.00000000                0.08331199               -0.05991699               -0.10069327                0.29396485                0.05788905                0.15068540               -0.03447020
               4.00000000                7.00000000               50.00000000                0.12358638               -0.09178295               -0.09585271                0.30435485                0.03133707                0.05859027               -0.01309371
               5.00000000                7.00000000               50.00000000                0.17167507               -0.09802578               -0.09521202                0.31184810                0.01861141                0.02250464               -0.00307182
               6.00000000                7.00000000               50.00000000                0.22874604               -0.09876490               -0.09680743                0.31837639                0.01044215                0.00956034                0.00159183
               7.00000000                7.00000000               50.00000000                0.29657087               -0.09887351               -0.09887352                0.32450420                0.00548648                0.00399042                0.00398997
               8.00000000                7.00000000               50.00000000                0.37742778               -0.09958306               -0.10049084                0.33044993                0.00252771                0.00152957                0.00523779
               9.00000000                7.00000000               50.00000000                0.47427436               -0.10117180               -0.10112209                0.33631351                0.00089123                0.00047973                0.00572454
              10.00000000                7.00000000               50.00000000                0.76966801               -0.10219556               -0.10045923                0.34213962               -0.00019215                0.00011392                0.00563298
               0.00000000                8.00000000               50.00000000                0.76141681               -0.08192123               -0.08194054                0.27036056                0.00106245                0.00004921               -0.00118333
               1.00000000                8.00000000               50.00000000                0.33072950               -0.08233387               -0.08202191                0.27616577                0.00195965                0.00182353               -0.00208463
               2.00000000                8.00000000               50.00000000                0.10184470               -0.06818530               -0.08355135                0.28219013                0.04114896                0.09316970               -0.00102233
               3.00000000                8.00000000               50.00000000                0.12407837               -0.07013865               -0.10113281                0.29821428                0.05218221                0.14228127               -0.02427883
               4.00000000                8.00000000               50.00000000                0.17165806               -0.09277122               -0.09563885                0.30951968                0.03066818                0.06999767               -0.01028854
               5.00000000                8.00000000               50.00000000                0.22871685               -0.09954335               -0.09549824                0.31747589                0.01488427                0.02812676               -0.00297806
               6.00000000                8.00000000               50.00000000                0.29655251               -0.10020307               -0.09743511                0.32421475                0.00659170                0.01208837                0.00014248
               7.00000000                8.00000000               50.00000000                0.37742867               -0.10049078               -0.09958329                0.33045068                0.00252810                0.00523909                0.00152871
               8.00000000                8.00000000               50.00000000                0.47430267               -0.10139055               -0.10139067                0.33645642                0.00061804                0.00214887                0.00214854
               9.00000000                8.00000000               50.00000000                0.59107999               -0.10288485               -0.10271654                0.34235037               -0.00002939                0.00071073                0.00236605
              10.00000000                8.00000000               50.00000000                0.83437554               -0.10376151               -0.10359903                0.34818565               -0.00078406                0.00020172                0.00235222
               0.00000000                9.00000000               50.00000000                0.84569212               -0.08359632               -0.08315045                0.27599633                0.00093068                0.00018719               -0.00039155
               1.00000000                9.00000000               50.00000000                0.44794885               -0.08411652               -0.08419744                0.28182708                0.00105294                0.00273581               -0.00098817
               2.00000000                9.00000000               50.00000000                0.15475097               -0.07832128               -0.08567344                0.28794627                0.03129600                0.08360108               -0.00044228
               3.00000000                9.00000000               50.00000000                0.17263669               -0.08294645               -0.09618089                0.30299469                0.03403707                0.13573891               -0.01194392
               4.00000000                9.00000000               50.00000000                0.22868449               -0.09621521               -0.09631147                0.31488957                0.02235069                0.07615262               -0.00504257
               5.00000000                9.00000000               50.00000000                0.29649181               -0.09893322               -0.09748432                0.32314850                0.00887069                0.03097597               -0.00150547
               6.00000000                9.00000000               50.00000000                0.37738377               -0.09985175               -0.09932995                0.33001632                0.00321798                0.01320910               -0.00009150
               7.00000000                9.00000000               50.00000000                0.47427940               -0.10112166               -0.10117145                0.33631198                0.00089152                0.00572498                0.00047951
               8.00000000                9.00000000               50.00000000                0.59108124               -0.10271632               -0.10288475                0.34234963               -0.00002903                0.00236578                0.00071057
               9.00000000                9.00000000               50.00000000                0.73301770               -0.10445846               -0.10445847                0.34825896               -0.00020910                0.00078177                0.00078208
              10.00000000                9.00000000               50.00000000                0.91327288               -0.10534718               -0.10603240                0.35409872               -0.00097387                0.00022756                0.00078272
               0.00000000               10.00000000               50.00000000                0.95272281               -0.08561057               -0.08372921                0.28168915               -0.00003656                0.00052659                0.00000678
               1.00000000               10.00000000               50.00000000                0.76532552               -0.08744162               -0.08525338                0.28753044                0.00006743                0.00341931               -0.00043418
               2.00000000               10.00000000               50.00000000                0.59593198               -0.10240848               -0.08647492                0.29366704                0.02690903                0.08082619               -0.00015173
               3.00000000               10.00000000               50.00000000                0.60333336               -0.10245044               -0.09205625                0.30851451                0.01499277                0.13083291               -0.00459561
               4.00000000               10.00000000               50.00000000                0.63410068               -0.08882778               -0.09743576                0.32056193                0.01112973                0.07507465               -0.00206682
               5.00000000               10.00000000               50.00000000                0.67148269               -0.09111412               -0.09913469                0.32891267                0.00452150                0.03043042               -0.00065683
               6.00000000               10.00000000               50.00000000                0.71611565               -0.09630584               -0.10066922                0.33582185                0.00121520                0.01293562               -0.00010438
               7.00000000               10.00000000               50.00000000                0.76966742               -0.10045857               -0.10219472                0.34213598               -0.00019234                0.00563194                0.00011406
               8.00000000               10.00000000               50.00000000                0.83437782               -0.10359857               -0.10376119                0.34818371               -0.00078401                0.00235073                0.00020159
               9.00000000               10.00000000               50.00000000                0.91327322               -0.10603220               -0.10534709                0.35409800               -0.00097389                0.00078156                0.00022767
              10.00000000               10.00000000               50.00000000                0.98250634               -0.10710199               -0.10710209                0.35993914               -0.00190779                0.00023046                0.00023127
               0.00000000                0.00000000               51.00000000                0.75039937               -0.06817228               -0.06817200                0.22708616                0.00208771               -0.00041584               -0.00041520
               1.00000000                0.00000000               51.00000000                0.49590208               -0.06686367               -0.07137460                0.23266072                0.00325999               -0.00214602               -0.00026645
               2.00000000                0.00000000               51.00000000                0.49765586               -0.06725196               -0.07196990                0.23803614                0.00099622               -0.00409737               -0.00004023
               3.00000000                0.00000000               51.00000000                0.51781490               -0.07058420               -0.07378033                0.24334383                0.00110253               -0.00461511               -0.00003867
               4.00000000                0.00000000               51.00000000                0.54660812               -0.07369136               -0.07540212                0.24862946                0.00109193               -0.00455635               -0.00001471
               5.00000000                0.00000000               51.00000000                0.58448162               -0.07641719               -0.07704177                0.25392986                0.00114795               -0.00408236               -0.00000973
               6.00000000                0.00000000               51.00000000                0.63218897               -0.07869663               -0.07865915                0.25927102                0.00118672               -0.00329486               -0.00001834
               7.00000000                0.00000000               51.00000000                0.69073084               -0.08052050               -0.08025559                0.26467178                0.00117190               -0.00232058               -0.00001185
               8.00000000                0.00000000               51.00000000                0.76133497               -0.08192246               -0.08184682                0.27013957                0.00105994               -0.00131538                0.00005424
               9.00000000                0.00000000               51.00000000                0.84556204               -0.08307579               -0.08349158                0.27566885                0.00091935               -0.00045920                0.00020175
              10.00000000                0.00000000               51.00000000                0.95263724               -0.08362560               -0.08548367                0.28125972               -0.00004707               -0.00002386                0.00053496
               0.00000000                1.00000000               51.00000000                0.49590844               -0.07137473               -0.06686343                0.23266024                0.00326027               -0.00026811               -0.00214635
               1.00000000                1.00000000               51.00000000                0.01000001               -0.07455370               -0.07455350                0.23824846                0.00703924               -0.00214338               -0.00214179
               2.00000000                1.00000000               51.00000000                0.01000000               -0.07773526               -0.06672520                0.24365260                0.01968589               -0.00496846                0.00956280
               3.00000000                1.00000000               51.00000000                0.01000001               -0.07753087               -0.06054162                0.24897613                0.02132847               -0.00616443                0.02021490
               4.00000000                1.00000000               51.00000000                0.04164980               -0.07732634               -0.07386226                0.25428640                0.00420968               -0.00632708               -0.00082398
               5.00000000                1.00000000               51.00000000                0.09208023               -0.07759275               -0.07712279                0.25961437                0.00387774               -0.00582548               -0.00184037
               6.00000000                1.00000000               51.00000000                0.15567144               -0.07843095               -0.07909412                0.26498346                0.00377179               -0.00481856               -0.00073127
               7.00000000                1.00000000               51.00000000                0.23435560               -0.07989253               -0.08065269                0.27041233                0.00311146               -0.00351500                0.00071548
               8.00000000                1.00000000               51.00000000                0.33062675               -0.08189845               -0.08223499                0.27590965                0.00205995               -0.00217286                0.00194594
               9.00000000                1.00000000               51.00000000                0.44776963               -0.08406932               -0.08399092                0.28147198                0.00110476               -0.00101986                0.00290261
              10.00000000                1.00000000               51.00000000                0.76520536               -0.08512161               -0.08735424                0.28707581                0.00011714               -0.00043856                0.00358450
               0.00000000                2.00000000               51.00000000                0.49765703               -0.07197112               -0.06725172                0.23803668                0.00099630               -0.00004058               -0.00410205
               1.00000000                2.00000000               51.00000000                0.01000000               -0.06672635               -0.07773499                0.24365405                0.01968662                0.00956223               -0.00497089
               2.00000000                2.00000000               51.00000000                0.01000001               -0.07195471               -0.07195385                0.25021578                0.05868919                0.01785516                0.01785254
               3.00000000                2.00000000               51.00000000                0.01000000               -0.09962161               -0.05264839                0.25666099                0.05630957               -0.01631218                0.04726978
               4.00000000                2.00000000               51.00000000                0.01000000               -0.09854506               -0.04888754                0.25997824                0.05779917               -0.02986510                0.08870607
               5.00000000                2.00000000               51.00000000                0.01000001               -0.07932480               -0.04145045                0.26521791                0.07195214               -0.00720037                0.13480458
               6.00000000                2.00000000               51.00000000                0.02637788               -0.07899019               -0.04379483                0.27068114                0.06572627               -0.00354757                0.13341322
               7.00000000                2.00000000               51.00000000                0.05982208               -0.08083854               -0.05609290                0.27627063                0.05486905               -0.00194143                0.11352037
               8.00000000                2.00000000               51.00000000                0.10182965               -0.08340399               -0.06731063                0.28191101                0.04310749               -0.00098320                0.09851087
               9.00000000                2.00000000               51.00000000                0.15471565               -0.08552456               -0.07778090                0.28757465                0.03278151               -0.00040554                0.08848615
              10.00000000                2.00000000               51.00000000                0.59590757               -0.08631271               -0.10286009                0.29319440                0.02820960               -0.00013009                0.08561276
               0.00000000                3.00000000               51.00000000                0.51781287               -0.07378031               -0.07058303                0.24334098                0.00110176               -0.00003885               -0.00461823
               1.00000000                3.00000000               51.00000000                0.01000001               -0.06054140               -0.07752973                0.24897422                0.02132998                0.02021334               -0.00616637
               2.00000000                3.00000000               51.00000000                0.01000000               -0.05264617               -0.09962568                0.25666034                0.05630727                0.04727188               -0.01630429
               3.00000000                3.00000000               51.00000000                0.01000000               -0.06181690               -0.06181722                0.26493370                0.09116237                0.06693787                0.06692989
               4.00000000                3.00000000               51.00000000                0.01197391               -0.07090435               -0.04159062                0.27465510                0.11401914                0.08476063                0.15455329
               5.00000000                3.00000000               51.00000000                0.02056156               -0.08516284               -0.04167604                0.28495636                0.10623246                0.04188071                0.17327098
               6.00000000                3.00000000               51.00000000                0.04912200               -0.09709763               -0.04894073                0.29051286                0.07842020               -0.02349419                0.16795699
               7.00000000                3.00000000               51.00000000                0.08331765               -0.10132028               -0.05868237                0.29412087                0.06065879               -0.03625709                0.15895454
               8.00000000                3.00000000               51.00000000                0.12409055               -0.10170704               -0.06922916                0.29827396                0.05466669               -0.02551967                0.15027793
               9.00000000                3.00000000               51.00000000                0.17264925               -0.09645883               -0.08247872                0.30296323                0.03565526               -0.01253636                0.14356038
              10.00000000                3.00000000               51.00000000                0.60334057               -0.09210982               -0.10274267                0.30840470                0.01575293               -0.00481134                0.13868063
               0.00000000                4.00000000               51.00000000                0.54661355               -0.07540026               -0.07368906                0.24862302                0.00109142               -0.00001508               -0.00455366
               1.00000000                4.00000000               51.00000000                0.04165223               -0.07386229               -0.07732413                0.25428088                0.00420554               -0.00080912               -0.00632313
               2.00000000                4.00000000               51.00000000                0.01000000               -0.04888274               -0.09854220                0.25998536                0.05779947                0.08870257               -0.02986361
               3.00000000                4.00000000               51.00000000                0.01197458               -0.04158228               -0.07090298                0.27462513                0.11401319                0.15453508                0.08474186
               4.00000000                4.00000000               51.00000000                0.02052140               -0.07290436               -0.07290530                0.28694540                0.06576792                0.08002685                0.08003015
               5.00000000                4.00000000               51.00000000                0.04901866               -0.09155307               -0.08617903                0.29433572                0.04257885                0.01019349                0.04077699
               6.00000000                4.00000000               51.00000000                0.08308082               -0.09548263               -0.09314491                0.29959489                0.03414128               -0.01253861                0.04340997
               7.00000000                4.00000000               51.00000000                0.12359269               -0.09615272               -0.09189297                0.30463787                0.03279471               -0.01375869                0.06175706
               8.00000000                4.00000000               51.00000000                0.17166614               -0.09584871               -0.09281613                0.30974679                0.03209514               -0.01080921                0.07387418
               9.00000000                4.00000000               51.00000000                0.22869941               -0.09647389               -0.09629394                0.31506647                0.02339505               -0.00529589                0.08050555
              10.00000000                4.00000000               51.00000000                0.63411013               -0.09761139               -0.08842660                0.32069204                0.01171657               -0.00216425                0.07959311
               0.00000000                5.00000000               51.00000000                0.58448453               -0.07703979               -0.07641486                0.25392339                0.00114790               -0.00001048               -0.00407967
               1.00000000                5.00000000               51.00000000                0.09208318               -0.07711985               -0.07759056                0.25960874                0.00387935               -0.00183854               -0.00582150
               2.00000000                5.00000000               51.00000000                0.01000001               -0.04145008               -0.07931655                0.26518607                0.07195059                0.13478723               -0.00721259
               3.00000000                5.00000000               51.00000000                0.02056154               -0.04167314               -0.08516459                0.28495108                0.10622010                0.17327064                0.04187799
               4.00000000                5.00000000               51.00000000                0.04902007               -0.08617410               -0.09154897                0.29432190                0.04257048                0.04079149                0.01018628
               5.00000000                5.00000000               51.00000000                0.08308217               -0.09513914               -0.09513931                0.30066175                0.02953488                0.00601725                0.00602177
               6.00000000                5.00000000               51.00000000                0.12360203               -0.09552703               -0.09680542                0.30650897                0.02351107               -0.00081063                0.01551715
               7.00000000                5.00000000               51.00000000                0.17168542               -0.09538538               -0.09832206                0.31215936                0.01946912               -0.00321519                0.02370734
               8.00000000                5.00000000               51.00000000                0.22873622               -0.09560267               -0.09981455                0.31776058                0.01557421               -0.00312298                0.02968702
               9.00000000                5.00000000               51.00000000                0.29651692               -0.09759747               -0.09907414                0.32340057                0.00928367               -0.00158610                0.03276805
              10.00000000                5.00000000               51.00000000                0.67149532               -0.09928239               -0.09078264                0.32913259                0.00478492               -0.00069079                0.03231123
               0.00000000                6.00000000               51.00000000                0.63219982               -0.07865697               -0.07869464                0.25926407                0.00118687               -0.00001868               -0.00329428
               1.00000000                6.00000000               51.00000000                0.15567187               -0.07909234               -0.07842918                0.26497757                0.00377342               -0.00073419               -0.00481679
               2.00000000                6.00000000               51.00000000                0.02637869               -0.04379244               -0.07899017                0.27068647                0.06571937                0.13340708               -0.00355119
               3.00000000                6.00000000               51.00000000                0.04912464               -0.04893772               -0.09709859                0.29050939                0.07841278                0.16794803               -0.02348377
               4.00000000                6.00000000               51.00000000                0.08308090               -0.09314245               -0.09548045                0.29958701                0.03413660                0.04340921               -0.01255204
               5.00000000                6.00000000               51.00000000                0.12360421               -0.09680393               -0.09552670                0.30650816                0.02350790                0.01552289               -0.00081338
               6.00000000                6.00000000               51.00000000                0.17169869               -0.09703555               -0.09703578                0.31274640                0.01609730                0.00581932                0.00581783
               7.00000000                6.00000000               51.00000000                0.22876662               -0.09696321               -0.09900639                0.31869209                0.01092244                0.00168751                0.01008189
               8.00000000                6.00000000               51.00000000                0.29658306               -0.09753609               -0.10042102                0.32451364                0.00689736                0.00015761                0.01277218
               9.00000000                6.00000000               51.00000000                0.37742575               -0.09943440               -0.09996048                0.33029268                0.00336850               -0.00009676                0.01399869
              10.00000000                6.00000000               51.00000000                0.71614124               -0.10079320               -0.09615404                0.33607421                0.00131865               -0.00010966                0.01376937
               0.00000000                7.00000000               51.00000000                0.69073135               -0.08025381               -0.08051850                0.26466519                0.00117192               -0.00001254               -0.00232236
               1.00000000                7.00000000               51.00000000                0.23435568               -0.08065122               -0.07989079                0.27040687                0.00311147                0.00070725               -0.00351519
               2.00000000                7.00000000               51.00000000                0.05982379               -0.05609155               -0.08083841                0.27626893                0.05486369                0.11350786               -0.00193745
               3.00000000                7.00000000               51.00000000                0.08332043               -0.05867990               -0.10131858                0.29411408                0.06064972                0.15894524               -0.03625905
               4.00000000                7.00000000               51.00000000                0.12359378               -0.09189036               -0.09615250                0.30463966                0.03279078                0.06175717               -0.01375509
               5.00000000                7.00000000               51.00000000                0.17168880               -0.09832007               -0.09538449                0.31215608                0.01946729                0.02371233               -0.00321949
               6.00000000                7.00000000               51.00000000                0.22876839               -0.09900509               -0.09696243                0.31868911                0.01092217                0.01008308                0.00168565
               7.00000000                7.00000000               51.00000000                0.29660631               -0.09903493               -0.09903490                0.32481047                0.00574001                0.00421942                0.00421831
               8.00000000                7.00000000               51.00000000                0.37748049               -0.09969361               -0.10063826                0.33074416                0.00264656                0.00162397                0.00555367
               9.00000000                7.00000000               51.00000000                0.47434603               -0.10127135               -0.10120925                0.33659132                0.00093404                0.00051172                0.00609069
              10.00000000                7.00000000               51.00000000                0.76970657               -0.10229991               -0.10042499                0.34239757               -0.00015663                0.00012426                0.00601873
               0.00000000                8.00000000               51.00000000                0.76134139               -0.08184458               -0.08191998                0.27013133                0.00105992                0.00005407               -0.00131805
               1.00000000                8.00000000               51.00000000                0.33063535               -0.08223298               -0.08189631                0.27590263                0.00206050                0.00194488               -0.00217311
               2.00000000                8.00000000               51.00000000                0.10183626               -0.06730988               -0.08340215                0.28190676                0.04310289                0.09849682               -0.00097350
               3.00000000                8.00000000               51.00000000                0.12409400               -0.06922728               -0.10170427                0.29826557                0.05465885                0.15026461               -0.02551606
               4.00000000                8.00000000               51.00000000                0.17167471               -0.09281270               -0.09584682                0.30973949                0.03209208                0.07387147               -0.01080526
               5.00000000                8.00000000               51.00000000                0.22873856               -0.09981240               -0.09560075                0.31775333                0.01557384                0.02968502               -0.00312604
               6.00000000                8.00000000               51.00000000                0.29658598               -0.10042009               -0.09753486                0.32450999                0.00689688                0.01277392                0.00015562
               7.00000000                8.00000000               51.00000000                0.37748201               -0.10063804               -0.09969301                0.33074293                0.00264603                0.00555401                0.00162294
               8.00000000                8.00000000               51.00000000                0.47437949               -0.10149621               -0.10149609                0.33673974                0.00064875                0.00228932                0.00228893
               9.00000000                8.00000000               51.00000000                0.59117981               -0.10297579               -0.10279513                0.34262044               -0.00002917                0.00075916                0.00253144
              10.00000000                8.00000000               51.00000000                0.83443118               -0.10385065               -0.10362969                0.34843802               -0.00077712                0.00021625                0.00252746
               0.00000000                9.00000000               51.00000000                0.84556569               -0.08348910               -0.08307297                0.27565969                0.00091944                0.00020241               -0.00046075
               1.00000000                9.00000000               51.00000000                0.44777822               -0.08398889               -0.08406706                0.28146456                0.00110492                0.00290413               -0.00101919
               2.00000000                9.00000000               51.00000000                0.15472107               -0.07777987               -0.08552359                0.28757157                0.03277746                0.08847393               -0.00040226
               3.00000000                9.00000000               51.00000000                0.17265610               -0.08247660               -0.09645636                0.30295673                0.03565108                0.14354292               -0.01253159
               4.00000000                9.00000000               51.00000000                0.22870362               -0.09629091               -0.09647165                0.31505946                0.02339303                0.08049844               -0.00529882
               5.00000000                9.00000000               51.00000000                0.29651958               -0.09907240               -0.09759579                0.32339554                0.00928274                0.03276550               -0.00158729
               6.00000000                9.00000000               51.00000000                0.37742722               -0.09995959               -0.09943351                0.33029012                0.00336763                0.01399996               -0.00009906
               7.00000000                9.00000000               51.00000000                0.47435092               -0.10120873               -0.10127057                0.33658895                0.00093351                0.00609103                0.00051034
               8.00000000                9.00000000               51.00000000                0.59117809               -0.10279491               -0.10297526                0.34261938               -0.00002929                0.00253134                0.00075835
               9.00000000                9.00000000               51.00000000                0.73314966               -0.10453526               -0.10453511                0.34851827               -0.00021778                0.00084281                0.00084211
              10.00000000                9.00000000               51.00000000                0.91334544               -0.10542412               -0.10609273                0.35434207               -0.00097496                0.00024803                0.00084892
               0.00000000               10.00000000               51.00000000                0.95264046               -0.08548129               -0.08362278                0.28125088               -0.00004735                0.00053479               -0.00002515
               1.00000000               10.00000000               51.00000000                0.76521341               -0.08735206               -0.08511946                0.28706883                0.00011626                0.00358458               -0.00043789
               2.00000000               10.00000000               51.00000000                0.59591128               -0.10285692               -0.08631224                0.29319074                0.02820585                0.08560036               -0.00012936
               3.00000000               10.00000000               51.00000000                0.60334274               -0.10273982               -0.09210797                0.30839856                0.01575138                0.13866119               -0.00480910
               4.00000000               10.00000000               51.00000000                0.63411321               -0.08842550               -0.09760966                0.32068672                0.01171518                0.07958431               -0.00216746
               5.00000000               10.00000000               51.00000000                0.67149918               -0.09078190               -0.09928120                0.32912895                0.00478393                0.03230882               -0.00069184
               6.00000000               10.00000000               51.00000000                0.71614230               -0.09615337               -0.10079251                0.33607163                0.00131796                0.01376942               -0.00011158
               7.00000000               10.00000000               51.00000000                0.76970621               -0.10042433               -0.10229905                0.34239429               -0.00015682                0.00601878                0.00012317
               8.00000000               10.00000000               51.00000000                0.83443184               -0.10362929               -0.10384986                0.34843613               -0.00077732                0.00252664                0.00021543
               9.00000000               10.00000000               51.00000000                0.91334303               -0.10609265               -0.10542381                0.35434159               -0.00097521                0.00084869                0.00024713
              10.00000000               10.00000000               51.00000000                0.98254454               -0.10717006               -0.10717003                0.36016770               -0.00190477                0.00025402                0.00025401
               0.00000000                0.00000000               52.00000000                0.75048680               -0.06834151               -0.06834130                0.22781074                0.00206690               -0.00044152               -0.00044197
               1.00000000                0.00000000               52.00000000                0.49600732               -0.06691953               -0.07157544                0.23327965                0.00335786               -0.00228601               -0.00027979
               2.00000000                0.00000000               52.00000000                0.49770769               -0.06721971               -0.07209253                0.23853933                0.00099190               -0.00439166               -0.00003158
               3.00000000                0.00000000               52.00000000                0.51785573               -0.07059813               -0.07387570                0.24372010                0.00110220               -0.00496512               -0.00003416
               4.00000000                0.00000000               52.00000000                0.54664373               -0.07373876               -0.07546323                0.24887985                0.00109155               -0.00491632               -0.00001185
               5.00000000                0.00000000               52.00000000                0.58449731               -0.07647859               -0.07706923                0.25405384                0.00114985               -0.00442003               -0.00000892
               6.00000000                0.00000000               52.00000000                0.63218055               -0.07874999               -0.07865181                0.25927046                0.00118995               -0.00358291               -0.00001862
               7.00000000                0.00000000               52.00000000                0.69068812               -0.08054415               -0.08021262                0.26454903                0.00117376               -0.00254222               -0.00001205
               8.00000000                0.00000000               52.00000000                0.76125379               -0.08189687               -0.08176672                0.26989641                0.00105639               -0.00146543                0.00005933
               9.00000000                0.00000000               52.00000000                0.84542658               -0.08299096               -0.08337782                0.27530930                0.00090718               -0.00053820                0.00021805
              10.00000000                0.00000000               52.00000000                0.95254688               -0.08351058               -0.08534498                0.28079073               -0.00005982               -0.00006349                0.00054045
               0.00000000                1.00000000               52.00000000                0.49601572               -0.07157500               -0.06691873                0.23327747                0.00335687               -0.00028025               -0.00228662
               1.00000000                1.00000000               52.00000000                0.01000001               -0.07484802               -0.07484753                0.23876088                0.00736558               -0.00225722               -0.00225674
               2.00000000                1.00000000               52.00000000                0.01000000               -0.07806703               -0.06658309                0.24405548                0.02055956               -0.00521970                0.01004085
               3.00000000                1.00000000               52.00000000                0.01000001               -0.07774050               -0.06004678                0.24926126                0.02228314               -0.00646216                0.02125229
               4.00000000                1.00000000               52.00000000                0.04167695               -0.07741644               -0.07380908                0.25445788                0.00442620               -0.00662210               -0.00078983
               5.00000000                1.00000000               52.00000000                0.09208895               -0.07758747               -0.07710378                0.25967248                0.00408146               -0.00609486               -0.00189731
               6.00000000                1.00000000               52.00000000                0.15565196               -0.07835740               -0.07906180                0.26492979                0.00396259               -0.00503995               -0.00074523
               7.00000000                1.00000000               52.00000000                0.23430405               -0.07977933               -0.08058520                0.27024758                0.00326585               -0.00367241                0.00077139
               8.00000000                1.00000000               52.00000000                0.33052471               -0.08176994               -0.08213109                0.27563473                0.00216220               -0.00225954                0.00207499
               9.00000000                1.00000000               52.00000000                0.44757906               -0.08393347               -0.08385811                0.28109077                0.00115760               -0.00104805                0.00307855
              10.00000000                1.00000000               52.00000000                0.76508478               -0.08498096               -0.08725549                0.28658848                0.00016410               -0.00044050                0.00375135
               0.00000000                2.00000000               52.00000000                0.49771866               -0.07209003               -0.06721798                0.23853258                0.00099142               -0.00003208               -0.00439401
               1.00000000                2.00000000               52.00000000                0.01000000               -0.06658282               -0.07806526                0.24404984                0.02055955                0.01004062               -0.00522047
               2.00000000                2.00000000               52.00000000                0.01000001               -0.07193138               -0.07193149                0.25053003                0.06123395                0.01872709                0.01872888
               3.00000000                2.00000000               52.00000000                0.01000000               -0.10066924               -0.05172102                0.25689692                0.05878154               -0.01706319                0.04959830
               4.00000000                2.00000000               52.00000000                0.01000000               -0.09943453               -0.04770476                0.26011085                0.06035902               -0.03120129                0.09327288
               5.00000000                2.00000000               52.00000000                0.01000001               -0.07928343               -0.03986931                0.26518420                0.07510720               -0.00745409                0.14188014
               6.00000000                2.00000000               52.00000000                0.02638038               -0.07884117               -0.04219612                0.27058075                0.06861583               -0.00359745                0.14057569
               7.00000000                2.00000000               52.00000000                0.05981987               -0.08067044               -0.05488787                0.27606500                0.05729266               -0.00190840                0.11973678
               8.00000000                2.00000000               52.00000000                0.10182280               -0.08325301               -0.06645444                0.28161823                0.04501587               -0.00091293                0.10402939
               9.00000000                2.00000000               52.00000000                0.15468368               -0.08537330               -0.07724683                0.28719104                0.03422715               -0.00035440                0.09354926
              10.00000000                2.00000000               52.00000000                0.59588369               -0.08614827               -0.10328477                0.29270289                0.02946998               -0.00010177                0.09058504
               0.00000000                3.00000000               52.00000000                0.51785502               -0.07387409               -0.07059650                0.24371511                0.00110243               -0.00003441               -0.00496865
               1.00000000                3.00000000               52.00000000                0.01000001               -0.06004581               -0.07773895                0.24925729                0.02228071                0.02125415               -0.00646457
               2.00000000                3.00000000               52.00000000                0.01000000               -0.05172238               -0.10066709                0.25690145                0.05878345                0.04959807               -0.01706656
               3.00000000                3.00000000               52.00000000                0.01000000               -0.06114207               -0.06114183                0.26514285                0.09507811                0.07025278                0.07025059
               4.00000000                3.00000000               52.00000000                0.01197474               -0.07046709               -0.03998542                0.27486240                0.11891481                0.08909798                0.16238441
               5.00000000                3.00000000               52.00000000                0.02056289               -0.08522239               -0.03998977                0.28525409                0.11081924                0.04412465                0.18216915
               6.00000000                3.00000000               52.00000000                0.04912733               -0.09759410               -0.04745028                0.29076367                0.08186693               -0.02462944                0.17671859
               7.00000000                3.00000000               52.00000000                0.08332724               -0.10192461               -0.05748029                0.29426442                0.06334948               -0.03809439                0.16745980
               8.00000000                3.00000000               52.00000000                0.12410452               -0.10225991               -0.06834173                0.29831718                0.05708064               -0.02678252                0.15852861
               9.00000000                3.00000000               52.00000000                0.17266835               -0.09672632               -0.08201703                0.30292021                0.03722717               -0.01312862                0.15165759
              10.00000000                3.00000000               52.00000000                0.60334951               -0.09216134               -0.10301474                0.30828273                0.01649054               -0.00502443                0.14685176
               0.00000000                4.00000000               52.00000000                0.54664224               -0.07546150               -0.07373711                0.24887427                0.00109123               -0.00001156               -0.00491687
               1.00000000                4.00000000               52.00000000                0.04167653               -0.07380657               -0.07741494                0.25445316                0.00442704               -0.00079613               -0.00662163
               2.00000000                4.00000000               52.00000000                0.01000000               -0.04770344               -0.09943118                0.26008785                0.06035762                0.09326655               -0.03120336
               3.00000000                4.00000000               52.00000000                0.01197418               -0.03998311               -0.07047305                0.27487822                0.11891482                0.16238788                0.08910789
               4.00000000                4.00000000               52.00000000                0.02052216               -0.07246942               -0.07247328                0.28731074                0.06859540                0.08416369                0.08415005
               5.00000000                4.00000000               52.00000000                0.04902024               -0.09180226               -0.08621278                0.29470286                0.04439989                0.01074961                0.04286523
               6.00000000                4.00000000               52.00000000                0.08308344               -0.09581952               -0.09339225                0.29991103                0.03560977               -0.01314912                0.04562171
               7.00000000                4.00000000               52.00000000                0.12359990               -0.09644222               -0.09199883                0.30490915                0.03420851               -0.01442326                0.06501175
               8.00000000                4.00000000               52.00000000                0.17168338               -0.09605121               -0.09285808                0.30996551                0.03347812               -0.01133095                0.07787315
               9.00000000                4.00000000               52.00000000                0.22871999               -0.09663074               -0.09636691                0.31523499                0.02440753               -0.00555760                0.08501192
              10.00000000                4.00000000               52.00000000                0.63412173               -0.09778112               -0.08803256                0.32081323                0.01228602               -0.00226711                0.08430528
               0.00000000                5.00000000               52.00000000                0.58449646               -0.07706647               -0.07647633                0.25404590                0.00114970               -0.00000851               -0.00441748
               1.00000000                5.00000000               52.00000000                0.09208760               -0.07710177               -0.07758526                0.25966530                0.00408128               -0.00190759               -0.00609103
               2.00000000                5.00000000               52.00000000                0.01000001               -0.03986420               -0.07928119                0.26518389                0.07509944                0.14188534               -0.00743793
               3.00000000                5.00000000               52.00000000                0.02056444               -0.03998587               -0.08522375                0.28527190                0.11081337                0.18217362                0.04412535
               4.00000000                5.00000000               52.00000000                0.04901923               -0.08621179               -0.09180264                0.29469665                0.04439865                0.04285577                0.01074579
               5.00000000                5.00000000               52.00000000                0.08308760               -0.09545717               -0.09545819                0.30102122                0.03079172                0.00633543                0.00632511
               6.00000000                5.00000000               52.00000000                0.12360944               -0.09578104               -0.09711291                0.30684466                0.02451445               -0.00084174                0.01631182
               7.00000000                5.00000000               52.00000000                0.17170081               -0.09555537               -0.09861095                0.31246930                0.02030232               -0.00336350                0.02495148
               8.00000000                5.00000000               52.00000000                0.22875785               -0.09570378               -0.10007826                0.31803637                0.01624319               -0.00327612                0.03129557
               9.00000000                5.00000000               52.00000000                0.29654857               -0.09770666               -0.09921157                0.32364610                0.00968481               -0.00166957                0.03462802
              10.00000000                5.00000000               52.00000000                0.67151223               -0.09942555               -0.09046205                0.32934986                0.00504046               -0.00072522                0.03428340
               0.00000000                6.00000000               52.00000000                0.63218932               -0.07864958               -0.07874772                0.25926276                0.00119004               -0.00001850               -0.00358040
               1.00000000                6.00000000               52.00000000                0.15566357               -0.07905918               -0.07835524                0.26492265                0.00396325               -0.00073778               -0.00503577
               2.00000000                6.00000000               52.00000000                0.02638388               -0.04219279               -0.07883883                0.27056669                0.06861045                0.14056451               -0.00357873
               3.00000000                6.00000000               52.00000000                0.04912920               -0.04744751               -0.09758851                0.29074608                0.08185385                0.17669810               -0.02464580
               4.00000000                6.00000000               52.00000000                0.08308544               -0.09339021               -0.09581823                0.29990875                0.03560410                0.04562564               -0.01314147
               5.00000000                6.00000000               52.00000000                0.12361257               -0.09711108               -0.09577975                0.30683834                0.02451124                0.01631584               -0.00084611
               6.00000000                6.00000000               52.00000000                0.17171296               -0.09727066               -0.09727104                0.31307401                0.01678348                0.00612371                0.00612157
               7.00000000                6.00000000               52.00000000                0.22878892               -0.09711696               -0.09924358                0.31900756                0.01139029                0.00178495                0.01061682
               8.00000000                6.00000000               52.00000000                0.29662207               -0.09763596               -0.10063515                0.32481025                0.00719497                0.00017198                0.01348168
               9.00000000                6.00000000               52.00000000                0.37747492               -0.09953758               -0.10006913                0.33056957                0.00351439               -0.00010475                0.01482344
              10.00000000                6.00000000               52.00000000                0.71616821               -0.10091577               -0.09601079                0.33633116                0.00141800               -0.00011646                0.01464731
               0.00000000                7.00000000               52.00000000                0.69069350               -0.08021005               -0.08054213                0.26454142                0.00117365               -0.00001160               -0.00254168
               1.00000000                7.00000000               52.00000000                0.23431215               -0.08058308               -0.07977751                0.27024073                0.00326576                0.00077707               -0.00367034
               2.00000000                7.00000000               52.00000000                0.05982311               -0.05488661               -0.08067071                0.27606663                0.05728773                0.11972213               -0.00191307
               3.00000000                7.00000000               52.00000000                0.08332775               -0.05747785               -0.10192285                0.29426373                0.06333699                0.16744475               -0.03809612
               4.00000000                7.00000000               52.00000000                0.12360540               -0.09199538               -0.09644094                0.30490696                0.03420111                0.06501267               -0.01442539
               5.00000000                7.00000000               52.00000000                0.17170027               -0.09860861               -0.09555404                0.31246479                0.02030008                0.02494891               -0.00336944
               6.00000000                7.00000000               52.00000000                0.22879121               -0.09924247               -0.09711591                0.31900487                0.01138900                0.01062010                0.00178131
               7.00000000                7.00000000               52.00000000                0.29664242               -0.09919514               -0.09919508                0.32512024                0.00598731                0.00445662                0.00445422
               8.00000000                7.00000000               52.00000000                0.37753414               -0.09980415               -0.10078529                0.33104146                0.00276263                0.00172259                0.00587682
               9.00000000                7.00000000               52.00000000                0.47442249               -0.10137152               -0.10129876                0.33687442                0.00097547                0.00054322                0.00647195
              10.00000000                7.00000000               52.00000000                0.76974749               -0.10240515               -0.10039779                0.34266521               -0.00012255                0.00013329                0.00642759
               0.00000000                8.00000000               52.00000000                0.76126077               -0.08176442               -0.08189499                0.26988979                0.00105625                0.00005962               -0.00146750
               1.00000000                8.00000000               52.00000000                0.33053246               -0.08212919               -0.08176826                0.27562857                0.00216055                0.00207378               -0.00225961
               2.00000000                8.00000000               52.00000000                0.10182367               -0.06645473               -0.08325226                0.28161418                0.04501043                0.10401176               -0.00091622
               3.00000000                8.00000000               52.00000000                0.12410556               -0.06833978               -0.10226012                0.29832153                0.05707338                0.15851423               -0.02677941
               4.00000000                8.00000000               52.00000000                0.17168821               -0.09285284               -0.09604960                0.30995740                0.03347410                0.07787184               -0.01133695
               5.00000000                8.00000000               52.00000000                0.22875895               -0.10007522               -0.09570258                0.31803233                0.01624208                0.03129579               -0.00327715
               6.00000000                8.00000000               52.00000000                0.29662248               -0.10063387               -0.09763464                0.32480618                0.00719428                0.01348549                0.00017119
               7.00000000                8.00000000               52.00000000                0.37753569               -0.10078507               -0.09980351                0.33103979                0.00276271                0.00587972                0.00172122
               8.00000000                8.00000000               52.00000000                0.47445574               -0.10160351               -0.10160299                0.33702955                0.00067986                0.00243593                0.00243506
               9.00000000                8.00000000               52.00000000                0.59128787               -0.10306910               -0.10287720                0.34290038               -0.00002939                0.00081396                0.00270660
              10.00000000                8.00000000               52.00000000                0.83449011               -0.10394240               -0.10366655                0.34870484               -0.00077145                0.00023485                0.00271504
               0.00000000                9.00000000               52.00000000                0.84543105               -0.08337580               -0.08298912                0.27530283                0.00090699                0.00021892               -0.00054032
               1.00000000                9.00000000               52.00000000                0.44759781               -0.08385604               -0.08393168                0.28108391                0.00115661                0.00308081               -0.00104768
               2.00000000                9.00000000               52.00000000                0.15468776               -0.07724515               -0.08537079                0.28718191                0.03422212                0.09353506               -0.00035019
               3.00000000                9.00000000               52.00000000                0.17267381               -0.08201396               -0.09672542                0.30291717                0.03722427                0.15163843               -0.01312367
               4.00000000                9.00000000               52.00000000                0.22872659               -0.09636289               -0.09662926                0.31522740                0.02440650                0.08500723               -0.00555696
               5.00000000                9.00000000               52.00000000                0.29655341               -0.09920939               -0.09770558                0.32364211                0.00968445                0.03462812               -0.00166767
               6.00000000                9.00000000               52.00000000                0.37747999               -0.10006792               -0.09953663                0.33056637                0.00351414                0.01482397               -0.00010280
               7.00000000                9.00000000               52.00000000                0.47442574               -0.10129819               -0.10137059                0.33687160                0.00097565                0.00647226                0.00054256
               8.00000000                9.00000000               52.00000000                0.59128615               -0.10287759               -0.10306902                0.34290122               -0.00002877                0.00270717                0.00081349
               9.00000000                9.00000000               52.00000000                0.73329584               -0.10461634               -0.10461611                0.34879171               -0.00022715                0.00090848                0.00090851
              10.00000000                9.00000000               52.00000000                0.91342556               -0.10550498               -0.10615849                0.35460169               -0.00097737                0.00026959                0.00091867
               0.00000000               10.00000000               52.00000000                0.95255237               -0.08534279               -0.08350870                0.28078370               -0.00005988                0.00054078               -0.00006492
               1.00000000               10.00000000               52.00000000                0.76509284               -0.08725287               -0.08497901                0.28658082                0.00016376                0.00375404               -0.00043915
               2.00000000               10.00000000               52.00000000                0.59588720               -0.10328017               -0.08614567                0.29269288                0.02946500                0.09057074               -0.00009629
               3.00000000               10.00000000               52.00000000                0.60335365               -0.10301042               -0.09216016                0.30827609                0.01648828                0.14683098               -0.00502213
               4.00000000               10.00000000               52.00000000                0.63412170               -0.08803068               -0.09777971                0.32080647                0.01228543                0.08429914               -0.00226450
               5.00000000               10.00000000               52.00000000                0.67151600               -0.09046115               -0.09942466                0.32934564                0.00504000                0.03428191               -0.00072295
               6.00000000               10.00000000               52.00000000                0.71617185               -0.09600980               -0.10091515                0.33632831                0.00141804                0.01464560               -0.00011431
               7.00000000               10.00000000               52.00000000                0.76974950               -0.10039698               -0.10240405                0.34266162               -0.00012273                0.00642572                0.00013298
               8.00000000               10.00000000               52.00000000                0.83449420               -0.10366681               -0.10394276                0.34870560               -0.00077142                0.00271496                0.00023434
               9.00000000               10.00000000               52.00000000                0.91342450               -0.10615902               -0.10550521                0.35460275               -0.00097689                0.00091847                0.00026988
              10.00000000               10.00000000               52.00000000                0.98258884               -0.10724313               -0.10724283                0.36041442               -0.00190249                0.00027636                0.00027683
               0.00000000                0.00000000               53.00000000                0.75057269               -0.06852283               -0.06852216                0.22857508                0.00204351               -0.00046581               -0.00046547
               1.00000000                0.00000000               53.00000000                0.49612893               -0.06698956               -0.07178355                0.23393080                0.00345097               -0.00242929               -0.00029076
               2.00000000                0.00000000               53.00000000                0.49777643               -0.06720158               -0.07221981                0.23906465                0.00098661               -0.00470165               -0.00002199
               3.00000000                0.00000000               53.00000000                0.51790418               -0.07062225               -0.07397508                0.24411509                0.00110123               -0.00534399               -0.00002821
               4.00000000                0.00000000               53.00000000                0.54667633               -0.07379189               -0.07552605                0.24914098                0.00108995               -0.00530846               -0.00000796
               5.00000000                0.00000000               53.00000000                0.58451020               -0.07654152               -0.07709573                0.25418004                0.00115088               -0.00478467               -0.00000717
               6.00000000                0.00000000               53.00000000                0.63217164               -0.07880199               -0.07864283                0.25926695                0.00119219               -0.00389202               -0.00001879
               7.00000000                0.00000000               53.00000000                0.69065343               -0.08056374               -0.08016529                0.26441574                0.00117428               -0.00278124               -0.00001154
               8.00000000                0.00000000               53.00000000                0.76117055               -0.08186551               -0.08168152                0.26963768                0.00105188               -0.00163249                0.00006487
               9.00000000                0.00000000               53.00000000                0.84527674               -0.08289994               -0.08325880                0.27493037                0.00089429               -0.00063017                0.00023675
              10.00000000                0.00000000               53.00000000                0.95245370               -0.08338926               -0.08519918                0.28029693               -0.00007351               -0.00011182                0.00054446
               0.00000000                1.00000000               53.00000000                0.49614063               -0.07178320               -0.06698835                0.23392780                0.00344997               -0.00029112               -0.00243244
               1.00000000                1.00000000               53.00000000                0.01000001               -0.07514591               -0.07514503                0.23929918                0.00768244               -0.00237121               -0.00237385
               2.00000000                1.00000000               53.00000000                0.01000000               -0.07839819               -0.06645871                0.24447499                0.02140190               -0.00547187                0.01052626
               3.00000000                1.00000000               53.00000000                0.01000001               -0.07795080               -0.05958199                0.24956068                0.02319955               -0.00676558                0.02230988
               4.00000000                1.00000000               53.00000000                0.04170890               -0.07750808               -0.07375766                0.25463703                0.00464992               -0.00692237               -0.00074796
               5.00000000                1.00000000               53.00000000                0.09209428               -0.07758375               -0.07708702                0.25973149                0.00428515               -0.00636369               -0.00194632
               6.00000000                1.00000000               53.00000000                0.15564089               -0.07828531               -0.07902902                0.26487324                0.00414923               -0.00525689               -0.00073810
               7.00000000                1.00000000               53.00000000                0.23424879               -0.07966600               -0.08051586                0.27007400                0.00341477               -0.00382550                0.00083978
               8.00000000                1.00000000               53.00000000                0.33041967               -0.08163897               -0.08202388                0.27534609                0.00225802               -0.00234396                0.00220989
               9.00000000                1.00000000               53.00000000                0.44738905               -0.08379318               -0.08372033                0.28069129                0.00120713               -0.00107374                0.00326789
              10.00000000                1.00000000               53.00000000                0.76495716               -0.08483497               -0.08714715                0.28607736                0.00020906               -0.00043848                0.00392681
               0.00000000                2.00000000               53.00000000                0.49776866               -0.07221868               -0.06719954                0.23905938                0.00098627               -0.00002113               -0.00470626
               1.00000000                2.00000000               53.00000000                0.01000000               -0.06645906               -0.07839602                0.24447081                0.02140176                0.01052848               -0.00547570
               2.00000000                2.00000000               53.00000000                0.01000001               -0.07192366               -0.07191771                0.25086185                0.06368260                0.01961259                0.01961227
               3.00000000                2.00000000               53.00000000                0.01000000               -0.10167010               -0.05084325                0.25714922                0.06116921               -0.01781873                0.05195642
               4.00000000                2.00000000               53.00000000                0.01000000               -0.10028306               -0.04657866                0.26018363                0.06282453               -0.03252321                0.09793905
               5.00000000                2.00000000               53.00000000                0.01000001               -0.07925446               -0.03836227                0.26521697                0.07813565               -0.00767279                0.14914348
               6.00000000                2.00000000               53.00000000                0.02638261               -0.07870147               -0.04067168                0.27048900                0.07139868               -0.00362087                0.14792860
               7.00000000                2.00000000               53.00000000                0.05981855               -0.08050718               -0.05373412                0.27587341                0.05962612               -0.00186893                0.12614519
               8.00000000                2.00000000               53.00000000                0.10180959               -0.08310060               -0.06562931                0.28131532                0.04684980               -0.00082748                0.10973824
               9.00000000                2.00000000               53.00000000                0.15465163               -0.08521639               -0.07672244                0.28678516                0.03561298               -0.00028525                0.09880782
              10.00000000                2.00000000               53.00000000                0.59585869               -0.08597812               -0.10367145                0.29218372                0.03067247               -0.00005878                0.09576141
               0.00000000                3.00000000               53.00000000                0.51790349               -0.07397388               -0.07062039                0.24411082                0.00110133               -0.00002757               -0.00534403
               1.00000000                3.00000000               53.00000000                0.01000001               -0.05958178               -0.07794905                0.24955745                0.02320313                0.02231500               -0.00676504
               2.00000000                3.00000000               53.00000000                0.01000000               -0.05084563               -0.10166514                0.25714347                0.06117019                0.05195917               -0.01782239
               3.00000000                3.00000000               53.00000000                0.01000000               -0.06050123               -0.06050149                0.26535256                0.09884642                0.07362412                0.07363751
               4.00000000                3.00000000               53.00000000                0.01197501               -0.07005126               -0.03846053                0.27509380                0.12360729                0.09353809                0.17037543
               5.00000000                3.00000000               53.00000000                0.02056558               -0.08527250               -0.03838349                0.28553894                0.11521658                0.04642692                0.19126114
               6.00000000                3.00000000               53.00000000                0.04913316               -0.09806140               -0.04602775                0.29097897                0.08517975               -0.02579303                0.18568019
               7.00000000                3.00000000               53.00000000                0.08333350               -0.10250345               -0.05633262                0.29441269                0.06593996               -0.03995941                0.17620676
               8.00000000                3.00000000               53.00000000                0.12411935               -0.10279065               -0.06749065                0.29836804                0.05940296               -0.02806262                0.16704679
               9.00000000                3.00000000               53.00000000                0.17269032               -0.09698244               -0.08156649                0.30287383                0.03873848               -0.01372303                0.16004541
              10.00000000                3.00000000               53.00000000                0.60336350               -0.09221105               -0.10325934                0.30815156                0.01719576               -0.00523434                0.15536910
               0.00000000                4.00000000               53.00000000                0.54666901               -0.07552546               -0.07379093                0.24913824                0.00109023               -0.00000739               -0.00530627
               1.00000000                4.00000000               53.00000000                0.04170670               -0.07375736               -0.07750720                0.25463520                0.00465275               -0.00075326               -0.00691935
               2.00000000                4.00000000               53.00000000                0.01000000               -0.04657676               -0.10028683                0.26021832                0.06282173                0.09795085               -0.03252012
               3.00000000                4.00000000               53.00000000                0.01197611               -0.03845708               -0.07005547                0.27509889                0.12360845                0.17038336                0.09354525
               4.00000000                4.00000000               53.00000000                0.02052405               -0.07205760               -0.07206097                0.28764886                0.07130913                0.08837655                0.08838686
               5.00000000                4.00000000               53.00000000                0.04902396               -0.09204142               -0.08624507                0.29504026                0.04615055                0.01132981                0.04498402
               6.00000000                4.00000000               53.00000000                0.08309009               -0.09614259               -0.09362822                0.30021990                0.03701541               -0.01376693                0.04789498
               7.00000000                4.00000000               53.00000000                0.12361084               -0.09671973               -0.09210239                0.30517529                0.03555796               -0.01511273                0.06835494
               8.00000000                4.00000000               53.00000000                0.17169955               -0.09624502               -0.09289968                0.31017618                0.03480407               -0.01186872                0.08199487
               9.00000000                4.00000000               53.00000000                0.22874362               -0.09678138               -0.09643751                0.31539803                0.02537932               -0.00582076                0.08967602
              10.00000000                4.00000000               53.00000000                0.63413258               -0.09794453               -0.08765435                0.32093171                0.01283184               -0.00236591                0.08922027
               0.00000000                5.00000000               53.00000000                0.58451096               -0.07709562               -0.07654017                0.25417741                0.00115050               -0.00000633               -0.00478247
               1.00000000                5.00000000               53.00000000                0.09209477               -0.07708734               -0.07758239                0.25972964                0.00428462               -0.00194000               -0.00636069
               2.00000000                5.00000000               53.00000000                0.01000001               -0.03835419               -0.07925692                0.26522613                0.07813193                0.14914625               -0.00767474
               3.00000000                5.00000000               53.00000000                0.02056715               -0.03837665               -0.08527472                0.28551857                0.11520848                0.19124792                0.04640396
               4.00000000                5.00000000               53.00000000                0.04902374               -0.08624695               -0.09204464                0.29505082                0.04614730                0.04497833                0.01132312
               5.00000000                5.00000000               53.00000000                0.08309178               -0.09576198               -0.09576182                0.30135773                0.03199441                0.00663082                0.00662757
               6.00000000                5.00000000               53.00000000                0.12361783               -0.09602486               -0.09741010                0.30717143                0.02547266               -0.00087356                0.01710881
               7.00000000                5.00000000               53.00000000                0.17171503               -0.09571863               -0.09888886                0.31276879                0.02109913               -0.00351824                0.02621939
               8.00000000                5.00000000               53.00000000                0.22877950               -0.09580203               -0.10033301                0.31830954                0.01688438               -0.00343260                0.03295172
               9.00000000                5.00000000               53.00000000                0.29657842               -0.09781478               -0.09934725                0.32389449                0.01006986               -0.00175671                0.03655505
              10.00000000                5.00000000               53.00000000                0.67153327               -0.09956705               -0.09016053                0.32957288                0.00528462               -0.00076092                0.03634626
               0.00000000                6.00000000               53.00000000                0.63218019               -0.07864084               -0.07879931                0.25925993                0.00119180               -0.00001828               -0.00389077
               1.00000000                6.00000000               53.00000000                0.15563895               -0.07902733               -0.07828268                0.26486667                0.00414871               -0.00074982               -0.00525465
               2.00000000                6.00000000               53.00000000                0.02638497               -0.04067106               -0.07869828                0.27047989                0.07139408                0.14790699               -0.00362535
               3.00000000                6.00000000               53.00000000                0.04913335               -0.04602448               -0.09806112                0.29097769                0.08516389                0.18567940               -0.02580039
               4.00000000                6.00000000               53.00000000                0.08309065               -0.09362327               -0.09614237                0.30022242                0.03700981                0.04790423               -0.01377405
               5.00000000                6.00000000               53.00000000                0.12361924               -0.09740776               -0.09602437                0.30716553                0.02547291                0.01711426               -0.00087772
               6.00000000                6.00000000               53.00000000                0.17172795               -0.09749814               -0.09749832                0.31339562                0.01744058                0.00643464                0.00642759
               7.00000000                6.00000000               53.00000000                0.22881476               -0.09726597               -0.09947280                0.31931725                0.01183866                0.00188262                0.01116557
               8.00000000                6.00000000               53.00000000                0.29665868               -0.09773403               -0.10084286                0.32510235                0.00747957                0.00018328                0.01421257
               9.00000000                6.00000000               53.00000000                0.37752628               -0.09964038               -0.10017779                0.33084843                0.00365418               -0.00011178                0.01568054
              10.00000000                6.00000000               53.00000000                0.71619727               -0.10103796               -0.09587999                0.33659601                0.00151309               -0.00012105                0.01557041
               0.00000000                7.00000000               53.00000000                0.69065119               -0.08016395               -0.08056157                0.26440989                0.00117448               -0.00001126               -0.00278151
               1.00000000                7.00000000               53.00000000                0.23425547               -0.08051424               -0.07966399                0.27006826                0.00341402                0.00083891               -0.00382454
               2.00000000                7.00000000               53.00000000                0.05982189               -0.05373231               -0.08050598                0.27586402                0.05961843                0.12613671               -0.00185509
               3.00000000                7.00000000               53.00000000                0.08333851               -0.05632897               -0.10250178                0.29440401                0.06593243                0.17619146               -0.03994283
               4.00000000                7.00000000               53.00000000                0.12361424               -0.09209798               -0.09671719                0.30516290                0.03555464                0.06834939               -0.01511262
               5.00000000                7.00000000               53.00000000                0.17171674               -0.09888703               -0.09571838                0.31276552                0.02109865                0.02622194               -0.00351866
               6.00000000                7.00000000               53.00000000                0.22881525               -0.09947253               -0.09726554                0.31931530                0.01183793                0.01116901                0.00187932
               7.00000000                7.00000000               53.00000000                0.29668067               -0.09935212               -0.09935205                0.32542808                0.00622622                0.00469732                0.00469406
               8.00000000                7.00000000               53.00000000                0.37758747               -0.09991467               -0.10093084                0.33134171                0.00287478                0.00182204                0.00621547
               9.00000000                7.00000000               53.00000000                0.47450165               -0.10147320               -0.10139051                0.33716473                0.00101493                0.00057701                0.00687230
              10.00000000                7.00000000               53.00000000                0.76979407               -0.10251219               -0.10037935                0.34294415               -0.00009137                0.00014452                0.00685778
               0.00000000                8.00000000               53.00000000                0.76116984               -0.08168093               -0.08186452                0.26963482                0.00105145                0.00006530               -0.00163280
               1.00000000                8.00000000               53.00000000                0.33042385               -0.08202307               -0.08163814                0.27534330                0.00225630                0.00221038               -0.00234330
               2.00000000                8.00000000               53.00000000                0.10181345               -0.06562568               -0.08310135                0.28131355                0.04684351                0.10973395               -0.00082443
               3.00000000                8.00000000               53.00000000                0.12412558               -0.06748622               -0.10278882                0.29836708                0.05939623                0.16703168               -0.02806198
               4.00000000                8.00000000               53.00000000                0.17170366               -0.09289680               -0.09624413                0.31017032                0.03479899                0.08198365               -0.01186862
               5.00000000                8.00000000               53.00000000                0.22878186               -0.10033098               -0.09580218                0.31830800                0.01688265                0.03295190               -0.00343382
               6.00000000                8.00000000               53.00000000                0.29665785               -0.10084225               -0.09773412                0.32510229                0.00748023                0.01421482                0.00018243
               7.00000000                8.00000000               53.00000000                0.37759032               -0.10093053               -0.09991439                0.33134067                0.00287507                0.00621770                0.00182005
               8.00000000                8.00000000               53.00000000                0.47453771               -0.10171248               -0.10171262                0.33733032                0.00070984                0.00258955                0.00258949
               9.00000000                8.00000000               53.00000000                0.59139763               -0.10316634               -0.10296394                0.34319533               -0.00002894                0.00086897                0.00289252
              10.00000000                8.00000000               53.00000000                0.83455767               -0.10403895               -0.10371109                0.34898975               -0.00076643                0.00025214                0.00291375
               0.00000000                9.00000000               53.00000000                0.84527939               -0.08325725               -0.08289867                0.27492606                0.00089325                0.00023702               -0.00063037
               1.00000000                9.00000000               53.00000000                0.44740574               -0.08371838               -0.08379160                0.28068549                0.00120531                0.00326684               -0.00107322
               2.00000000                9.00000000               53.00000000                0.15465691               -0.07671887               -0.08521326                0.28677296                0.03560870                0.09879864               -0.00028467
               3.00000000                9.00000000               53.00000000                0.17269735               -0.08156274               -0.09698098                0.30286854                0.03873265                0.16002810               -0.01372800
               4.00000000                9.00000000               53.00000000                0.22875007               -0.09643447               -0.09677962                0.31539032                0.02537491                0.08966604               -0.00582173
               5.00000000                9.00000000               53.00000000                0.29658450               -0.09934452               -0.09781281                0.32388719                0.01006890                0.03655420               -0.00175730
               6.00000000                9.00000000               53.00000000                0.37752963               -0.10017657               -0.09963925                0.33084449                0.00365526                0.01568085               -0.00011214
               7.00000000                9.00000000               53.00000000                0.47450238               -0.10139021               -0.10147285                0.33716380                0.00101563                0.00687414                0.00057512
               8.00000000                9.00000000               53.00000000                0.59140336               -0.10296362               -0.10316608                0.34319414               -0.00002910                0.00289353                0.00086958
               9.00000000                9.00000000               53.00000000                0.73345466               -0.10470219               -0.10470228                0.34908104               -0.00023524                0.00097736                0.00097905
              10.00000000                9.00000000               53.00000000                0.91351458               -0.10559179               -0.10623177                0.35488314               -0.00097888                0.00029174                0.00099473
               0.00000000               10.00000000               53.00000000                0.95245246               -0.08519682               -0.08338754                0.28029047               -0.00007371                0.00054414               -0.00011213
               1.00000000               10.00000000               53.00000000                0.76496243               -0.08714390               -0.08483248                0.28606845                0.00020949                0.00392493               -0.00043838
               2.00000000               10.00000000               53.00000000                0.59586040               -0.10366543               -0.08597186                0.29216586                0.03066792                0.09574922               -0.00005947
               3.00000000               10.00000000               53.00000000                0.60336774               -0.10325528               -0.09220954                0.30814328                0.01719108                0.15535078               -0.00523615
               4.00000000               10.00000000               53.00000000                0.63414018               -0.08765308               -0.09794095                0.32092063                0.01282966                0.08921087               -0.00236710
               5.00000000               10.00000000               53.00000000                0.67153364               -0.09015831               -0.09956352                0.32956207                0.00528350                0.03634438               -0.00076102
               6.00000000               10.00000000               53.00000000                0.71619909               -0.09587868               -0.10103582                0.33658906                0.00151261                0.01556874               -0.00012096
               7.00000000               10.00000000               53.00000000                0.76979495               -0.10037894               -0.10251180                0.34294239               -0.00009146                0.00685866                0.00014282
               8.00000000               10.00000000               53.00000000                0.83455832               -0.10371052               -0.10403848                0.34898764               -0.00076654                0.00291561                0.00025295
               9.00000000               10.00000000               53.00000000                0.91351367               -0.10623117               -0.10559158                0.35488148               -0.00097921                0.00099352                0.00029395
              10.00000000               10.00000000               53.00000000                0.98263850               -0.10732296               -0.10732334                0.36068589               -0.00190134                0.00030072                0.00030238
               0.00000000                0.00000000               54.00000000                0.75066940               -0.06871788               -0.06871745                0.22938296                0.00201679               -0.00049252               -0.00049427
               1.00000000                0.00000000               54.00000000                0.49626434               -0.06707584               -0.07199984                0.23461564                0.00353793               -0.00258394               -0.00030415
               2.00000000                0.00000000               54.00000000                0.49783025               -0.06719975               -0.07235498                0.23961647                0.00098075               -0.00503468               -0.00000853
               3.00000000                0.00000000               54.00000000                0.51795543               -0.07065797               -0.07408075                0.24453209                0.00109933               -0.00574547               -0.00002051
               4.00000000                0.00000000               54.00000000                0.54670967               -0.07385212               -0.07559378                0.24941748                0.00108769               -0.00572631               -0.00000293
               5.00000000                0.00000000               54.00000000                0.58452602               -0.07660623               -0.07712631                0.25431602                0.00115017               -0.00517676               -0.00000445
               6.00000000                0.00000000               54.00000000                0.63216716               -0.07885114               -0.07863316                0.25926102                0.00119271               -0.00422825               -0.00001832
               7.00000000                0.00000000               54.00000000                0.69059462               -0.08057913               -0.08011739                0.26427715                0.00117366               -0.00304428               -0.00001033
               8.00000000                0.00000000               54.00000000                0.76107193               -0.08182904               -0.08159346                0.26936783                0.00104522               -0.00181340                0.00007196
               9.00000000                0.00000000               54.00000000                0.84512007               -0.08280163               -0.08313340                0.27452998                0.00087910               -0.00072912                0.00025595
              10.00000000                0.00000000               54.00000000                0.95234358               -0.08325963               -0.08504422                0.27977359               -0.00008859               -0.00016469                0.00054294
               0.00000000                1.00000000               54.00000000                0.49626685               -0.07199992               -0.06707519                0.23461443                0.00353780               -0.00030201               -0.00258579
               1.00000000                1.00000000               54.00000000                0.01000001               -0.07544533               -0.07544463                0.23986491                0.00798575               -0.00248996               -0.00249280
               2.00000000                1.00000000               54.00000000                0.01000000               -0.07872527               -0.06635630                0.24491548                0.02220128               -0.00572889                0.01102510
               3.00000000                1.00000000               54.00000000                0.01000001               -0.07815998               -0.05915847                0.24987757                0.02406888               -0.00706619                0.02339722
               4.00000000                1.00000000               54.00000000                0.04173888               -0.07760151               -0.07371648                0.25482871                0.00486064               -0.00721795               -0.00073786
               5.00000000                1.00000000               54.00000000                0.09210860               -0.07758258               -0.07707444                0.25979906                0.00448021               -0.00662958               -0.00196297
               6.00000000                1.00000000               54.00000000                0.15562251               -0.07821489               -0.07899671                0.26481445                0.00432808               -0.00547330               -0.00073450
               7.00000000                1.00000000               54.00000000                0.23419026               -0.07955426               -0.08044626                0.26989631                0.00355684               -0.00397898                0.00091809
               8.00000000                1.00000000               54.00000000                0.33030017               -0.08150775               -0.08191507                0.27504870                0.00234836               -0.00242323                0.00235475
               9.00000000                1.00000000               54.00000000                0.44718737               -0.08364791               -0.08357710                0.28027172                0.00125176               -0.00109287                0.00346093
              10.00000000                1.00000000               54.00000000                0.76481704               -0.08468136               -0.08702652                0.28553685                0.00025197               -0.00043169                0.00409774
               0.00000000                2.00000000               54.00000000                0.49783292               -0.07235559               -0.06719897                0.23961563                0.00098120               -0.00000871               -0.00503629
               1.00000000                2.00000000               54.00000000                0.01000000               -0.06635723               -0.07872432                0.24491558                0.02220114                0.01102669               -0.00573137
               2.00000000                2.00000000               54.00000000                0.01000001               -0.07192844               -0.07192695                0.25120439                0.06599557                0.02051531                0.02050903
               3.00000000                2.00000000               54.00000000                0.01000000               -0.10262726               -0.05003113                0.25741307                0.06343043               -0.01860427                0.05434977
               4.00000000                2.00000000               54.00000000                0.01000000               -0.10109011               -0.04552795                0.26027992                0.06515950               -0.03382575                0.10270951
               5.00000000                2.00000000               54.00000000                0.01000001               -0.07922373               -0.03695263                0.26523810                0.08100079               -0.00784392                0.15657477
               6.00000000                2.00000000               54.00000000                0.02638341               -0.07856505               -0.03924643                0.27039365                0.07402528               -0.00364476                0.15546716
               7.00000000                2.00000000               54.00000000                0.05981881               -0.08034916               -0.05264558                0.27567270                0.06182304               -0.00179685                0.13276315
               8.00000000                2.00000000               54.00000000                0.10180096               -0.08295175               -0.06484281                0.28100803                0.04857880               -0.00072301                0.11565491
               9.00000000                2.00000000               54.00000000                0.15461800               -0.08505396               -0.07621413                0.28635421                0.03691923               -0.00020435                0.10426689
              10.00000000                2.00000000               54.00000000                0.59583011               -0.08579640               -0.10401082                0.29162464                0.03179873               -0.00001245                0.10114582
               0.00000000                3.00000000               54.00000000                0.51794917               -0.07408195               -0.07065714                0.24453185                0.00109933               -0.00002062               -0.00574673
               1.00000000                3.00000000               54.00000000                0.01000001               -0.05915894               -0.07815922                0.24987829                0.02406950                0.02339540               -0.00706691
               2.00000000                3.00000000               54.00000000                0.01000000               -0.05002936               -0.10262786                0.25741108                0.06342828                0.05435161               -0.01858315
               3.00000000                3.00000000               54.00000000                0.01000000               -0.05990489               -0.05990330                0.26555800                0.10241318                0.07705796                0.07705054
               4.00000000                3.00000000               54.00000000                0.01197640               -0.06966073               -0.03704111                0.27533112                0.12803750                0.09806939                0.17855217
               5.00000000                3.00000000               54.00000000                0.02056840               -0.08531864               -0.03688230                0.28577737                0.11935958                0.04876370                0.20048677
               6.00000000                3.00000000               54.00000000                0.04913721               -0.09850550               -0.04470129                0.29120663                0.08830689               -0.02696197                0.19484638
               7.00000000                3.00000000               54.00000000                0.08334870               -0.10304450               -0.05525645                0.29453855                0.06838964               -0.04183878                0.18517614
               8.00000000                3.00000000               54.00000000                0.12413850               -0.10328133               -0.06668692                0.29840007                0.06159084               -0.02937204                0.17582381
               9.00000000                3.00000000               54.00000000                0.17271813               -0.09721874               -0.08113419                0.30281385                0.04016014               -0.01433109                0.16872870
              10.00000000                3.00000000               54.00000000                0.60337691               -0.09225565               -0.10347216                0.30800698                0.01785368               -0.00544456                0.16424581
               0.00000000                4.00000000               54.00000000                0.54670617               -0.07559431               -0.07385088                0.24941580                0.00108748               -0.00000327               -0.00572546
               1.00000000                4.00000000               54.00000000                0.04174272               -0.07371704               -0.07760028                0.25482790                0.00485954               -0.00070784               -0.00721663
               2.00000000                4.00000000               54.00000000                0.01000000               -0.04552353               -0.10108940                0.26028230                0.06516038                0.10271001               -0.03381926
               3.00000000                4.00000000               54.00000000                0.01197683               -0.03703198               -0.06965848                0.27530734                0.12802777                0.17852059                0.09805645
               4.00000000                4.00000000               54.00000000                0.02052675               -0.07167557               -0.07167740                0.28794594                0.07386184                0.09267857                0.09268080
               5.00000000                4.00000000               54.00000000                0.04902460               -0.09226785               -0.08627931                0.29536593                0.04779756                0.01191060                0.04714106
               6.00000000                4.00000000               54.00000000                0.08309382               -0.09644763               -0.09385131                0.30051749                0.03833839               -0.01438630                0.05022056
               7.00000000                4.00000000               54.00000000                0.12362012               -0.09697992               -0.09220607                0.30542127                0.03683537               -0.01580149                0.07176244
               8.00000000                4.00000000               54.00000000                0.17171610               -0.09642726               -0.09294440                0.31037876                0.03604926               -0.01241150                0.08621990
               9.00000000                4.00000000               54.00000000                0.22876903               -0.09692223               -0.09650503                0.31555247                0.02628854               -0.00609008                0.09449364
              10.00000000                4.00000000               54.00000000                0.63414805               -0.09809577               -0.08729783                0.32104004                0.01334174               -0.00246751                0.09434281
               0.00000000                5.00000000               54.00000000                0.58452485               -0.07712664               -0.07660483                0.25431399                0.00115016               -0.00000495               -0.00517721
               1.00000000                5.00000000               54.00000000                0.09210998               -0.07707411               -0.07758111                0.25979780                0.00448028               -0.00196194               -0.00662951
               2.00000000                5.00000000               54.00000000                0.01000001               -0.03695196               -0.07922050                0.26522847                0.08099985                0.15656449               -0.00786303
               3.00000000                5.00000000               54.00000000                0.02056904               -0.03687735               -0.08532319                0.28578539                0.11935054                0.20048588                0.04875978
               4.00000000                5.00000000               54.00000000                0.04902656               -0.08627360               -0.09226308                0.29534591                0.04778707                0.04714823                0.01191047
               5.00000000                5.00000000               54.00000000                0.08309601               -0.09604879               -0.09604979                0.30168697                0.03312307                0.00694893                0.00694634
               6.00000000                5.00000000               54.00000000                0.12362856               -0.09625511               -0.09768943                0.30747885                0.02637442               -0.00090535                0.01793025
               7.00000000                5.00000000               54.00000000                0.17173007               -0.09587381               -0.09915505                0.31305883                0.02185082               -0.00367690                0.02751567
               8.00000000                5.00000000               54.00000000                0.22880238               -0.09589831               -0.10057769                0.31857936                0.01748787               -0.00359197                0.03465197
               9.00000000                5.00000000               54.00000000                0.29661480               -0.09791880               -0.09947939                0.32413832                0.01043211               -0.00184516                0.03855010
              10.00000000                5.00000000               54.00000000                0.67155330               -0.09970115               -0.08988330                0.32979318                0.00551194               -0.00079607                0.03850480
               0.00000000                6.00000000               54.00000000                0.63216291               -0.07863368               -0.07884927                0.25925864                0.00119233               -0.00001813               -0.00422795
               1.00000000                6.00000000               54.00000000                0.15562648               -0.07899670               -0.07821302                0.26481272                0.00432879               -0.00073021               -0.00547246
               2.00000000                6.00000000               54.00000000                0.02638539               -0.03924257               -0.07856328                0.27039326                0.07401977                0.15545931               -0.00364232
               3.00000000                6.00000000               54.00000000                0.04913854               -0.04469609               -0.09850866                0.29121518                0.08829995                0.19483934               -0.02696445
               4.00000000                6.00000000               54.00000000                0.08309560               -0.09384897               -0.09644635                0.30051398                0.03833312                0.05021879               -0.01439549
               5.00000000                6.00000000               54.00000000                0.12362779               -0.09768805               -0.09625534                0.30748167                0.02637045                0.01792987               -0.00091011
               6.00000000                6.00000000               54.00000000                0.17174369               -0.09771335               -0.09771415                0.31370487                0.01805781                0.00674404                0.00673659
               7.00000000                6.00000000               54.00000000                0.22884015               -0.09740899               -0.09969258                0.31962020                0.01226062                0.00197790                0.01172463
               8.00000000                6.00000000               54.00000000                0.29669559               -0.09783162               -0.10104411                0.32539580                0.00774941                0.00019520                0.01496519
               9.00000000                6.00000000               54.00000000                0.37758019               -0.09974263               -0.10028721                0.33113028                0.00378673               -0.00011920                0.01656860
              10.00000000                6.00000000               54.00000000                0.71623074               -0.10115823               -0.09576663                0.33686662                0.00160079               -0.00012503                0.01653512
               0.00000000                7.00000000               54.00000000                0.69060780               -0.08011634               -0.08057640                0.26427146                0.00117328               -0.00001019               -0.00304000
               1.00000000                7.00000000               54.00000000                0.23420027               -0.08044524               -0.07955168                0.26989092                0.00355704                0.00091996               -0.00397404
               2.00000000                7.00000000               54.00000000                0.05982165               -0.05264471               -0.08034677                0.27566670                0.06181715                0.13274491               -0.00179622
               3.00000000                7.00000000               54.00000000                0.08334782               -0.05525338               -0.10304334                0.29453620                0.06837843                0.18516075               -0.04184056
               4.00000000                7.00000000               54.00000000                0.12362138               -0.09220200               -0.09698065                0.30542438                0.03682984                0.07176730               -0.01580920
               5.00000000                7.00000000               54.00000000                0.17173292               -0.09915213               -0.09587325                0.31305558                0.02184840                0.02751980               -0.00367680
               6.00000000                7.00000000               54.00000000                0.22884122               -0.09969042               -0.09740863                0.31961506                0.01225986                0.01172860                0.00197553
               7.00000000                7.00000000               54.00000000                0.29672070               -0.09950334               -0.09950362                0.32572940                0.00645058                0.00494455                0.00494083
               8.00000000                7.00000000               54.00000000                0.37764466               -0.10002501               -0.10107424                0.33164586                0.00298082                0.00192521                0.00656521
               9.00000000                7.00000000               54.00000000                0.47458569               -0.10157647               -0.10148519                0.33746360                0.00105303                0.00060996                0.00729037
              10.00000000                7.00000000               54.00000000                0.76984300               -0.10262049               -0.10037224                0.34323464               -0.00006228                0.00015416                0.00731139
               0.00000000                8.00000000               54.00000000                0.76107879               -0.08159272               -0.08182678                0.26936315                0.00104539                0.00007161               -0.00181266
               1.00000000                8.00000000               54.00000000                0.33030881               -0.08191401               -0.08150564                0.27504396                0.00234859                0.00235589               -0.00242261
               2.00000000                8.00000000               54.00000000                0.10180629               -0.06484142               -0.08294916                0.28100112                0.04857153                0.11564138               -0.00072584
               3.00000000                8.00000000               54.00000000                0.12414200               -0.06668370               -0.10327917                0.29839253                0.06158075                0.17580358               -0.02936433
               4.00000000                8.00000000               54.00000000                0.17171999               -0.09294022               -0.09642615                0.31037395                0.03604578                0.08621636               -0.01241124
               5.00000000                8.00000000               54.00000000                0.22880481               -0.10057503               -0.09589708                0.31857510                0.01748704                0.03465471               -0.00359389
               6.00000000                8.00000000               54.00000000                0.29669748               -0.10104246               -0.09783087                0.32539274                0.00774866                0.01496674                0.00019486
               7.00000000                8.00000000               54.00000000                0.37764756               -0.10107316               -0.10002429                0.33164300                0.00297975                0.00656626                0.00192428
               8.00000000                8.00000000               54.00000000                0.47462480               -0.10182227               -0.10182262                0.33763673                0.00073788                0.00274992                0.00274858
               9.00000000                8.00000000               54.00000000                0.59152455               -0.10326600               -0.10305409                0.34350003               -0.00002786                0.00092880                0.00308794
              10.00000000                8.00000000               54.00000000                0.83462753               -0.10413834               -0.10376320                0.34928951               -0.00076171                0.00027284                0.00312645
               0.00000000                9.00000000               54.00000000                0.84511786               -0.08313289               -0.08280035                0.27452694                0.00087921                0.00025516               -0.00073104
               1.00000000                9.00000000               54.00000000                0.44718677               -0.08357655               -0.08364686                0.28026891                0.00125275                0.00345705               -0.00109566
               2.00000000                9.00000000               54.00000000                0.15462246               -0.07621296               -0.08505398                0.28635275                0.03691297                0.10425414               -0.00021089
               3.00000000                9.00000000               54.00000000                0.17272218               -0.08113027               -0.09721547                0.30280308                0.04015276                0.16871067               -0.01432974
               4.00000000                9.00000000               54.00000000                0.22877158               -0.09650052               -0.09692103                0.31554787                0.02628559                0.09448516               -0.00609078
               5.00000000                9.00000000               54.00000000                0.29661627               -0.09947682               -0.09791797                0.32413411                0.01043060                0.03855137               -0.00184840
               6.00000000                9.00000000               54.00000000                0.37758563               -0.10028556               -0.09974187                0.33112693                0.00378649                0.01657179               -0.00012074
               7.00000000                9.00000000               54.00000000                0.47458933               -0.10148404               -0.10157586                0.33746135                0.00105243                0.00729069                0.00061033
               8.00000000                9.00000000               54.00000000                0.59152705               -0.10305303               -0.10326533                0.34349700               -0.00002871                0.00308746                0.00092821
               9.00000000                9.00000000               54.00000000                0.73363329               -0.10479257               -0.10479280                0.34938482               -0.00024266                0.00105228                0.00105173
              10.00000000                9.00000000               54.00000000                0.91361804               -0.10568344               -0.10631147                0.35518355               -0.00098114                0.00031837                0.00107410
               0.00000000               10.00000000               54.00000000                0.95235226               -0.08504287               -0.08325857                0.27976939               -0.00008906                0.00054216               -0.00016632
               1.00000000               10.00000000               54.00000000                0.76481512               -0.08702561               -0.08468067                0.28553332                0.00025182                0.00409152               -0.00043453
               2.00000000               10.00000000               54.00000000                0.59583537               -0.10400704               -0.08579828                0.29162539                0.03179465                0.10113222               -0.00001820
               3.00000000               10.00000000               54.00000000                0.60337983               -0.10346699               -0.09225191                0.30799460                0.01785066                0.16422943               -0.00544594
               4.00000000               10.00000000               54.00000000                0.63415350               -0.08729586               -0.09809525                0.32103609                0.01333846                0.09433323               -0.00246961
               5.00000000               10.00000000               54.00000000                0.67155408               -0.08988184               -0.09970046                0.32978783                0.00551100                0.03850508               -0.00079902
               6.00000000               10.00000000               54.00000000                0.71623312               -0.09576490               -0.10115716                0.33686103                0.00160062                0.01653838               -0.00012691
               7.00000000               10.00000000               54.00000000                0.76984463               -0.10037090               -0.10262006                0.34323191               -0.00006244                0.00731129                0.00015494
               8.00000000               10.00000000               54.00000000                0.83463022               -0.10376163               -0.10413716                0.34928473               -0.00076222                0.00312452                0.00027278
               9.00000000               10.00000000               54.00000000                0.91361966               -0.10631029               -0.10568298                0.35518040               -0.00098189                0.00107373                0.00031761
              10.00000000               10.00000000               54.00000000                0.98269673               -0.10740955               -0.10741022                0.36098134               -0.00190159                0.00032813                0.00032788
               0.00000000                0.00000000               55.00000000                0.75078616               -0.06892350               -0.06892377                0.23022477                0.00198844               -0.00052280               -0.00052329
               1.00000000                0.00000000               55.00000000                0.49639898               -0.06718030               -0.07222243                0.23533194                0.00361722               -0.00274409               -0.00031555
               2.00000000                0.00000000               55.00000000                0.49790925               -0.06722037               -0.07250036                0.24020075                0.00097382               -0.00538282                0.00000635
               3.00000000                0.00000000               55.00000000                0.51800961               -0.07070795               -0.07419319                0.24497109                0.00109560               -0.00617570               -0.00001225
               4.00000000                0.00000000               55.00000000                0.54675318               -0.07391844               -0.07566499                0.24970660                0.00108364               -0.00617680                0.00000216
               5.00000000                0.00000000               55.00000000                0.58453879               -0.07667194               -0.07715802                0.25445801                0.00114827               -0.00560072               -0.00000243
               6.00000000                0.00000000               55.00000000                0.63215328               -0.07889743               -0.07862462                0.25925702                0.00119164               -0.00458871               -0.00001762
               7.00000000                0.00000000               55.00000000                0.69055454               -0.08058856               -0.08006736                0.26413036                0.00117147               -0.00332262               -0.00000947
               8.00000000                0.00000000               55.00000000                0.76096263               -0.08178594               -0.08150360                0.26908620                0.00103793               -0.00201365                0.00007876
               9.00000000                0.00000000               55.00000000                0.84494619               -0.08269578               -0.08300297                0.27410829                0.00086321               -0.00084314                0.00027569
              10.00000000                0.00000000               55.00000000                0.95224019               -0.08312120               -0.08487875                0.27921684               -0.00010684               -0.00022629                0.00053650
               0.00000000                1.00000000               55.00000000                0.49640338               -0.07222250               -0.06718083                0.23533242                0.00361743               -0.00031544               -0.00274664
               1.00000000                1.00000000               55.00000000                0.01000001               -0.07574430               -0.07574461                0.24045769                0.00826727               -0.00260944               -0.00261161
               2.00000000                1.00000000               55.00000000                0.01000000               -0.07904726               -0.06628291                0.24538181                0.02294190               -0.00598322                0.01152734
               3.00000000                1.00000000               55.00000000                0.01000001               -0.07836669               -0.05878526                0.25021187                0.02488673               -0.00736674                0.02450470
               4.00000000                1.00000000               55.00000000                0.04176468               -0.07769468               -0.07369002                0.25503009                0.00505952               -0.00751260               -0.00070477
               5.00000000                1.00000000               55.00000000                0.09212342               -0.07758395               -0.07706564                0.25987149                0.00465942               -0.00689363               -0.00198899
               6.00000000                1.00000000               55.00000000                0.15561131               -0.07814816               -0.07896591                0.26475803                0.00449557               -0.00568345               -0.00071165
               7.00000000                1.00000000               55.00000000                0.23413179               -0.07944459               -0.08037654                0.26971217                0.00368952               -0.00412188                0.00100306
               8.00000000                1.00000000               55.00000000                0.33017906               -0.08137617               -0.08180500                0.27474181                0.00243546               -0.00250089                0.00250927
               9.00000000                1.00000000               55.00000000                0.44694593               -0.08349938               -0.08343071                0.27983647                0.00129880               -0.00111285                0.00365920
              10.00000000                1.00000000               55.00000000                0.76466178               -0.08452278               -0.08689512                0.28497115                0.00029151               -0.00042412                0.00426188
               0.00000000                2.00000000               55.00000000                0.49790657               -0.07250009               -0.06722084                0.24020051                0.00097356                0.00000624               -0.00538515
               1.00000000                2.00000000               55.00000000                0.01000000               -0.06628248               -0.07904771                0.24538244                0.02294239                0.01152931               -0.00598516
               2.00000000                2.00000000               55.00000000                0.01000001               -0.07193906               -0.07194167                0.25156525                0.06813387                0.02142965                0.02142791
               3.00000000                2.00000000               55.00000000                0.01000000               -0.10352061               -0.04929865                0.25766617                0.06551794               -0.01938460                0.05675963
               4.00000000                2.00000000               55.00000000                0.01000000               -0.10185342               -0.04457656                0.26051969                0.06732917               -0.03512348                0.10758040
               5.00000000                2.00000000               55.00000000                0.01000001               -0.07919566               -0.03567716                0.26524620                0.08364987               -0.00798292                0.16414458
               6.00000000                2.00000000               55.00000000                0.02638787               -0.07843232               -0.03794032                0.27029197                0.07644116               -0.00362271                0.16320949
               7.00000000                2.00000000               55.00000000                0.05981687               -0.08019389               -0.05164989                0.27546513                0.06384698               -0.00170403                0.13955300
               8.00000000                2.00000000               55.00000000                0.10179277               -0.08280077               -0.06411577                0.28068295                0.05016984               -0.00059856                0.12174968
               9.00000000                2.00000000               55.00000000                0.15458329               -0.08489419               -0.07573333                0.28592084                0.03811755               -0.00011912                0.10992170
              10.00000000                2.00000000               55.00000000                0.59580545               -0.08562244               -0.10429636                0.29106594                0.03282605                0.00003136                0.10674273
               0.00000000                3.00000000               55.00000000                0.51801223               -0.07419134               -0.07070765                0.24496812                0.00109518               -0.00001239               -0.00617528
               1.00000000                3.00000000               55.00000000                0.01000001               -0.05878426               -0.07836640                0.25020963                0.02488479                0.02450705               -0.00736592
               2.00000000                3.00000000               55.00000000                0.01000000               -0.04929885               -0.10351484                0.25766987                0.06552007                0.05676213               -0.01938991
               3.00000000                3.00000000               55.00000000                0.01000000               -0.05935896               -0.05936280                0.26577757                0.10567110                0.08052683                0.08052069
               4.00000000                3.00000000               55.00000000                0.01197874               -0.06929914               -0.03573655                0.27548422                0.13210522                0.10265383                0.18682315
               5.00000000                3.00000000               55.00000000                0.02056866               -0.08537348               -0.03552109                0.28605523                0.12318022                0.05115496                0.20991332
               6.00000000                3.00000000               55.00000000                0.04914314               -0.09891252               -0.04349413                0.29142208                0.09119096               -0.02812723                0.20419591
               7.00000000                3.00000000               55.00000000                0.08335968               -0.10353101               -0.05427596                0.29464070                0.07063883               -0.04376724                0.19436292
               8.00000000                3.00000000               55.00000000                0.12415451               -0.10372678               -0.06595047                0.29842001                0.06360155               -0.03068324                0.18484931
               9.00000000                3.00000000               55.00000000                0.17274881               -0.09743097               -0.08072829                0.30273767                0.04146374               -0.01492901                0.17770506
              10.00000000                3.00000000               55.00000000                0.60339196               -0.09229145               -0.10364638                0.30784180                0.01845425               -0.00564828                0.17349209
               0.00000000                4.00000000               55.00000000                0.54675128               -0.07566295               -0.07391727                0.24970242                0.00108358                0.00000222               -0.00617626
               1.00000000                4.00000000               55.00000000                0.04176635               -0.07368702               -0.07769348                0.25502664                0.00506492               -0.00070719               -0.00751160
               2.00000000                4.00000000               55.00000000                0.01000000               -0.04457684               -0.10184507                0.26048324                0.06732553                0.10756840               -0.03513307
               3.00000000                4.00000000               55.00000000                0.01197785               -0.03573815               -0.06930261                0.27550413                0.13210873                0.18682486                0.10266534
               4.00000000                4.00000000               55.00000000                0.02052771               -0.07132308               -0.07132806                0.28822603                0.07619309                0.09705633                0.09703355
               5.00000000                4.00000000               55.00000000                0.04902912               -0.09247547               -0.08630949                0.29567239                0.04929391                0.01253938                0.04936396
               6.00000000                4.00000000               55.00000000                0.08310225               -0.09672701               -0.09406571                0.30079320                0.03955870               -0.01502193                0.05257028
               7.00000000                4.00000000               55.00000000                0.12363012               -0.09721783               -0.09230403                0.30565699                0.03800204               -0.01651519                0.07525785
               8.00000000                4.00000000               55.00000000                0.17173407               -0.09659484               -0.09298734                0.31057397                0.03718861               -0.01296269                0.09056952
               9.00000000                4.00000000               55.00000000                0.22879161               -0.09705335               -0.09656765                0.31570408                0.02712160               -0.00636403                0.09946608
              10.00000000                4.00000000               55.00000000                0.63416593               -0.09823716               -0.08697105                0.32114918                0.01380535               -0.00257246                0.09967239
               0.00000000                5.00000000               55.00000000                0.58454974               -0.07715579               -0.07667032                0.25445177                0.00114852               -0.00000281               -0.00559960
               1.00000000                5.00000000               55.00000000                0.09211963               -0.07706370               -0.07758232                0.25986601                0.00466403               -0.00199060               -0.00689215
               2.00000000                5.00000000               55.00000000                0.01000001               -0.03566766               -0.07920021                0.26526338                0.08364287                0.16415682               -0.00799094
               3.00000000                5.00000000               55.00000000                0.02057097               -0.03551708               -0.08537149                0.28604494                0.12317118                0.20989970                0.05115309
               4.00000000                5.00000000               55.00000000                0.04902563               -0.08631447               -0.09248015                0.29569074                0.04929624                0.04935023                0.01253167
               5.00000000                5.00000000               55.00000000                0.08310447               -0.09631279               -0.09631316                0.30198801                0.03415641                0.00727803                0.00725956
               6.00000000                5.00000000               55.00000000                0.12363620               -0.09646710               -0.09795000                0.30777167                0.02720135               -0.00094628                0.01874518
               7.00000000                5.00000000               55.00000000                0.17175012               -0.09601875               -0.09940174                0.31333336                0.02253740               -0.00383599                0.02883781
               8.00000000                5.00000000               55.00000000                0.22882860               -0.09598882               -0.10080541                0.31883541                0.01803931               -0.00375826                0.03639699
               9.00000000                5.00000000               55.00000000                0.29664958               -0.09801819               -0.09960651                0.32437771                0.01076283               -0.00194324                0.04061230
              10.00000000                5.00000000               55.00000000                0.67157252               -0.09982912               -0.08963808                0.33001586                0.00571922               -0.00083730                0.04076060
               0.00000000                6.00000000               55.00000000                0.63216079               -0.07862326               -0.07889580                0.25925190                0.00119180               -0.00001855               -0.00459023
               1.00000000                6.00000000               55.00000000                0.15560533               -0.07896542               -0.07814657                0.26475389                0.00449441               -0.00072105               -0.00568484
               2.00000000                6.00000000               55.00000000                0.02638941               -0.03793859               -0.07843654                0.27030699                0.07643682                0.16320087               -0.00362142
               3.00000000                6.00000000               55.00000000                0.04914421               -0.04348972               -0.09891312                0.29142879                0.09117992                0.20419627               -0.02814827
               4.00000000                6.00000000               55.00000000                0.08310385               -0.09406198               -0.09672713                0.30079146                0.03955513                0.05257391               -0.01500816
               5.00000000                6.00000000               55.00000000                0.12363793               -0.09794827               -0.09646781                0.30776972                0.02720078                0.01875205               -0.00095168
               6.00000000                6.00000000               55.00000000                0.17175895               -0.09791534               -0.09791601                0.31400353                0.01862477                0.00705519                0.00704849
               7.00000000                6.00000000               55.00000000                0.22886989               -0.09754532               -0.09989825                0.31991036                0.01264808                0.00207558                0.01229072
               8.00000000                6.00000000               55.00000000                0.29673343               -0.09792631               -0.10123452                0.32568334                0.00799567                0.00020300                0.01573491
               9.00000000                6.00000000               55.00000000                0.37763955               -0.09984209               -0.10039524                0.33141026                0.00390830               -0.00013016                0.01749032
              10.00000000                6.00000000               55.00000000                0.71626314               -0.10127393               -0.09567298                0.33713866                0.00168047               -0.00013042                0.01754817
               0.00000000                7.00000000               55.00000000                0.69055472               -0.08006594               -0.08058594                0.26412443                0.00117097               -0.00000963               -0.00332445
               1.00000000                7.00000000               55.00000000                0.23414063               -0.08037491               -0.07944211                0.26970687                0.00368874                0.00100183               -0.00412364
               2.00000000                7.00000000               55.00000000                0.05982312               -0.05164472               -0.08019062                0.27545576                0.06384172                0.13954816               -0.00169538
               3.00000000                7.00000000               55.00000000                0.08336347               -0.05427194               -0.10353034                0.29464016                0.07063411                0.19435690               -0.04376426
               4.00000000                7.00000000               55.00000000                0.12363334               -0.09230421               -0.09721748                0.30565895                0.03800083                0.07525213               -0.01651492
               5.00000000                7.00000000               55.00000000                0.17174836               -0.09940116               -0.09601890                0.31333480                0.02253541                0.02883217               -0.00384061
               6.00000000                7.00000000               55.00000000                0.22886472               -0.09989695               -0.09754531                0.31990922                0.01264666                0.01229509                0.00207169
               7.00000000                7.00000000               55.00000000                0.29675661               -0.09964929               -0.09965037                0.32603272                0.00665757                0.00519745                0.00518946
               8.00000000                7.00000000               55.00000000                0.37770938               -0.10013294               -0.10121365                0.33194885                0.00307863                0.00203203                0.00692461
               9.00000000                7.00000000               55.00000000                0.47467168               -0.10167898               -0.10158164                0.33776669                0.00108900                0.00064264                0.00772412
              10.00000000                7.00000000               55.00000000                0.76989338               -0.10272899               -0.10037783                0.34353780               -0.00003620                0.00016319                0.00778546
               0.00000000                8.00000000               55.00000000                0.76097667               -0.08150062               -0.08178221                0.26907626                0.00103785                0.00007837               -0.00201154
               1.00000000                8.00000000               55.00000000                0.33018789               -0.08180238               -0.08137277                0.27473232                0.00243545                0.00250818               -0.00249835
               2.00000000                8.00000000               55.00000000                0.10179692               -0.06411228               -0.08279675                0.28067249                0.05016393                0.12174328               -0.00059434
               3.00000000                8.00000000               55.00000000                0.12416287               -0.06594740               -0.10372180                0.29840965                0.06358824                0.18483388               -0.03068740
               4.00000000                8.00000000               55.00000000                0.17173561               -0.09298652               -0.09659385                0.31057163                0.03718308                0.09055988               -0.01296807
               5.00000000                8.00000000               55.00000000                0.22883210               -0.10080460               -0.09598860                0.31883463                0.01803823                0.03639694               -0.00375796
               6.00000000                8.00000000               55.00000000                0.29673547               -0.10123286               -0.09792564                0.32567976                0.00799463                0.01573621                0.00020596
               7.00000000                8.00000000               55.00000000                0.37771076               -0.10121225               -0.10013290                0.33194631                0.00307798                0.00692731                0.00203030
               8.00000000                8.00000000               55.00000000                0.47471772               -0.10193183               -0.10193215                0.33794553                0.00076571                0.00291498                0.00291242
               9.00000000                8.00000000               55.00000000                0.59165792               -0.10336707               -0.10314720                0.34381209               -0.00002686                0.00098792                0.00329023
              10.00000000                8.00000000               55.00000000                0.83470460               -0.10423980               -0.10382326                0.34960322               -0.00075844                0.00029217                0.00334779
               0.00000000                9.00000000               55.00000000                0.84494629               -0.08300146               -0.08269329                0.27410230                0.00086395                0.00027561               -0.00084219
               1.00000000                9.00000000               55.00000000                0.44696528               -0.08342919               -0.08349720                0.27983099                0.00129777                0.00366063               -0.00111116
               2.00000000                9.00000000               55.00000000                0.15458762               -0.07573232               -0.08489208                0.28591456                0.03811162                0.10990692               -0.00011431
               3.00000000                9.00000000               55.00000000                0.17274980               -0.08072565               -0.09742946                0.30273553                0.04145420                0.17768626               -0.01493655
               4.00000000                9.00000000               55.00000000                0.22880104               -0.09656385               -0.09705161                0.31569840                0.02711595                0.09946155               -0.00636317
               5.00000000                9.00000000               55.00000000                0.29665170               -0.09960471               -0.09801724                0.32437485                0.01076228                0.04061107               -0.00194254
               6.00000000                9.00000000               55.00000000                0.37764389               -0.10039385               -0.09984121                0.33140723                0.00390766                0.01749001               -0.00013005
               7.00000000                9.00000000               55.00000000                0.47467637               -0.10157986               -0.10167769                0.33776154                0.00108834                0.00772396                0.00064329
               8.00000000                9.00000000               55.00000000                0.59166015               -0.10314628               -0.10336655                0.34380983               -0.00002675                0.00329051                0.00098730
               9.00000000                9.00000000               55.00000000                0.73382579               -0.10488760               -0.10488765                0.34970272               -0.00024921                0.00112891                0.00112842
              10.00000000                9.00000000               55.00000000                0.91372958               -0.10577994               -0.10639770                0.35550247               -0.00098457                0.00034445                0.00115816
               0.00000000               10.00000000               55.00000000                0.95223243               -0.08487904               -0.08312005                0.27921536               -0.00010603                0.00053745               -0.00022689
               1.00000000               10.00000000               55.00000000                0.76466468               -0.08689452               -0.08452181                0.28496983                0.00029076                0.00426582               -0.00042381
               2.00000000               10.00000000               55.00000000                0.59580560               -0.10429235               -0.08562089                0.29106060                0.03281921                0.10672500                0.00003688
               3.00000000               10.00000000               55.00000000                0.60339376               -0.10364210               -0.09229315                0.30784253                0.01845035                0.17347118               -0.00565427
               4.00000000               10.00000000               55.00000000                0.63416715               -0.08696961               -0.09823544                0.32114231                0.01380363                0.09966904               -0.00256914
               5.00000000               10.00000000               55.00000000                0.67157471               -0.08963755               -0.09982790                0.33001182                0.00571840                0.04075596               -0.00083689
               6.00000000               10.00000000               55.00000000                0.71626504               -0.09567174               -0.10127319                0.33713545                0.00168039                0.01754660               -0.00013191
               7.00000000               10.00000000               55.00000000                0.76989508               -0.10037555               -0.10272709                0.34353077               -0.00003648                0.00778476                0.00016369
               8.00000000               10.00000000               55.00000000                0.83470523               -0.10382175               -0.10423901                0.34959913               -0.00075886                0.00334630                0.00029218
               9.00000000               10.00000000               55.00000000                0.91372885               -0.10639725               -0.10577979                0.35550091               -0.00098472                0.00115728                0.00034399
              10.00000000               10.00000000               55.00000000                0.98276181               -0.10750400               -0.10750416                0.36130303               -0.00190383                0.00035546                0.00035591
               0.00000000                0.00000000               56.00000000                0.75088997               -0.06914617               -0.06914582                0.23111463                0.00195576               -0.00054638               -0.00054749
               1.00000000                0.00000000               56.00000000                0.49656021               -0.06730742               -0.07245302                0.23608744                0.00368717               -0.00290630               -0.00032421
               2.00000000                0.00000000               56.00000000                0.49798488               -0.06726419               -0.07265176                0.24080953                0.00096515               -0.00575091                0.00002283
               3.00000000                0.00000000               56.00000000                0.51807684               -0.07077246               -0.07430811                0.24542619                0.00109047               -0.00663387               -0.00000221
               4.00000000                0.00000000               56.00000000                0.54679362               -0.07399236               -0.07573817                0.25000779                0.00107860               -0.00665637                0.00000870
               5.00000000                0.00000000               56.00000000                0.58456273               -0.07673941               -0.07719022                0.25460549                0.00114498               -0.00605175                0.00000048
               6.00000000                0.00000000               56.00000000                0.63214222               -0.07894088               -0.07861550                0.25925313                0.00118856               -0.00497834               -0.00001759
               7.00000000                0.00000000               56.00000000                0.69049858               -0.08059028               -0.08001420                0.26397405                0.00116653               -0.00362648               -0.00000804
               8.00000000                0.00000000               56.00000000                0.76086612               -0.08173176               -0.08140619                0.26878071                0.00102906               -0.00222822                0.00008439
               9.00000000                0.00000000               56.00000000                0.84475117               -0.08258002               -0.08286574                0.27366146                0.00084734               -0.00097097                0.00029776
              10.00000000                0.00000000               56.00000000                0.95211728               -0.08297462               -0.08470647                0.27863527               -0.00012557               -0.00030312                0.00053069
               0.00000000                1.00000000               56.00000000                0.49656430               -0.07245286               -0.06730719                0.23608628                0.00368689               -0.00032388               -0.00290796
               1.00000000                1.00000000               56.00000000                0.01000001               -0.07604138               -0.07604127                0.24107879                0.00852633               -0.00272705               -0.00272826
               2.00000000                1.00000000               56.00000000                0.01000000               -0.07935863               -0.06623978                0.24586650                0.02361175               -0.00623689                0.01204324
               3.00000000                1.00000000               56.00000000                0.01000001               -0.07856717               -0.05847239                0.25055720                0.02561351               -0.00766285                0.02561937
               4.00000000                1.00000000               56.00000000                0.04180946               -0.07778786               -0.07367260                0.25524055                0.00524343               -0.00779876               -0.00056688
               5.00000000                1.00000000               56.00000000                0.09213398               -0.07758978               -0.07706097                0.25994851                0.00482779               -0.00714752               -0.00199943
               6.00000000                1.00000000               56.00000000                0.15558988               -0.07808733               -0.07893722                0.26470276                0.00464742               -0.00588932               -0.00070043
               7.00000000                1.00000000               56.00000000                0.23407044               -0.07933772               -0.08030550                0.26952081                0.00381190               -0.00426238                0.00109591
               8.00000000                1.00000000               56.00000000                0.33004001               -0.08124218               -0.08169114                0.27441504                0.00251526               -0.00256826                0.00266314
               9.00000000                1.00000000               56.00000000                0.44671147               -0.08334590               -0.08327979                0.27938087                0.00133903               -0.00112609                0.00387125
              10.00000000                1.00000000               56.00000000                0.76449746               -0.08435901               -0.08675190                0.28438482                0.00032471               -0.00041419                0.00444201
               0.00000000                2.00000000               56.00000000                0.49798110               -0.07265194               -0.06726451                0.24080976                0.00096545                0.00002288               -0.00575381
               1.00000000                2.00000000               56.00000000                0.01000000               -0.06623953               -0.07935886                0.24586734                0.02361117                0.01204383               -0.00623928
               2.00000000                2.00000000               56.00000000                0.01000001               -0.07197896               -0.07198098                0.25194247                0.07005007                0.02233890                0.02233990
               3.00000000                2.00000000               56.00000000                0.01000000               -0.10433015               -0.04866617                0.25794888                0.06739528               -0.02008765                0.05920979
               4.00000000                2.00000000               56.00000000                0.01000000               -0.10252815               -0.04375017                0.26066120                0.06926809               -0.03637986                0.11247919
               5.00000000                2.00000000               56.00000000                0.01000001               -0.07917517               -0.03454685                0.26529705                0.08601235               -0.00819490                0.17191884
               6.00000000                2.00000000               56.00000000                0.02638735               -0.07831455               -0.03679867                0.27020445                0.07860596               -0.00357394                0.17112322
               7.00000000                2.00000000               56.00000000                0.05982090               -0.08004404               -0.05076344                0.27524934                0.06565415               -0.00157271                0.14653183
               8.00000000                2.00000000               56.00000000                0.10178058               -0.08265149               -0.06345855                0.28035026                0.05158433               -0.00044308                0.12804419
               9.00000000                2.00000000               56.00000000                0.15454852               -0.08473275               -0.07528711                0.28547181                0.03917679                0.00000319                0.11576960
              10.00000000                2.00000000               56.00000000                0.59577374               -0.08544503               -0.10451330                0.29048235                0.03372205                0.00010504                0.11254401
               0.00000000                3.00000000               56.00000000                0.51806270               -0.07430876               -0.07077362                0.24542809                0.00109065               -0.00000139               -0.00663633
               1.00000000                3.00000000               56.00000000                0.01000001               -0.05847112               -0.07856841                0.25055984                0.02561178                0.02562160               -0.00766483
               2.00000000                3.00000000               56.00000000                0.01000000               -0.04866648               -0.10433902                0.25795036                0.06739375                0.05921236               -0.02009092
               3.00000000                3.00000000               56.00000000                0.01000000               -0.05889458               -0.05889485                0.26599880                0.10859465                0.08399928                0.08401737
               4.00000000                3.00000000               56.00000000                0.01197812               -0.06898452               -0.03460385                0.27566969                0.13574212                0.10733729                0.19513015
               5.00000000                3.00000000               56.00000000                0.02057399               -0.08540664               -0.03432728                0.28627974                0.12657198                0.05364485                0.21946948
               6.00000000                3.00000000               56.00000000                0.04914664               -0.09927070               -0.04243793                0.29163538                0.09375618               -0.02935180                0.21372675
               7.00000000                3.00000000               56.00000000                0.08336971               -0.10396496               -0.05341556                0.29475123                0.07265545               -0.04570616                0.20376543
               8.00000000                3.00000000               56.00000000                0.12418075               -0.10411436               -0.06529683                0.29843368                0.06538228               -0.03201167                0.19413663
               9.00000000                3.00000000               56.00000000                0.17277582               -0.09761541               -0.08035750                0.30265869                0.04261483               -0.01554294                0.18697065
              10.00000000                3.00000000               56.00000000                0.60341277               -0.09232455               -0.10377484                0.30767435                0.01897824               -0.00586133                0.18309985
               0.00000000                4.00000000               56.00000000                0.54678325               -0.07573882               -0.07399320                0.25000888                0.00107811                0.00000933               -0.00665682
               1.00000000                4.00000000               56.00000000                0.04181261               -0.07367481               -0.07778871                0.25524242                0.00523593               -0.00057173               -0.00779874
               2.00000000                4.00000000               56.00000000                0.01000000               -0.04374533               -0.10252934                0.26065646                0.06926733                0.11249467               -0.03637178
               3.00000000                4.00000000               56.00000000                0.01197890               -0.03459778               -0.06899153                0.27569689                0.13575463                0.19514665                0.10732500
               4.00000000                4.00000000               56.00000000                0.02053049               -0.07102156               -0.07102272                0.28848337                0.07827987                0.10152043                0.10154500
               5.00000000                4.00000000               56.00000000                0.04902850               -0.09266495               -0.08635393                0.29596878                0.05062816                0.01316443                0.05155624
               6.00000000                4.00000000               56.00000000                0.08310695               -0.09697748               -0.09425328                0.30104719                0.04063007               -0.01565327                0.05496457
               7.00000000                4.00000000               56.00000000                0.12364074               -0.09743245               -0.09240141                0.30588742                0.03903749               -0.01721912                0.07881904
               8.00000000                4.00000000               56.00000000                0.17175321               -0.09674412               -0.09303428                0.31075441                0.03819416               -0.01351829                0.09501169
               9.00000000                4.00000000               56.00000000                0.22882296               -0.09717026               -0.09662511                0.31584779                0.02785267               -0.00664364                0.10459504
              10.00000000                4.00000000               56.00000000                0.63417916               -0.09836470               -0.08668294                0.32125702                0.01421218               -0.00267663                0.10522883
               0.00000000                5.00000000               56.00000000                0.58456447               -0.07718879               -0.07673813                0.25460080                0.00114413                0.00000114               -0.00605247
               1.00000000                5.00000000               56.00000000                0.09214746               -0.07705939               -0.07758852                0.25994449                0.00482668               -0.00197774               -0.00714751
               2.00000000                5.00000000               56.00000000                0.01000001               -0.03454030               -0.07916375                0.26525904                0.08601116                0.17189921               -0.00817653
               3.00000000                5.00000000               56.00000000                0.02057419               -0.03432148               -0.08541401                0.28627874                0.12657365                0.21946091                0.05362857
               4.00000000                5.00000000               56.00000000                0.04903176               -0.08635548               -0.09266800                0.29597736                0.05063246                0.05157443                0.01315956
               5.00000000                5.00000000               56.00000000                0.08310593               -0.09655532               -0.09655430                0.30228230                0.03507179                0.00756680                0.00757728
               6.00000000                5.00000000               56.00000000                0.12364722               -0.09666170               -0.09818434                0.30805170                0.02792998               -0.00098027                0.01958548
               7.00000000                5.00000000               56.00000000                0.17176177               -0.09615282               -0.09962719                0.31360164                0.02314432               -0.00400451                0.03017631
               8.00000000                5.00000000               56.00000000                0.22885189               -0.09607490               -0.10101663                0.31908635                0.01852729               -0.00392512                0.03817693
               9.00000000                5.00000000               56.00000000                0.29668600               -0.09811189               -0.09972831                0.32461419                0.01105430               -0.00203783                0.04273489
              10.00000000                5.00000000               56.00000000                0.67159275               -0.09994826               -0.08943416                0.33024019                0.00589970               -0.00087491                0.04310675
               0.00000000                6.00000000               56.00000000                0.63214226               -0.07861262               -0.07893830                0.25924518                0.00118865               -0.00001682               -0.00497770
               1.00000000                6.00000000               56.00000000                0.15560181               -0.07893436               -0.07808484                0.26469549                0.00464972               -0.00067786               -0.00588826
               2.00000000                6.00000000               56.00000000                0.02638988               -0.03679035               -0.07830872                0.27018963                0.07859692                0.17112672               -0.00359688
               3.00000000                6.00000000               56.00000000                0.04915110               -0.04243291               -0.09926889                0.29162354                0.09374118                0.21369889               -0.02934391
               4.00000000                6.00000000               56.00000000                0.08310697               -0.09425698               -0.09697725                0.30105388                0.04063130                0.05495330               -0.01568012
               5.00000000                6.00000000               56.00000000                0.12364508               -0.09818618               -0.09666258                0.30805568                0.02793221                0.01958604               -0.00098400
               6.00000000                6.00000000               56.00000000                0.17177589               -0.09810091               -0.09810175                0.31429192                0.01912615                0.00736957                0.00736068
               7.00000000                6.00000000               56.00000000                0.22889426               -0.09767342               -0.10008849                0.32019679                0.01298970                0.00216648                0.01287102
               8.00000000                6.00000000               56.00000000                0.29677288               -0.09801849               -0.10141308                0.32596916                0.00821469                0.00021237                0.01652715
               9.00000000                6.00000000               56.00000000                0.37769727               -0.09993937               -0.10050267                0.33169240                0.00401672               -0.00014456                0.01844091
              10.00000000                6.00000000               56.00000000                0.71629737               -0.10138640               -0.09560542                0.33741904                0.00174987               -0.00014092                0.01860306
               0.00000000                7.00000000               56.00000000                0.69050912               -0.08001265               -0.08058797                0.26396737                0.00116700               -0.00000848               -0.00362608
               1.00000000                7.00000000               56.00000000                0.23407058               -0.08030392               -0.07933558                0.26951535                0.00381329                0.00109322               -0.00426195
               2.00000000                7.00000000               56.00000000                0.05982405               -0.05076274               -0.08004449                0.27524886                0.06564747                0.14651759               -0.00159310
               3.00000000                7.00000000               56.00000000                0.08337252               -0.05341173               -0.10395745                0.29473194                0.07263898                0.20374979               -0.04571967
               4.00000000                7.00000000               56.00000000                0.12364415               -0.09239685               -0.09743072                0.30588109                0.03903244                0.07882178               -0.01722645
               5.00000000                7.00000000               56.00000000                0.17176553               -0.09962675               -0.09615257                0.31360102                0.02314282                0.03017697               -0.00400271
               6.00000000                7.00000000               56.00000000                0.22888842               -0.10008859               -0.09767436                0.32020013                0.01299014                0.01287222                0.00216285
               7.00000000                7.00000000               56.00000000                0.29680253               -0.09978801               -0.09978845                0.32633142                0.00684119                0.00545158                0.00544705
               8.00000000                7.00000000               56.00000000                0.37777412               -0.10023835               -0.10134724                0.33224995                0.00316725                0.00213491                0.00729329
               9.00000000                7.00000000               56.00000000                0.47476925               -0.10178062               -0.10167962                0.33807240                0.00112254                0.00067574                0.00817424
              10.00000000                7.00000000               56.00000000                0.76994908               -0.10283634               -0.10039786                0.34384874               -0.00001341                0.00017479                0.00828445
               0.00000000                8.00000000               56.00000000                0.76086871               -0.08140427               -0.08172919                0.26877215                0.00102884                0.00008446               -0.00222822
               1.00000000                8.00000000               56.00000000                0.33004530               -0.08168951               -0.08123997                0.27440819                0.00251519                0.00266197               -0.00256853
               2.00000000                8.00000000               56.00000000                0.10178528               -0.06345856               -0.08265180                0.28034954                0.05158129                0.12802747               -0.00044334
               3.00000000                8.00000000               56.00000000                0.12418374               -0.06529473               -0.10411007                0.29842079                0.06537643                0.19412084               -0.03200643
               4.00000000                8.00000000               56.00000000                0.17175523               -0.09303073               -0.09674401                0.31075608                0.03818821                0.09501450               -0.01352277
               5.00000000                8.00000000               56.00000000                0.22885548               -0.10101501               -0.09607417                0.31908492                0.01852486                0.03817756               -0.00392978
               6.00000000                8.00000000               56.00000000                0.29677610               -0.10141167               -0.09801780                0.32596589                0.00821368                0.01652569                0.00021201
               7.00000000                8.00000000               56.00000000                0.37777425               -0.10134634               -0.10023839                0.33224843                0.00316732                0.00729514                0.00213244
               8.00000000                8.00000000               56.00000000                0.47481399               -0.10204048               -0.10204076                0.33825757                0.00079181                0.00308315                0.00308054
               9.00000000                8.00000000               56.00000000                0.59180230               -0.10347022               -0.10324405                0.34413461               -0.00002483                0.00105141                0.00350092
              10.00000000                8.00000000               56.00000000                0.83478752               -0.10434448               -0.10389305                0.34993351               -0.00075603                0.00031472                0.00357817
               0.00000000                9.00000000               56.00000000                0.84476441               -0.08286333               -0.08257703                0.27365223                0.00084696                0.00029631               -0.00096736
               1.00000000                9.00000000               56.00000000                0.44671264               -0.08327761               -0.08334325                0.27937296                0.00133812                0.00386644               -0.00112347
               2.00000000                9.00000000               56.00000000                0.15455337               -0.07528570               -0.08473016                0.28546457                0.03917422                0.11576012               -0.00000114
               3.00000000                9.00000000               56.00000000                0.17278317               -0.08035620               -0.09761438                0.30265449                0.04261188                0.18695461               -0.01553350
               4.00000000                9.00000000               56.00000000                0.22882358               -0.09662340               -0.09716835                0.31584224                0.02784865                0.10458475               -0.00664682
               5.00000000                9.00000000               56.00000000                0.29668869               -0.09972681               -0.09811099                0.32461188                0.01105452                0.04273661               -0.00204179
               6.00000000                9.00000000               56.00000000                0.37770324               -0.10050127               -0.09993795                0.33168784                0.00401637                0.01844072               -0.00014395
               7.00000000                9.00000000               56.00000000                0.47477079               -0.10167831               -0.10177968                0.33806864                0.00112193                0.00817307                0.00067522
               8.00000000                9.00000000               56.00000000                0.59180591               -0.10324323               -0.10346965                0.34413232               -0.00002511                0.00350187                0.00105026
               9.00000000                9.00000000               56.00000000                0.73404312               -0.10498704               -0.10498709                0.35003521               -0.00025532                0.00120954                0.00120892
              10.00000000                9.00000000               56.00000000                0.91385378               -0.10588140               -0.10649164                0.35584233               -0.00098796                0.00037179                0.00124545
               0.00000000               10.00000000               56.00000000                0.95211876               -0.08470408               -0.08297166                0.27862637               -0.00012580                0.00052684               -0.00029679
               1.00000000               10.00000000               56.00000000                0.76450257               -0.08674932               -0.08435625                0.28437678                0.00032446                0.00443268               -0.00040968
               2.00000000               10.00000000               56.00000000                0.59577452               -0.10450909               -0.08544096                0.29047222                0.03371820                0.11253474                0.00009867
               3.00000000               10.00000000               56.00000000                0.60341125               -0.10377311               -0.09232472                0.30767181                0.01897680                0.18308154               -0.00585308
               4.00000000               10.00000000               56.00000000                0.63418261               -0.08668409               -0.09836060                0.32124558                0.01421029                0.10521238               -0.00267822
               5.00000000               10.00000000               56.00000000                0.67159491               -0.08943369               -0.09994695                0.33023613                0.00589900                0.04310835               -0.00087686
               6.00000000               10.00000000               56.00000000                0.71630008               -0.09560422               -0.10138510                0.33741480                0.00174996                0.01860250               -0.00013988
               7.00000000               10.00000000               56.00000000                0.76994979               -0.10039640               -0.10283511                0.34384396               -0.00001387                0.00828126                0.00017413
               8.00000000               10.00000000               56.00000000                0.83479331               -0.10389173               -0.10434344                0.34992936               -0.00075650                0.00357739                0.00031431
               9.00000000               10.00000000               56.00000000                0.91385252               -0.10649092               -0.10588100                0.35584010               -0.00098843                0.00124468                0.00037180
              10.00000000               10.00000000               56.00000000                0.98283481               -0.10760453               -0.10760491                0.36164930               -0.00190736                0.00038450                0.00038548
               0.00000000                0.00000000               57.00000000                0.75101906               -0.06938444               -0.06938416                0.23205066                0.00191895               -0.00057777               -0.00057914
               1.00000000                0.00000000               57.00000000                0.49672732               -0.06745823               -0.07269011                0.23687910                0.00374497               -0.00308092               -0.00033572
               2.00000000                0.00000000               57.00000000                0.49807103               -0.06733506               -0.07281210                0.24144649                0.00095573               -0.00614123                0.00004436
               3.00000000                0.00000000               57.00000000                0.51813644               -0.07085523               -0.07443065                0.24590622                0.00108397               -0.00711975                0.00001098
               4.00000000                0.00000000               57.00000000                0.54683267               -0.07407616               -0.07581744                0.25032889                0.00107165               -0.00716696                0.00001721
               5.00000000                0.00000000               57.00000000                0.58458232               -0.07680783               -0.07722558                0.25476293                0.00113884               -0.00653445                0.00000433
               6.00000000                0.00000000               57.00000000                0.63212401               -0.07897883               -0.07860562                0.25924789                0.00118324               -0.00539387               -0.00001662
               7.00000000                0.00000000               57.00000000                0.69044737               -0.08058369               -0.07996064                0.26381139                0.00115953               -0.00395395               -0.00000717
               8.00000000                0.00000000               57.00000000                0.76074558               -0.08166749               -0.08130480                0.26845782                0.00101762               -0.00246546                0.00009289
               9.00000000                0.00000000               57.00000000                0.84454251               -0.08245438               -0.08272249                0.27319030                0.00082989               -0.00110767                0.00032085
              10.00000000                0.00000000               57.00000000                0.95198022               -0.08281919               -0.08452623                0.27802485               -0.00014552               -0.00037914                0.00051379
               0.00000000                1.00000000               57.00000000                0.49672606               -0.07268994               -0.06745800                0.23687784                0.00374476               -0.00033473               -0.00308211
               1.00000000                1.00000000               57.00000000                0.01000001               -0.07633247               -0.07633250                0.24172839                0.00875442               -0.00284691               -0.00284803
               2.00000000                1.00000000               57.00000000                0.01000000               -0.07965481               -0.06623353                0.24637281                0.02419018               -0.00648651                0.01256644
               3.00000000                1.00000000               57.00000000                0.01000001               -0.07876083               -0.05823095                0.25092252                0.02623457               -0.00795087                0.02677518
               4.00000000                1.00000000               57.00000000                0.04184852               -0.07788221               -0.07367147                0.25546808                0.00540022               -0.00807424               -0.00051223
               5.00000000                1.00000000               57.00000000                0.09215827               -0.07760043               -0.07706192                0.26003464                0.00497708               -0.00739157               -0.00198176
               6.00000000                1.00000000               57.00000000                0.15557658               -0.07803233               -0.07890952                0.26464709                0.00478394               -0.00608410               -0.00065839
               7.00000000                1.00000000               57.00000000                0.23400027               -0.07923582               -0.08023574                0.26932594                0.00392134               -0.00439520                0.00119129
               8.00000000                1.00000000               57.00000000                0.32989451               -0.08110875               -0.08157625                0.27407537                0.00258458               -0.00263271                0.00283288
               9.00000000                1.00000000               57.00000000                0.44644335               -0.08318811               -0.08312504                0.27890502                0.00137104               -0.00113115                0.00408845
              10.00000000                1.00000000               57.00000000                0.76432742               -0.08418918               -0.08659465                0.28377258                0.00035154               -0.00039249                0.00460637
               0.00000000                2.00000000               57.00000000                0.49807119               -0.07281214               -0.06733573                0.24144652                0.00095620                0.00004372               -0.00613997
               1.00000000                2.00000000               57.00000000                0.01000000               -0.06623376               -0.07965556                0.24637344                0.02419000                0.01256710               -0.00648535
               2.00000000                2.00000000               57.00000000                0.01000001               -0.07204470               -0.07204504                0.25233674                0.07169431                0.02328485                0.02328704
               3.00000000                2.00000000               57.00000000                0.01000000               -0.10504511               -0.04815224                0.25825149                0.06901133               -0.02085682                0.06167491
               4.00000000                2.00000000               57.00000000                0.01000000               -0.10310920               -0.04306071                0.26075679                0.07093048               -0.03761069                0.11749424
               5.00000000                2.00000000               57.00000000                0.01000001               -0.07915085               -0.03361087                0.26532395                0.08802970               -0.00825655                0.17977443
               6.00000000                2.00000000               57.00000000                0.02639058               -0.07820674               -0.03582894                0.27011451                0.08044487               -0.00351199                0.17923617
               7.00000000                2.00000000               57.00000000                0.05982524               -0.07990827               -0.05001129                0.27503763                0.06718879               -0.00142432                0.15369170
               8.00000000                2.00000000               57.00000000                0.10176886               -0.08250956               -0.06289207                0.28001728                0.05278397               -0.00025871                0.13451979
               9.00000000                2.00000000               57.00000000                0.15450933               -0.08456893               -0.07488330                0.28500296                0.04006751                0.00012671                0.12182155
              10.00000000                2.00000000               57.00000000                0.59574396               -0.08526131               -0.10464563                0.28986479                0.03445854                0.00016971                0.11856871
               0.00000000                3.00000000               57.00000000                0.51813406               -0.07443230               -0.07085669                0.24590981                0.00108425                0.00001024               -0.00711769
               1.00000000                3.00000000               57.00000000                0.01000001               -0.05823017               -0.07876239                0.25092684                0.02623508                0.02677636               -0.00794821
               2.00000000                3.00000000               57.00000000                0.01000000               -0.04814955               -0.10505339                0.25825037                0.06900826                0.06167159               -0.02085677
               3.00000000                3.00000000               57.00000000                0.01000000               -0.05851924               -0.05851725                0.26622244                0.11111427                0.08752582                0.08754411
               4.00000000                3.00000000               57.00000000                0.01197696               -0.06873070               -0.03367045                0.27591535                0.13883852                0.11204646                0.20362249
               5.00000000                3.00000000               57.00000000                0.02057532               -0.08543999               -0.03333660                0.28649189                0.12946127                0.05615407                0.22915261
               6.00000000                3.00000000               57.00000000                0.04915514               -0.09957223               -0.04155809                0.29182001                0.09593962               -0.03052361                0.22340047
               7.00000000                3.00000000               57.00000000                0.08338065               -0.10431987               -0.05269550                0.29484515                0.07434881               -0.04769830                0.21336926
               8.00000000                3.00000000               57.00000000                0.12420101               -0.10443125               -0.06474498                0.29843634                0.06688332               -0.03335315                0.20365559
               9.00000000                3.00000000               57.00000000                0.17281101               -0.09776792               -0.08003024                0.30257640                0.04358467               -0.01614114                0.19652899
              10.00000000                3.00000000               57.00000000                0.60343251               -0.09235464               -0.10384901                0.30750376                0.01941033               -0.00605646                0.19309689
               0.00000000                4.00000000               57.00000000                0.54683686               -0.07581820               -0.07407685                0.25032900                0.00107137                0.00001621               -0.00716997
               1.00000000                4.00000000               57.00000000                0.04184812               -0.07367369               -0.07788290                0.25546898                0.00539420               -0.00052077               -0.00807682
               2.00000000                4.00000000               57.00000000                0.01000000               -0.04304893               -0.10311481                0.26077445                0.07093199                0.11751265               -0.03763210
               3.00000000                4.00000000               57.00000000                0.01197953               -0.03365279               -0.06873450                0.27588618                0.13883341                0.20362430                0.11206059
               4.00000000                4.00000000               57.00000000                0.02052861               -0.07078518               -0.07078313                0.28877398                0.08005116                0.10603758                0.10604518
               5.00000000                4.00000000               57.00000000                0.04903182               -0.09283471               -0.08639682                0.29625854                0.05176765                0.01383025                0.05384471
               6.00000000                4.00000000               57.00000000                0.08310868               -0.09719647               -0.09443744                0.30131011                0.04153856               -0.01630858                0.05736005
               7.00000000                4.00000000               57.00000000                0.12365241               -0.09761822               -0.09249584                0.30610941                0.03990203               -0.01794788                0.08244320
               8.00000000                4.00000000               57.00000000                0.17176733               -0.09687504               -0.09308120                0.31093599                0.03902966               -0.01408902                0.09956773
               9.00000000                4.00000000               57.00000000                0.22885410               -0.09727075               -0.09667787                0.31598336                0.02845997               -0.00692189                0.10986970
              10.00000000                4.00000000               57.00000000                0.63419966               -0.09847091               -0.08644608                0.32135152                0.01454992               -0.00277431                0.11099094
               0.00000000                5.00000000               57.00000000                0.58457630               -0.07722602               -0.07680787                0.25476186                0.00113870                0.00000411               -0.00653831
               1.00000000                5.00000000               57.00000000                0.09215034               -0.07706190               -0.07760043                0.26003440                0.00497290               -0.00201842               -0.00739504
               2.00000000                5.00000000               57.00000000                0.01000001               -0.03360604               -0.07914442                0.26529653                0.08802852                0.17978592               -0.00826461
               3.00000000                5.00000000               57.00000000                0.02057710               -0.03333016               -0.08544412                0.28648523                0.12944660                0.22916931                0.05612915
               4.00000000                5.00000000               57.00000000                0.04903301               -0.08639274               -0.09282618                0.29622365                0.05175466                0.05382773                0.01382813
               5.00000000                5.00000000               57.00000000                0.08311169               -0.09676700               -0.09676758                0.30256821                0.03583710                0.00789231                0.00788530
               6.00000000                5.00000000               57.00000000                0.12365261               -0.09683761               -0.09839780                0.30833697                0.02854014               -0.00103344                0.02041849
               7.00000000                5.00000000               57.00000000                0.17177816               -0.09627609               -0.09983152                0.31386925                0.02365354               -0.00417416                0.03153168
               8.00000000                5.00000000               57.00000000                0.22887652               -0.09615738               -0.10120567                0.31933955                0.01893673               -0.00410451                0.04000294
               9.00000000                5.00000000               57.00000000                0.29672236               -0.09819923               -0.09984381                0.32484917                0.01130074               -0.00214468                0.04492385
              10.00000000                5.00000000               57.00000000                0.67161214               -0.10005521               -0.08928158                0.33046262                0.00604816               -0.00091790                0.04555159
               0.00000000                6.00000000               57.00000000                0.63213228               -0.07860580               -0.07897798                0.25924548                0.00118248               -0.00001669               -0.00539535
               1.00000000                6.00000000               57.00000000                0.15557626               -0.07890831               -0.07803153                0.26464542                0.00478491               -0.00067743               -0.00608459
               2.00000000                6.00000000               57.00000000                0.02639077               -0.03582830               -0.07819993                0.27008801                0.08044516                0.17921767               -0.00347580
               3.00000000                6.00000000               57.00000000                0.04915759               -0.04155388               -0.09956922                0.29179910                0.09592823                0.22340614               -0.03054898
               4.00000000                6.00000000               57.00000000                0.08311359               -0.09443167               -0.09719297                0.30130133                0.04153117                0.05737129               -0.01630526
               5.00000000                6.00000000               57.00000000                0.12365468               -0.09839749               -0.09683571                0.30833505                0.02853799                0.02041779               -0.00104029
               6.00000000                6.00000000               57.00000000                0.17179299               -0.09826786               -0.09826751                0.31457032                0.01954264                0.00767372                0.00767440
               7.00000000                6.00000000               57.00000000                0.22892281               -0.09779227               -0.10026070                0.32047932                0.01327824                0.00225750                0.01344946
               8.00000000                6.00000000               57.00000000                0.29681595               -0.09810805               -0.10157590                0.32625101                0.00840129                0.00021257                0.01732893
               9.00000000                6.00000000               57.00000000                0.37775947               -0.10003379               -0.10060926                0.33197636                0.00410987               -0.00016420                0.01941991
              10.00000000                6.00000000               57.00000000                0.71633499               -0.10149392               -0.09556994                0.33770837                0.00180678               -0.00015149                0.01970277
               0.00000000                7.00000000               57.00000000                0.69045271               -0.07995770               -0.08058132                0.26380246                0.00115908               -0.00000708               -0.00395544
               1.00000000                7.00000000               57.00000000                0.23401144               -0.08023302               -0.07923362                0.26931804                0.00392412                0.00119386               -0.00439532
               2.00000000                7.00000000               57.00000000                0.05982550               -0.05001322               -0.07990462                0.27502799                0.06718760                0.15366987               -0.00140523
               3.00000000                7.00000000               57.00000000                0.08338144               -0.05269447               -0.10432169                0.29484866                0.07434377                0.21335636               -0.04769363
               4.00000000                7.00000000               57.00000000                0.12365727               -0.09248940               -0.09761591                0.30609972                0.03989573                0.08244885               -0.01795222
               5.00000000                7.00000000               57.00000000                0.17177783               -0.09982944               -0.09627468                0.31386591                0.02365130                0.03153143               -0.00418377
               6.00000000                7.00000000               57.00000000                0.22891665               -0.10026086               -0.09779249                0.32048184                0.01327888                0.01345295                0.00225252
               7.00000000                7.00000000               57.00000000                0.29684397               -0.09991643               -0.09991639                0.32662146                0.00699804                0.00570229                0.00569814
               8.00000000                7.00000000               57.00000000                0.37784009               -0.10034178               -0.10147401                0.33255200                0.00324442                0.00223766                0.00766459
               9.00000000                7.00000000               57.00000000                0.47486882               -0.10188205               -0.10177914                0.33838322                0.00115128                0.00070648                0.00863544
              10.00000000                7.00000000               57.00000000                0.77000763               -0.10294261               -0.10043527                0.34416883                0.00000423                0.00018281                0.00879910
               0.00000000                8.00000000               57.00000000                0.76075549               -0.08130205               -0.08166487                0.26844854                0.00101797                0.00009302               -0.00246480
               1.00000000                8.00000000               57.00000000                0.32990428               -0.08157367               -0.08110638                0.27406775                0.00258691                0.00283670               -0.00263123
               2.00000000                8.00000000               57.00000000                0.10177690               -0.06289062               -0.08250814                0.28001323                0.05277898                0.13450496               -0.00025980
               3.00000000                8.00000000               57.00000000                0.12420596               -0.06474417               -0.10443145                0.29843162                0.06687982                0.20363863               -0.03334243
               4.00000000                8.00000000               57.00000000                0.17177627               -0.09307963               -0.09687287                0.31092821                0.03902912                0.09956511               -0.01409126
               5.00000000                8.00000000               57.00000000                0.22888063               -0.10120410               -0.09615477                0.31933163                0.01893344                0.03999687               -0.00410460
               6.00000000                8.00000000               57.00000000                0.29681692               -0.10157509               -0.09810715                0.32624840                0.00840085                0.01732883                0.00021040
               7.00000000                8.00000000               57.00000000                0.37783949               -0.10147379               -0.10034124                0.33255027                0.00324509                0.00766794                0.00223514
               8.00000000                8.00000000               57.00000000                0.47491412               -0.10214937               -0.10214913                0.33857810                0.00081669                0.00325491                0.00325182
               9.00000000                8.00000000               57.00000000                0.59195753               -0.10357563               -0.10334414                0.34446696               -0.00002095                0.00111473                0.00371699
              10.00000000                8.00000000               57.00000000                0.83488448               -0.10445124               -0.10397238                0.35027646               -0.00075476                0.00033649                0.00381637
               0.00000000                9.00000000               57.00000000                0.84455743               -0.08271895               -0.08245105                0.27317821                0.00082983                0.00032062               -0.00110648
               1.00000000                9.00000000               57.00000000                0.44644962               -0.08312232               -0.08318555                0.27889589                0.00137333                0.00408878               -0.00112956
               2.00000000                9.00000000               57.00000000                0.15451657               -0.07488280               -0.08456980                0.28500356                0.04006428                0.12180721                0.00012599
               3.00000000                9.00000000               57.00000000                0.17281729               -0.08002973               -0.09776161                0.30256157                0.04357968                0.19650521               -0.01613744
               4.00000000                9.00000000               57.00000000                0.22885535               -0.09667691               -0.09726907                0.31597935                0.02845975                0.10986252               -0.00692767
               5.00000000                9.00000000               57.00000000                0.29672937               -0.09984291               -0.09819752                0.32484486                0.01129890                0.04492122               -0.00214413
               6.00000000                9.00000000               57.00000000                0.37776420               -0.10060776               -0.10003172                0.33196972                0.00410898                0.01941685               -0.00016345
               7.00000000                9.00000000               57.00000000                0.47487157               -0.10177852               -0.10188115                0.33838071                0.00115158                0.00863551                0.00070650
               8.00000000                9.00000000               57.00000000                0.59195727               -0.10334411               -0.10357508                0.34446603               -0.00002118                0.00371800                0.00111333
               9.00000000                9.00000000               57.00000000                0.73426640               -0.10509231               -0.10509215                0.35038561               -0.00025796                0.00129094                0.00128953
              10.00000000                9.00000000               57.00000000                0.91399409               -0.10598946               -0.10659419                0.35620574               -0.00099141                0.00039937                0.00133320
               0.00000000               10.00000000               57.00000000                0.95198190               -0.08452090               -0.08281488                0.27800863               -0.00014690                0.00051349               -0.00037918
               1.00000000               10.00000000               57.00000000                0.76432743               -0.08659105               -0.08418613                0.28376031                0.00035096                0.00460571               -0.00039211
               2.00000000               10.00000000               57.00000000                0.59574604               -0.10464479               -0.08526360                0.28986662                0.03445890                0.11855192                0.00017067
               3.00000000               10.00000000               57.00000000                0.60343553               -0.10384887               -0.09234578                0.30748666                0.01940897                0.19306717               -0.00605570
               4.00000000               10.00000000               57.00000000                0.63420140               -0.08644637               -0.09846937                0.32134792                0.01454615                0.11098152               -0.00278036
               5.00000000               10.00000000               57.00000000                0.67161858               -0.08928147               -0.10005467                0.33046025                0.00604780                0.04555137               -0.00091745
               6.00000000               10.00000000               57.00000000                0.71633692               -0.09556867               -0.10149157                0.33770065                0.00180651                0.01969888               -0.00015017
               7.00000000               10.00000000               57.00000000                0.77001013               -0.10043461               -0.10294181                0.34416620                0.00000383                0.00879667                0.00018367
               8.00000000               10.00000000               57.00000000                0.83488318               -0.10397219               -0.10445060                0.35027492               -0.00075508                0.00381442                0.00033545
               9.00000000               10.00000000               57.00000000                0.91399447               -0.10659391               -0.10598912                0.35620454               -0.00099178                0.00133252                0.00039774
              10.00000000               10.00000000               57.00000000                0.98291861               -0.10771487               -0.10771511                0.36202768               -0.00191255                0.00041247                0.00041272
               0.00000000                0.00000000               58.00000000                0.75114926               -0.06963675               -0.06963712                0.23302494                0.00187972               -0.00060699               -0.00060792
               1.00000000                0.00000000               58.00000000                0.49690528               -0.06763558               -0.07293307                0.23770517                0.00378767               -0.00325941               -0.00034453
               2.00000000                0.00000000               58.00000000                0.49815773               -0.06743923               -0.07298436                0.24211669                0.00094458               -0.00654956                0.00006780
               3.00000000                0.00000000               58.00000000                0.51819777               -0.07095923               -0.07456232                0.24641414                0.00107533               -0.00763038                0.00002518
               4.00000000                0.00000000               58.00000000                0.54688295               -0.07416936               -0.07590335                0.25066878                0.00106202               -0.00770780                0.00002524
               5.00000000                0.00000000               58.00000000                0.58459871               -0.07687686               -0.07726422                0.25493030                0.00112989               -0.00704856                0.00000770
               6.00000000                0.00000000               58.00000000                0.63211467               -0.07901045               -0.07859745                0.25924594                0.00117401               -0.00583865               -0.00001603
               7.00000000                0.00000000               58.00000000                0.69038759               -0.08056694               -0.07990268                0.26363753                0.00114974               -0.00430808               -0.00000582
               8.00000000                0.00000000               58.00000000                0.76061229               -0.08159466               -0.08120175                0.26812411                0.00100514               -0.00272058                0.00010105
               9.00000000                0.00000000               58.00000000                0.84433443               -0.08231964               -0.08257295                0.27269457                0.00081028               -0.00125604                0.00034480
              10.00000000                0.00000000               58.00000000                0.95184056               -0.08265236               -0.08433029                0.27737048               -0.00017048               -0.00046516                0.00049197
               0.00000000                1.00000000               58.00000000                0.49689939               -0.07293252               -0.06763669                0.23770540                0.00378744               -0.00034347               -0.00325904
               1.00000000                1.00000000               58.00000000                0.01000001               -0.07661480               -0.07661625                0.24240830                0.00894048               -0.00296472               -0.00296443
               2.00000000                1.00000000               58.00000000                0.01000000               -0.07993248               -0.06627207                0.24690534                0.02465716               -0.00672845                0.01310618
               3.00000000                1.00000000               58.00000000                0.01000001               -0.07894561               -0.05807383                0.25131093                0.02674249               -0.00822372                0.02794445
               4.00000000                1.00000000               58.00000000                0.04189186               -0.07797618               -0.07369355                0.25571159                0.00552818               -0.00833416               -0.00041060
               5.00000000                1.00000000               58.00000000                0.09217618               -0.07761698               -0.07706959                0.26012990                0.00510038               -0.00762211               -0.00197959
               6.00000000                1.00000000               58.00000000                0.15555504               -0.07798524               -0.07888543                0.26459580                0.00489619               -0.00626767               -0.00063189
               7.00000000                1.00000000               58.00000000                0.23393887               -0.07914011               -0.08016524                0.26912174                0.00401188               -0.00452072                0.00129975
               8.00000000                1.00000000               58.00000000                0.32973021               -0.08097911               -0.08146122                0.27372794                0.00264473               -0.00268713                0.00301104
               9.00000000                1.00000000               58.00000000                0.44615690               -0.08302829               -0.08296680                0.27841049                0.00140247               -0.00112667                0.00431500
              10.00000000                1.00000000               58.00000000                0.76413480               -0.08401303               -0.08641901                0.28312451                0.00037218               -0.00036396                0.00477192
               0.00000000                2.00000000               58.00000000                0.49816598               -0.07298279               -0.06744098                0.24211638                0.00094399                0.00006789               -0.00654720
               1.00000000                2.00000000               58.00000000                0.01000000               -0.06627050               -0.07993446                0.24690544                0.02465783                0.01310516               -0.00672626
               2.00000000                2.00000000               58.00000000                0.01000001               -0.07212551               -0.07212203                0.25274882                0.07301170                0.02423744                0.02423836
               3.00000000                2.00000000               58.00000000                0.01000000               -0.10564208               -0.04777358                0.25855268                0.07030741               -0.02157554                0.06416684
               4.00000000                2.00000000               58.00000000                0.01000000               -0.10359212               -0.04253434                0.26095973                0.07226624               -0.03880288                0.12258676
               5.00000000                2.00000000               58.00000000                0.01000001               -0.07913279               -0.03288916                0.26533796                0.08962685               -0.00832745                0.18781292
               6.00000000                2.00000000               58.00000000                0.02639141               -0.07811327               -0.03509103                0.27002676                0.08190138               -0.00337966                0.18748886
               7.00000000                2.00000000               58.00000000                0.05982159               -0.07977998               -0.04942598                0.27480569                0.06839891               -0.00122205                0.16102117
               8.00000000                2.00000000               58.00000000                0.10176806               -0.08237140               -0.06242623                0.27967218                0.05371810               -0.00004814                0.14118960
               9.00000000                2.00000000               58.00000000                0.15447374               -0.08441165               -0.07453105                0.28452995                0.04075463                0.00027674                0.12807456
              10.00000000                2.00000000               58.00000000                0.59571541               -0.08508662               -0.10468307                0.28923833                0.03501104                0.00025308                0.12480958
               0.00000000                3.00000000               58.00000000                0.51819718               -0.07455976               -0.07095987                0.24641057                0.00107488                0.00002452               -0.00763184
               1.00000000                3.00000000               58.00000000                0.01000001               -0.05807193               -0.07894622                0.25130793                0.02674851                0.02794228               -0.00822444
               2.00000000                3.00000000               58.00000000                0.01000000               -0.04777097               -0.10563314                0.25854295                0.07030814                0.06416220               -0.02156639
               3.00000000                3.00000000               58.00000000                0.01000000               -0.05824310               -0.05824478                0.26645374                0.11309762                0.09108782                0.09107743
               4.00000000                3.00000000               58.00000000                0.01197812               -0.06855455               -0.03294731                0.27613331                0.14128363                0.11685520                0.21220419
               5.00000000                3.00000000               58.00000000                0.02057958               -0.08547418               -0.03259269                0.28670902                0.13171296                0.05869297                0.23895993
               6.00000000                3.00000000               58.00000000                0.04916198               -0.09979869               -0.04089517                0.29196012                0.09764242               -0.03175010                0.23322446
               7.00000000                3.00000000               58.00000000                0.08339699               -0.10459493               -0.05214800                0.29494000                0.07568777               -0.04968253                0.22316226
               8.00000000                3.00000000               58.00000000                0.12422615               -0.10467084               -0.06431268                0.29842945                0.06804932               -0.03469393                0.21341989
               9.00000000                3.00000000               58.00000000                0.17285069               -0.09787419               -0.07975471                0.30247346                0.04432330               -0.01674071                0.20637084
              10.00000000                3.00000000               58.00000000                0.60345557               -0.09236681               -0.10386126                0.30730953                0.01972961               -0.00625019                0.20346685
               0.00000000                4.00000000               58.00000000                0.54688211               -0.07589946               -0.07416898                0.25066180                0.00106225                0.00002502               -0.00771076
               1.00000000                4.00000000               58.00000000                0.04189364               -0.07368972               -0.07797572                0.25570534                0.00553794               -0.00039846               -0.00833634
               2.00000000                4.00000000               58.00000000                0.01000000               -0.04253343               -0.10359526                0.26098806                0.07226378                0.12258011               -0.03879676
               3.00000000                4.00000000               58.00000000                0.01197806               -0.03294401               -0.06855060                0.27609302                0.14126480                0.21218526                0.11683314
               4.00000000                4.00000000               58.00000000                0.02052857               -0.07061305               -0.07061927                0.28910351                0.08142304                0.11062727                0.11061349
               5.00000000                4.00000000               58.00000000                0.04903434               -0.09297671               -0.08645730                0.29652384                0.05263475                0.01445545                0.05608887
               6.00000000                4.00000000               58.00000000                0.08311491               -0.09737428               -0.09458848                0.30155783                0.04223989               -0.01696667                0.05980761
               7.00000000                4.00000000               58.00000000                0.12366677               -0.09776639               -0.09258052                0.30630416                0.04056823               -0.01868029                0.08612443
               8.00000000                4.00000000               58.00000000                0.17179140               -0.09698156               -0.09313511                0.31110837                0.03967082               -0.01466521                0.10421227
               9.00000000                4.00000000               58.00000000                0.22888773               -0.09735189               -0.09672619                0.31611142                0.02892149               -0.00721694                0.11528779
              10.00000000                4.00000000               58.00000000                0.63421472               -0.09855332               -0.08626921                0.32143741                0.01479866               -0.00288552                0.11697160
               0.00000000                5.00000000               58.00000000                0.58460325               -0.07726215               -0.07687670                0.25492596                0.00113052                0.00000724               -0.00704955
               1.00000000                5.00000000               58.00000000                0.09217053               -0.07706938               -0.07761668                0.26012664                0.00510157               -0.00198462               -0.00762216
               2.00000000                5.00000000               58.00000000                0.01000001               -0.03289129               -0.07914351                0.26538419                0.08962679                0.18778751               -0.00833380
               3.00000000                5.00000000               58.00000000                0.02057829               -0.03258652               -0.08547404                0.28671258                0.13170261                0.23895132                0.05868718
               4.00000000                5.00000000               58.00000000                0.04903358               -0.08644871               -0.09297773                0.29652579                0.05262316                0.05610929                0.01444888
               5.00000000                5.00000000               58.00000000                0.08311841               -0.09694227               -0.09694433                0.30282995                0.03642381                0.00820293                0.00818581
               6.00000000                5.00000000               58.00000000                0.12366817               -0.09698107               -0.09857522                0.30859083                0.02901390               -0.00108870                0.02124761
               7.00000000                5.00000000               58.00000000                0.17179126               -0.09638415               -0.10000533                0.31412495                0.02404501               -0.00436834                0.03289238
               8.00000000                5.00000000               58.00000000                0.22890153               -0.09623395               -0.10137067                0.31958350                0.01924985               -0.00429283                0.04184616
               9.00000000                5.00000000               58.00000000                0.29676023               -0.09827878               -0.09995398                0.32508261                0.01149082               -0.00225773                0.04716880
              10.00000000                5.00000000               58.00000000                0.67163772               -0.10015002               -0.08919169                0.33069124                0.00615747               -0.00096626                0.04809644
               0.00000000                6.00000000               58.00000000                0.63212046               -0.07859569               -0.07901029                0.25924070                0.00117419               -0.00001682               -0.00584177
               1.00000000                6.00000000               58.00000000                0.15555631               -0.07888451               -0.07798510                0.26459178                0.00489473               -0.00063390               -0.00626988
               2.00000000                6.00000000               58.00000000                0.02639199               -0.03509169               -0.07811710                0.27003589                0.08190104                0.18747006               -0.00338187
               3.00000000                6.00000000               58.00000000                0.04916239               -0.04089324               -0.09980513                0.29198409                0.09764171                0.23322057               -0.03173707
               4.00000000                6.00000000               58.00000000                0.08311811               -0.09458291               -0.09737359                0.30154868                0.04222977                0.05981324               -0.01696549
               5.00000000                6.00000000               58.00000000                0.12366701               -0.09857214               -0.09698102                0.30858651                0.02901258                0.02125315               -0.00109026
               6.00000000                6.00000000               58.00000000                0.17180596               -0.09841149               -0.09841108                0.31484050                0.01986470                0.00797072                0.00796568
               7.00000000                6.00000000               58.00000000                0.22894660               -0.09790130               -0.10041183                0.32075748                0.01349958                0.00233533                0.01402592
               8.00000000                6.00000000               58.00000000                0.29685923               -0.09819396               -0.10172168                0.32652860                0.00854588                0.00020834                0.01814062
               9.00000000                6.00000000               58.00000000                0.37782156               -0.10012443               -0.10071598                0.33226225                0.00418266               -0.00018671                0.02042168
              10.00000000                6.00000000               58.00000000                0.71637334               -0.10159546               -0.09557403                0.33800605                0.00184784               -0.00016375                0.02084328
               0.00000000                7.00000000               58.00000000                0.69038575               -0.07990111               -0.08056596                0.26363181                0.00114920               -0.00000585               -0.00431033
               1.00000000                7.00000000               58.00000000                0.23393770               -0.08016409               -0.07913936                0.26911729                0.00400969                0.00129326               -0.00452167
               2.00000000                7.00000000               58.00000000                0.05982309               -0.04942407               -0.07977918                0.27480551                0.06839589                0.16101430               -0.00122087
               3.00000000                7.00000000               58.00000000                0.08339943               -0.05214755               -0.10459523                0.29494441                0.07568238                0.22315329               -0.04968060
               4.00000000                7.00000000               58.00000000                0.12366896               -0.09257868               -0.09776430                0.30630089                0.04056513                0.08612055               -0.01868360
               5.00000000                7.00000000               58.00000000                0.17179830               -0.10000155               -0.09638206                0.31411402                0.02404602                0.03290094               -0.00436711
               6.00000000                7.00000000               58.00000000                0.22894303               -0.10041197               -0.09790085                0.32075697                0.01350155                0.01402670                0.00233295
               7.00000000                7.00000000               58.00000000                0.29689015               -0.10003548               -0.10003460                0.32691122                0.00712077                0.00595130                0.00595058
               8.00000000                7.00000000               58.00000000                0.37791047               -0.10044167               -0.10159364                0.33285456                0.00330551                0.00233667                0.00804336
               9.00000000                7.00000000               58.00000000                0.47497488               -0.10198248               -0.10188148                0.33870105                0.00117443                0.00073411                0.00910775
              10.00000000                7.00000000               58.00000000                0.77007177               -0.10304839               -0.10049454                0.34450301                0.00001648                0.00019055                0.00933021
               0.00000000                8.00000000               58.00000000                0.76062061               -0.08119868               -0.08159215                0.26811538                0.00100450                0.00010167               -0.00272035
               1.00000000                8.00000000               58.00000000                0.32974782               -0.08145849               -0.08097690                0.27371981                0.00264401                0.00301129               -0.00268490
               2.00000000                8.00000000               58.00000000                0.10176482               -0.06242862               -0.08236707                0.27965656                0.05371761                0.14117098               -0.00003814
               3.00000000                8.00000000               58.00000000                0.12423118               -0.06431374               -0.10466627                0.29842807                0.06804299                0.21339792               -0.03470029
               4.00000000                8.00000000               58.00000000                0.17179822               -0.09312932               -0.09697639                0.31108782                0.03966666                0.10420963               -0.01466411
               5.00000000                8.00000000               58.00000000                0.22890414               -0.10136699               -0.09623168                0.31957336                0.01924807                0.04184906               -0.00429629
               6.00000000                8.00000000               58.00000000                0.29685724               -0.10172205               -0.09819391                0.32652982                0.00854643                0.01814228                0.00020269
               7.00000000                8.00000000               58.00000000                0.37790631               -0.10159487               -0.10044186                0.33285648                0.00330725                0.00804508                0.00233425
               8.00000000                8.00000000               58.00000000                0.47502538               -0.10225677               -0.10225622                0.33890269                0.00083833                0.00342630                0.00342352
               9.00000000                8.00000000               58.00000000                0.59212764               -0.10368166               -0.10344747                0.34480664               -0.00001685                0.00117545                0.00393924
              10.00000000                8.00000000               58.00000000                0.83498306               -0.10455931               -0.10406282                0.35063305               -0.00075454                0.00035633                0.00406268
               0.00000000                9.00000000               58.00000000                0.84434213               -0.08256925               -0.08231616                0.27268299                0.00081044                0.00034613               -0.00125609
               1.00000000                9.00000000               58.00000000                0.44616970               -0.08296344               -0.08302509                0.27839985                0.00140252                0.00431761               -0.00112508
               2.00000000                9.00000000               58.00000000                0.15447490               -0.07453297               -0.08440666                0.28451779                0.04075336                0.12805380                0.00027965
               3.00000000                9.00000000               58.00000000                0.17285260               -0.07975731               -0.09787179                0.30247110                0.04432380                0.20634695               -0.01673822
               4.00000000                9.00000000               58.00000000                0.22888989               -0.09672301               -0.09734923                0.31610367                0.02891786                0.11528496               -0.00721647
               5.00000000                9.00000000               58.00000000                0.29676977               -0.09995030               -0.09827558                0.32507164                0.01148621                0.04716693               -0.00225647
               6.00000000                9.00000000               58.00000000                0.37782448               -0.10071446               -0.10012295                0.33225757                0.00418208                0.02042099               -0.00018864
               7.00000000                9.00000000               58.00000000                0.47497940               -0.10188173               -0.10198179                0.33869917                0.00117639                0.00910957                0.00073429
               8.00000000                9.00000000               58.00000000                0.59212488               -0.10344845               -0.10368180                0.34480836               -0.00001533                0.00394063                0.00117474
               9.00000000                9.00000000               58.00000000                0.73452572               -0.10520176               -0.10520136                0.35074888               -0.00025855                0.00137547                0.00137470
              10.00000000                9.00000000               58.00000000                0.91414750               -0.10610206               -0.10670394                0.35658723               -0.00099547                0.00042936                0.00142790
               0.00000000               10.00000000               58.00000000                0.95183728               -0.08432764               -0.08264885                0.27735950               -0.00016993                0.00049293               -0.00046653
               1.00000000               10.00000000               58.00000000                0.76414030               -0.08641636               -0.08400973                0.28311480                0.00037262                0.00477333               -0.00036377
               2.00000000               10.00000000               58.00000000                0.59571563               -0.10468256               -0.08508187                0.28922888                0.03500786                0.12478818                0.00025455
               3.00000000               10.00000000               58.00000000                0.60345470               -0.10386295               -0.09236585                0.30730677                0.01972924                0.20344077               -0.00624954
               4.00000000               10.00000000               58.00000000                0.63421886               -0.08626877               -0.09855373                0.32143832                0.01479830                0.11696745               -0.00288462
               5.00000000               10.00000000               58.00000000                0.67163819               -0.08918927               -0.10014594                0.33067929                0.00615598                0.04809282               -0.00096287
               6.00000000               10.00000000               58.00000000                0.71637681               -0.09557238               -0.10159279                0.33799734                0.00184645                0.02083988               -0.00016392
               7.00000000               10.00000000               58.00000000                0.77007521               -0.10049436               -0.10304685                0.34449855                0.00001666                0.00933032                0.00019156
               8.00000000               10.00000000               58.00000000                0.83498487               -0.10406387               -0.10455981                0.35063494               -0.00075403                0.00406166                0.00035645
               9.00000000               10.00000000               58.00000000                0.91415253               -0.10670492               -0.10610234                0.35658925               -0.00099477                0.00142707                0.00042867
              10.00000000               10.00000000               58.00000000                0.98301271               -0.10783292               -0.10783236                0.36243143               -0.00191951                0.00044654                0.00044687
               0.00000000                0.00000000               59.00000000                0.75128788               -0.06990828               -0.06990886                0.23404875                0.00183480               -0.00063478               -0.00063552
               1.00000000                0.00000000               59.00000000                0.49711126               -0.06784443               -0.07318101                0.23856865                0.00381244               -0.00344153               -0.00035145
               2.00000000                0.00000000               59.00000000                0.49825617               -0.06757973               -0.07316313                0.24281162                0.00093147               -0.00697403                0.00009344
               3.00000000                0.00000000               59.00000000                0.51828292               -0.07108490               -0.07469807                0.24693998                0.00106370               -0.00816865                0.00003967
               4.00000000                0.00000000               59.00000000                0.54693737               -0.07427079               -0.07598944                0.25101666                0.00104993               -0.00828161                0.00003342
               5.00000000                0.00000000               59.00000000                0.58462292               -0.07694434               -0.07730307                0.25510277                0.00111887               -0.00759466                0.00001095
               6.00000000                0.00000000               59.00000000                0.63209649               -0.07903594               -0.07858911                0.25924410                0.00116242               -0.00631352               -0.00001643
               7.00000000                0.00000000               59.00000000                0.69031367               -0.08054130               -0.07984494                0.26346169                0.00113578               -0.00468340               -0.00000485
               8.00000000                0.00000000               59.00000000                0.76048934               -0.08150960               -0.08109225                0.26777243                0.00098839               -0.00299423                0.00010998
               9.00000000                0.00000000               59.00000000                0.84409199               -0.08217288               -0.08241501                0.27217147                0.00078944               -0.00142469                0.00037263
              10.00000000                0.00000000               59.00000000                0.95167581               -0.08247529               -0.08412540                0.27668622               -0.00019519               -0.00057076                0.00046807
               0.00000000                1.00000000               59.00000000                0.49709744               -0.07318127               -0.06784574                0.23857110                0.00381363               -0.00035109               -0.00344223
               1.00000000                1.00000000               59.00000000                0.01000000               -0.07688564               -0.07688690                0.24311593                0.00908125               -0.00307930               -0.00307910
               2.00000000                1.00000000               59.00000000                0.01000000               -0.08018586               -0.06635558                0.24745595                0.02499501               -0.00695848                0.01365333
               3.00000000                1.00000000               59.00000000                0.01000001               -0.07911679               -0.05801427                0.25171199                0.02710908               -0.00848067                0.02913931
               4.00000000                1.00000000               59.00000000                0.04193497               -0.07806718               -0.07373079                0.25596000                0.00563262               -0.00857692               -0.00029584
               5.00000000                1.00000000               59.00000000                0.09219136               -0.07763904               -0.07708514                0.26022948                0.00519384               -0.00783528               -0.00196967
               6.00000000                1.00000000               59.00000000                0.15554147               -0.07794951               -0.07886359                0.26454548                0.00498046               -0.00643858               -0.00057599
               7.00000000                1.00000000               59.00000000                0.23384325               -0.07905534               -0.08009793                0.26891832                0.00407909               -0.00463179                0.00139578
               8.00000000                1.00000000               59.00000000                0.32958017               -0.08085251               -0.08134461                0.27336511                0.00268804               -0.00272891                0.00319772
               9.00000000                1.00000000               59.00000000                0.44586146               -0.08286377               -0.08280336                0.27789044                0.00142295               -0.00111967                0.00455696
              10.00000000                1.00000000               59.00000000                0.76393516               -0.08382977               -0.08622563                0.28244778                0.00038489               -0.00033740                0.00494131
               0.00000000                2.00000000               59.00000000                0.49825569               -0.07316433               -0.06758165                0.24281629                0.00093126                0.00009454               -0.00697340
               1.00000000                2.00000000               59.00000000                0.01000000               -0.06635575               -0.08018804                0.24746107                0.02499663                0.01365206               -0.00695665
               2.00000000                2.00000000               59.00000000                0.01000001               -0.07222939               -0.07223427                0.25316969                0.07393726                0.02521024                0.02520657
               3.00000000                2.00000000               59.00000000                0.01000000               -0.10608556               -0.04756024                0.25886816                0.07122382               -0.02228097                0.06666456
               4.00000000                2.00000000               59.00000000                0.01000000               -0.10394730               -0.04221638                0.26118405                0.07320747               -0.03994870                0.12777025
               5.00000000                2.00000000               59.00000000                0.01000001               -0.07912996               -0.03244755                0.26540885                0.09073900               -0.00832516                0.19592936
               6.00000000                2.00000000               59.00000000                0.02639662               -0.07804301               -0.03461737                0.26994022                0.08289995               -0.00321560                0.19589225
               7.00000000                2.00000000               59.00000000                0.05982224               -0.07967365               -0.04902525                0.27459376                0.06921624               -0.00099593                0.16853585
               8.00000000                2.00000000               59.00000000                0.10175465               -0.08224020               -0.06209225                0.27931166                0.05434601                0.00022135                0.14803159
               9.00000000                2.00000000               59.00000000                0.15443200               -0.08424888               -0.07424455                0.28402493                0.04120001                0.00044754                0.13451955
              10.00000000                2.00000000               59.00000000                0.59567941               -0.08490347               -0.10460461                0.28857256                0.03533390                0.00034406                0.13127168
               0.00000000                3.00000000               59.00000000                0.51827578               -0.07469673               -0.07108636                0.24693891                0.00106355                0.00004137               -0.00816961
               1.00000000                3.00000000               59.00000000                0.01000001               -0.05801367               -0.07911810                0.25171147                0.02710688                0.02913065               -0.00848018
               2.00000000                3.00000000               59.00000000                0.01000000               -0.04755682               -0.10608397                0.25887434                0.07122474                0.06665756               -0.02226036
               3.00000000                3.00000000               59.00000000                0.01000000               -0.05808532               -0.05808349                0.26668516                0.11447451                0.09467778                0.09465495
               4.00000000                3.00000000               59.00000000                0.01198147               -0.06844235               -0.03250445                0.27635218                0.14293226                0.12167866                0.22089429
               5.00000000                3.00000000               59.00000000                0.02057908               -0.08550654               -0.03213265                0.28689202                0.13323272                0.06123935                0.24886706
               6.00000000                3.00000000               59.00000000                0.04916383               -0.09996811               -0.04048870                0.29216986                0.09881260               -0.03293831                0.24318410
               7.00000000                3.00000000               59.00000000                0.08341334               -0.10477067               -0.05180389                0.29502553                0.07658628               -0.05168390                0.23314681
               8.00000000                3.00000000               59.00000000                0.12425383               -0.10480821               -0.06402656                0.29841203                0.06880936               -0.03605678                0.22340254
               9.00000000                3.00000000               59.00000000                0.17288916               -0.09793496               -0.07954579                0.30236929                0.04480648               -0.01732783                0.21649224
              10.00000000                3.00000000               59.00000000                0.60347677               -0.09237461               -0.10380210                0.30711399                0.01991778               -0.00643235                0.21422766
               0.00000000                4.00000000               59.00000000                0.54692681               -0.07598926               -0.07427200                0.25101710                0.00105001                0.00003515               -0.00828402
               1.00000000                4.00000000               59.00000000                0.04194235               -0.07372784               -0.07806827                0.25596135                0.00563664               -0.00027364               -0.00857801
               2.00000000                4.00000000               59.00000000                0.01000000               -0.04220976               -0.10394219                0.26112841                0.07321216                0.12774501               -0.03993134
               3.00000000                4.00000000               59.00000000                0.01198128               -0.03250119               -0.06844608                0.27631803                0.14292916                0.22084493                0.12168650
               4.00000000                4.00000000               59.00000000                0.02053394               -0.07053148               -0.07053308                0.28926687                0.08232362                0.11522015                0.11520367
               5.00000000                4.00000000               59.00000000                0.04903928               -0.09309270               -0.08650800                0.29676970                0.05318662                0.01506242                0.05839572
               6.00000000                4.00000000               59.00000000                0.08312227               -0.09750787               -0.09470936                0.30177988                0.04268548               -0.01765127                0.06226614
               7.00000000                4.00000000               59.00000000                0.12367650               -0.09787523               -0.09266655                0.30650111                0.04099961               -0.01943413                0.08984742
               8.00000000                4.00000000               59.00000000                0.17181480               -0.09705700               -0.09318539                0.31125838                0.04007529               -0.01524265                0.10895537
               9.00000000                4.00000000               59.00000000                0.22891398               -0.09741248               -0.09676699                0.31623930                0.02920711               -0.00751489                0.12085755
              10.00000000                4.00000000               59.00000000                0.63423725               -0.09861739               -0.08616853                0.32153991                0.01494772               -0.00299941                0.12318218
               0.00000000                5.00000000               59.00000000                0.58462813               -0.07730141               -0.07694411                0.25509917                0.00111819                0.00001189               -0.00759641
               1.00000000                5.00000000               59.00000000                0.09218568               -0.07708365               -0.07763866                0.26022705                0.00519812               -0.00195883               -0.00783588
               2.00000000                5.00000000               59.00000000                0.01000001               -0.03243958               -0.07913392                0.26544052                0.09073240                0.19594712               -0.00835158
               3.00000000                5.00000000               59.00000000                0.02058218               -0.03212883               -0.08551869                0.28693594                0.13322411                0.24885719                0.06126355
               4.00000000                5.00000000               59.00000000                0.04903904               -0.08651148               -0.09309384                0.29677236                0.05318890                0.05837122                0.01506223
               5.00000000                5.00000000               59.00000000                0.08312246               -0.09708257               -0.09708228                0.30308935                0.03680097                0.00846993                0.00846907
               6.00000000                5.00000000               59.00000000                0.12367486               -0.09709734               -0.09871153                0.30883644                0.02931422               -0.00115595                0.02206675
               7.00000000                5.00000000               59.00000000                0.17181923               -0.09647159               -0.10013990                0.31435576                0.02429720               -0.00455062                0.03427857
               8.00000000                5.00000000               59.00000000                0.22892732               -0.09630249               -0.10150227                0.31981378                0.01944872               -0.00449444                0.04372614
               9.00000000                5.00000000               59.00000000                0.29680238               -0.09835089               -0.10005436                0.32531572                0.01160660               -0.00238045                0.04947689
              10.00000000                5.00000000               59.00000000                0.67166272               -0.10023187               -0.08917499                0.33092652                0.00621934               -0.00101551                0.05074634
               0.00000000                6.00000000               59.00000000                0.63210357               -0.07858571               -0.07903391                0.25923513                0.00116245               -0.00001607               -0.00631470
               1.00000000                6.00000000               59.00000000                0.15553698               -0.07886166               -0.07794745                0.26453786                0.00497971               -0.00058309               -0.00643843
               2.00000000                6.00000000               59.00000000                0.02639822               -0.03461107               -0.07804548                0.26995392                0.08289077                0.19590009               -0.00321919
               3.00000000                6.00000000               59.00000000                0.04917108               -0.04048373               -0.09996447                0.29214032                0.09880003                0.24317275               -0.03296307
               4.00000000                6.00000000               59.00000000                0.08312690               -0.09471162               -0.09750481                0.30176659                0.04268947                0.06225004               -0.01764610
               5.00000000                6.00000000               59.00000000                0.12367568               -0.09871382               -0.09709659                0.30883482                0.02931580                0.02206902               -0.00116373
               6.00000000                6.00000000               59.00000000                0.17182701               -0.09853032               -0.09852891                0.31510242                0.02007559                0.00826879                0.00826966
               7.00000000                6.00000000               59.00000000                0.22897276               -0.09799716               -0.10053671                0.32102630                0.01364525                0.00240626                0.01459702
               8.00000000                6.00000000               59.00000000                0.29690098               -0.09827747               -0.10184852                0.32680903                0.00863856                0.00018878                0.01895805
               9.00000000                6.00000000               59.00000000                0.37789240               -0.10021124               -0.10082128                0.33255003                0.00422892               -0.00021465                0.02144809
              10.00000000                6.00000000               59.00000000                0.71641491               -0.10168855               -0.09562208                0.33830663                0.00187044               -0.00017489                0.02202471
               0.00000000                7.00000000               59.00000000                0.69031756               -0.07984341               -0.08053991                0.26345574                0.00113641               -0.00000476               -0.00468496
               1.00000000                7.00000000               59.00000000                0.23385541               -0.08009652               -0.07905409                0.26891355                0.00407701                0.00140200               -0.00463230
               2.00000000                7.00000000               59.00000000                0.05982587               -0.04902445               -0.07967255                0.27458938                0.06921204                0.16852149               -0.00099197
               3.00000000                7.00000000               59.00000000                0.08341494               -0.05180156               -0.10476321                0.29501269                0.07657613                0.23312438               -0.05170017
               4.00000000                7.00000000               59.00000000                0.12367938               -0.09266451               -0.09787388                0.30649534                0.04099424                0.08984001               -0.01944197
               5.00000000                7.00000000               59.00000000                0.17181214               -0.10014030               -0.09647195                0.31435775                0.02429644                0.03427811               -0.00455919
               6.00000000                7.00000000               59.00000000                0.22897341               -0.10053706               -0.09799699                0.32102521                0.01364575                0.01460672                0.00240565
               7.00000000                7.00000000               59.00000000                0.29693134               -0.10014251               -0.10014253                0.32720238                0.00720153                0.00619185                0.00619119
               8.00000000                7.00000000               59.00000000                0.37798420               -0.10053864               -0.10170644                0.33316150                0.00334806                0.00243044                0.00842122
               9.00000000                7.00000000               59.00000000                0.47508706               -0.10208059               -0.10198743                0.33902339                0.00119347                0.00075993                0.00958596
              10.00000000                7.00000000               59.00000000                0.77014312               -0.10315023               -0.10057911                0.34484602                0.00002364                0.00019758                0.00987196
               0.00000000                8.00000000               59.00000000                0.76048139               -0.08109185               -0.08150903                0.26776913                0.00098836                0.00010973               -0.00299549
               1.00000000                8.00000000               59.00000000                0.32957513               -0.08134411               -0.08085213                0.27336280                0.00268719                0.00319190               -0.00272934
               2.00000000                8.00000000               59.00000000                0.10175414               -0.06209148               -0.08223912                0.27930763                0.05434339                0.14801952                0.00021478
               3.00000000                8.00000000               59.00000000                0.12425712               -0.06402546               -0.10480739                0.29841428                0.06880558                0.22338527               -0.03605373
               4.00000000                8.00000000               59.00000000                0.17181333               -0.09318355               -0.09705723                0.31125470                0.04007188                0.10894598               -0.01524848
               5.00000000                8.00000000               59.00000000                0.22893025               -0.10150077               -0.09630326                0.31981581                0.01945053                0.04373686               -0.00449029
               6.00000000                8.00000000               59.00000000                0.29690217               -0.10184839               -0.09827761                0.32680876                0.00864058                0.01896537                0.00018635
               7.00000000                8.00000000               59.00000000                0.37798017               -0.10170683               -0.10053903                0.33316359                0.00334900                0.00842120                0.00242839
               8.00000000                8.00000000               59.00000000                0.47514293               -0.10236145               -0.10236139                0.33922887                0.00085489                0.00359389                0.00359507
               9.00000000                8.00000000               59.00000000                0.59230323               -0.10378802               -0.10355577                0.34515586               -0.00001170                0.00123398                0.00416197
              10.00000000                8.00000000               59.00000000                0.83508741               -0.10466878               -0.10416795                0.35100730               -0.00075496                0.00037488                0.00431031
               0.00000000                9.00000000               59.00000000                0.84410218               -0.08241370               -0.08217153                0.27216561                0.00078890                0.00037248               -0.00142357
               1.00000000                9.00000000               59.00000000                0.44586637               -0.08280191               -0.08286264                0.27788544                0.00142318                0.00455318               -0.00111711
               2.00000000                9.00000000               59.00000000                0.15443686               -0.07424255               -0.08424740                0.28401932                0.04119883                0.13450834                0.00045453
               3.00000000                9.00000000               59.00000000                0.17289791               -0.07954488               -0.09793362                0.30236459                0.04480419                0.21647363               -0.01732771
               4.00000000                9.00000000               59.00000000                0.22892188               -0.09676658               -0.09740910                0.31622759                0.02920634                0.12084381               -0.00750531
               5.00000000                9.00000000               59.00000000                0.29680353               -0.10005362               -0.09834913                0.32530962                0.01160837                0.04947637               -0.00237940
               6.00000000                9.00000000               59.00000000                0.37789302               -0.10082143               -0.10021092                0.33254950                0.00423023                0.02145071               -0.00021929
               7.00000000                9.00000000               59.00000000                0.47508804               -0.10198775               -0.10208073                0.33902390                0.00119399                0.00958889                0.00075651
               8.00000000                9.00000000               59.00000000                0.59230920               -0.10355592               -0.10378820                0.34515629               -0.00001108                0.00416328                0.00123483
               9.00000000                9.00000000               59.00000000                0.73480770               -0.10531357               -0.10531356                0.35112002               -0.00025921                0.00145851                0.00146047
              10.00000000                9.00000000               59.00000000                0.91431833               -0.10621680               -0.10682078                0.35698286               -0.00099909                0.00045750                0.00152225
               0.00000000               10.00000000               59.00000000                0.95169227               -0.08412288               -0.08247326                0.27667694               -0.00019591                0.00046709               -0.00056850
               1.00000000               10.00000000               59.00000000                0.76394028               -0.08622322               -0.08382797                0.28243945                0.00038523                0.00493912               -0.00033387
               2.00000000               10.00000000               59.00000000                0.59568273               -0.10460198               -0.08490162                0.28856516                0.03533311                0.13125815                0.00034935
               3.00000000               10.00000000               59.00000000                0.60347998               -0.10380127               -0.09237216                0.30710526                0.01991705                0.21420613               -0.00643130
               4.00000000               10.00000000               59.00000000                0.63423398               -0.08616933               -0.09861168                0.32152432                0.01494762                0.12316390               -0.00298813
               5.00000000               10.00000000               59.00000000                0.67166688               -0.08917543               -0.10022841                0.33091591                0.00621843                0.05073597               -0.00101740
               6.00000000               10.00000000               59.00000000                0.71641608               -0.09562254               -0.10168786                0.33830473                0.00186991                0.02202541               -0.00017969
               7.00000000               10.00000000               59.00000000                0.77014180               -0.10057917               -0.10314993                0.34484399                0.00002360                0.00987615                0.00019490
               8.00000000               10.00000000               59.00000000                0.83509629               -0.10416780               -0.10466881                0.35100636               -0.00075458                0.00431298                0.00037600
               9.00000000               10.00000000               59.00000000                0.91431868               -0.10682075               -0.10621682                0.35698284               -0.00099887                0.00152075                0.00046019
              10.00000000               10.00000000               59.00000000                0.98311742               -0.10795350               -0.10795347                0.36284855               -0.00192741                0.00047842                0.00048053
               0.00000000                0.00000000               60.00000000                0.75144507               -0.07019712               -0.07019694                0.23511394                0.00178486               -0.00066810               -0.00066762
               1.00000000                0.00000000               60.00000000                0.49731457               -0.06808806               -0.07343180                0.23946724                0.00381729               -0.00363283               -0.00035822
               2.00000000                0.00000000               60.00000000                0.49835864               -0.06776290               -0.07335099                0.24353657                0.00091549               -0.00741701                0.00012498
               3.00000000                0.00000000               60.00000000                0.51837128               -0.07123503               -0.07483557                0.24748137                0.00104888               -0.00873194                0.00005854
               4.00000000                0.00000000               60.00000000                0.54698778               -0.07438273               -0.07607882                0.25137853                0.00103607               -0.00888509                0.00004425
               5.00000000                0.00000000               60.00000000                0.58465266               -0.07701038               -0.07734421                0.25528366                0.00110358               -0.00816781                0.00001480
               6.00000000                0.00000000               60.00000000                0.63209455               -0.07905028               -0.07857720                0.25923672                0.00114709               -0.00681229               -0.00001664
               7.00000000                0.00000000               60.00000000                0.69023273               -0.08050253               -0.07978632                0.26328028                0.00111966               -0.00508699               -0.00000421
               8.00000000                0.00000000               60.00000000                0.76032182               -0.08141333               -0.08098260                0.26741199                0.00096897               -0.00329157                0.00011932
               9.00000000                0.00000000               60.00000000                0.84383802               -0.08201689               -0.08225378                0.27162992                0.00076665               -0.00160030                0.00040002
              10.00000000                0.00000000               60.00000000                0.95151495               -0.08229019               -0.08391235                0.27597398               -0.00022185               -0.00067488                0.00043327
               0.00000000                1.00000000               60.00000000                0.49731143               -0.07343252               -0.06808750                0.23946782                0.00381861               -0.00036093               -0.00363027
               1.00000000                1.00000000               60.00000000                0.01000000               -0.07714065               -0.07714016                0.24384837                0.00916583               -0.00319300               -0.00318723
               2.00000000                1.00000000               60.00000000                0.01000000               -0.08041005               -0.06649421                0.24802944                0.02517942               -0.00717439                0.01421317
               3.00000000                1.00000000               60.00000000                0.01000000               -0.07927109               -0.05806354                0.25212313                0.02730808               -0.00871480                0.03035136
               4.00000000                1.00000000               60.00000000                0.04198560               -0.07815636               -0.07379079                0.25621916                0.00569928               -0.00879480               -0.00011802
               5.00000000                1.00000000               60.00000000                0.09220565               -0.07766885               -0.07710983                0.26033634                0.00525082               -0.00802281               -0.00192301
               6.00000000                1.00000000               60.00000000                0.15551712               -0.07792395               -0.07884236                0.26448983                0.00503241               -0.00658646               -0.00053741
               7.00000000                1.00000000               60.00000000                0.23376327               -0.07898114               -0.08003300                0.26871130                0.00411765               -0.00473335                0.00152377
               8.00000000                1.00000000               60.00000000                0.32939293               -0.08073238               -0.08123042                0.27299588                0.00271260               -0.00276595                0.00338873
               9.00000000                1.00000000               60.00000000                0.44552890               -0.08269867               -0.08263872                0.27735430                0.00143430               -0.00109841                0.00479654
              10.00000000                1.00000000               60.00000000                0.76371467               -0.08364279               -0.08601439                0.28174557                0.00038863               -0.00029356                0.00509732
               0.00000000                2.00000000               60.00000000                0.49836495               -0.07335402               -0.06776322                0.24354006                0.00091647                0.00012389               -0.00741730
               1.00000000                2.00000000               60.00000000                0.01000000               -0.06649604               -0.08041059                0.24803365                0.02517928                0.01420913               -0.00717102
               2.00000000                2.00000000               60.00000000                0.01000001               -0.07235965               -0.07236067                0.25361050                0.07440586                0.02619124                0.02620343
               3.00000000                2.00000000               60.00000000                0.01000000               -0.10635544               -0.04753607                0.25918581                0.07168956               -0.02292632                0.06918115
               4.00000000                2.00000000               60.00000000                0.01000000               -0.10415667               -0.04211593                0.26144449                0.07369191               -0.04102195                0.13302120
               5.00000000                2.00000000               60.00000000                0.01000001               -0.07913847               -0.03230732                0.26551405                0.09126518               -0.00833511                0.20419517
               6.00000000                2.00000000               60.00000000                0.02640198               -0.07799338               -0.03443241                0.26985054                0.08334750               -0.00300421                0.20449941
               7.00000000                2.00000000               60.00000000                0.05982344               -0.07958877               -0.04884577                0.27438762                0.06957602               -0.00070684                0.17621032
               8.00000000                2.00000000               60.00000000                0.10174378               -0.08211960               -0.06189992                0.27894307                0.05460891                0.00049484                0.15506638
               9.00000000                2.00000000               60.00000000                0.15439100               -0.08408877               -0.07402633                0.28350161                0.04135843                0.00064182                0.14118037
              10.00000000                2.00000000               60.00000000                0.59564696               -0.08472236               -0.10438823                0.28787986                0.03539074                0.00045066                0.13797105
               0.00000000                3.00000000               60.00000000                0.51835248               -0.07483977               -0.07123694                0.24748834                0.00104916                0.00005813               -0.00873462
               1.00000000                3.00000000               60.00000000                0.01000000               -0.05806902               -0.07927300                0.25213085                0.02730808                0.03035476               -0.00871552
               2.00000000                3.00000000               60.00000000                0.01000000               -0.04753580               -0.10634968                0.25919084                0.07169145                0.06917732               -0.02295662
               3.00000000                3.00000000               60.00000000                0.01000000               -0.05805483               -0.05807448                0.26694107                0.11511170                0.09828056                0.09825690
               4.00000000                3.00000000               60.00000000                0.01198537               -0.06842770               -0.03237906                0.27647178                0.14365824                0.12654720                0.22949916
               5.00000000                3.00000000               60.00000000                0.02058007               -0.08556433               -0.03200382                0.28716916                0.13389197                0.06384589                0.25886346
               6.00000000                3.00000000               60.00000000                0.04917903               -0.10004006               -0.04036878                0.29232411                0.09932751               -0.03415460                0.25326446
               7.00000000                3.00000000               60.00000000                0.08343144               -0.10481629               -0.05168706                0.29507730                0.07695852               -0.05374760                0.24328035
               8.00000000                3.00000000               60.00000000                0.12428031               -0.10483916               -0.06390522                0.29840484                0.06910238               -0.03741266                0.23362559
               9.00000000                3.00000000               60.00000000                0.17293952               -0.09794394               -0.07940827                0.30226229                0.04497599               -0.01790609                0.22691952
              10.00000000                3.00000000               60.00000000                0.60350245               -0.09237162               -0.10365610                0.30690450                0.01994609               -0.00660652                0.22540830
               0.00000000                4.00000000               60.00000000                0.54698564               -0.07608210               -0.07438444                0.25138471                0.00103545                0.00004388               -0.00888729
               1.00000000                4.00000000               60.00000000                0.04198085               -0.07379179               -0.07815814                0.25622627                0.00570833               -0.00016370               -0.00879517
               2.00000000                4.00000000               60.00000000                0.01000000               -0.04213722               -0.10415315                0.26145444                0.07368232                0.13296456               -0.04101101
               3.00000000                4.00000000               60.00000000                0.01197989               -0.03238317               -0.06843686                0.27652143                0.14366615                0.22952245                0.12656888
               4.00000000                4.00000000               60.00000000                0.02052913               -0.07053186               -0.07055490                0.28954081                0.08267840                0.11986083                0.11981990
               5.00000000                4.00000000               60.00000000                0.04904621               -0.09316322               -0.08656815                0.29699080                0.05340483                0.01577294                0.06068674
               6.00000000                4.00000000               60.00000000                0.08312865               -0.09758572               -0.09481066                0.30198514                0.04286704               -0.01832311                0.06470019
               7.00000000                4.00000000               60.00000000                0.12369113               -0.09793820               -0.09274514                0.30669113                0.04114297               -0.02019306                0.09361116
               8.00000000                4.00000000               60.00000000                0.17183629               -0.09710425               -0.09324372                0.31141312                0.04019639               -0.01583890                0.11377964
               9.00000000                4.00000000               60.00000000                0.22895051               -0.09744973               -0.09680685                0.31636854                0.02928952               -0.00780839                0.12656543
              10.00000000                4.00000000               60.00000000                0.63425493               -0.09865202               -0.08616104                0.32164190                0.01498003               -0.00309805                0.12961544
               0.00000000                5.00000000               60.00000000                0.58464450               -0.07734562               -0.07701105                0.25528494                0.00110295                0.00001497               -0.00817381
               1.00000000                5.00000000               60.00000000                0.09220963               -0.07711052               -0.07766943                0.26033870                0.00525695               -0.00189587               -0.00802719
               2.00000000                5.00000000               60.00000000                0.01000001               -0.03229737               -0.07914750                0.26553716                0.09125845                0.20421283               -0.00828064
               3.00000000                5.00000000               60.00000000                0.02058476               -0.03200071               -0.08554708                0.28714862                0.13390396                0.25882239                0.06385811
               4.00000000                5.00000000               60.00000000                0.04904322               -0.08657564               -0.09316942                0.29699457                0.05341620                0.06066053                0.01576155
               5.00000000                5.00000000               60.00000000                0.08313172               -0.09717286               -0.09717195                0.30332139                0.03693405                0.00876427                0.00875201
               6.00000000                5.00000000               60.00000000                0.12368698               -0.09718215               -0.09881237                0.30908764                0.02941742               -0.00124530                0.02288633
               7.00000000                5.00000000               60.00000000                0.17182797               -0.09654554               -0.10024144                0.31459762                0.02438052               -0.00476828                0.03565165
               8.00000000                5.00000000               60.00000000                0.22895511               -0.09636737               -0.10160025                0.32005037                0.01951337               -0.00469401                0.04563718
               9.00000000                5.00000000               60.00000000                0.29684749               -0.09841294               -0.10014858                0.32554972                0.01164465               -0.00250348                0.05183609
              10.00000000                5.00000000               60.00000000                0.67168956               -0.10029447               -0.08924858                0.33116338                0.00622918               -0.00106646                0.05347876
               0.00000000                6.00000000               60.00000000                0.63209031               -0.07857737               -0.07904947                0.25923437                0.00114606               -0.00001567               -0.00681536
               1.00000000                6.00000000               60.00000000                0.15551481               -0.07884301               -0.07792308                0.26448896                0.00503330               -0.00052092               -0.00658852
               2.00000000                6.00000000               60.00000000                0.02640231               -0.03443836               -0.07799807                0.26987515                0.08335297                0.20445568               -0.00303508
               3.00000000                6.00000000               60.00000000                0.04917441               -0.04036736               -0.10003521                0.29230470                0.09931738                0.25322549               -0.03418191
               4.00000000                6.00000000               60.00000000                0.08312729               -0.09480324               -0.09758774                0.30200008                0.04286210                0.06472793               -0.01832334
               5.00000000                6.00000000               60.00000000                0.12368634               -0.09881031               -0.09718282                0.30908694                0.02941604                0.02290155               -0.00124361
               6.00000000                6.00000000               60.00000000                0.17184284               -0.09862084               -0.09862218                0.31536499                0.02014614                0.00854737                0.00854210
               7.00000000                6.00000000               60.00000000                0.22900059               -0.09808185               -0.10063470                0.32129733                0.01369951                0.00246562                0.01517737
               8.00000000                6.00000000               60.00000000                0.29695077               -0.09835798               -0.10195070                0.32708714                0.00867607                0.00016515                0.01979021
               9.00000000                6.00000000               60.00000000                0.37796253               -0.10029193               -0.10092536                0.33283751                0.00424922               -0.00025554                0.02249154
              10.00000000                6.00000000               60.00000000                0.71646140               -0.10177072               -0.09572290                0.33861235                0.00187235               -0.00019784                0.02323946
               0.00000000                7.00000000               60.00000000                0.69023986               -0.07978337               -0.08050063                0.26327278                0.00111921               -0.00000390               -0.00508345
               1.00000000                7.00000000               60.00000000                0.23376134               -0.08003109               -0.07897931                0.26870499                0.00411776                0.00151627               -0.00472872
               2.00000000                7.00000000               60.00000000                0.05982450               -0.04884721               -0.07958686                0.27438359                0.06957499                0.17619267               -0.00071769
               3.00000000                7.00000000               60.00000000                0.08343353               -0.05168632               -0.10482506                0.29508019                0.07696589                0.24326916               -0.05371285
               4.00000000                7.00000000               60.00000000                0.12369087               -0.09274255               -0.09794192                0.30669317                0.04114533                0.09361794               -0.02018356
               5.00000000                7.00000000               60.00000000                0.17183377               -0.10024135               -0.09654736                0.31460477                0.02438050                0.03566267               -0.00476257
               6.00000000                7.00000000               60.00000000                0.22900056               -0.10063399               -0.09808110                0.32129340                0.01369857                0.01517509                0.00246412
               7.00000000                7.00000000               60.00000000                0.29697926               -0.10023655               -0.10023673                0.32749585                0.00723881                0.00643002                0.00643109
               8.00000000                7.00000000               60.00000000                0.37805923               -0.10063195               -0.10180867                0.33347105                0.00337322                0.00251300                0.00879489
               9.00000000                7.00000000               60.00000000                0.47520521               -0.10217645               -0.10209595                0.33935085                0.00120641                0.00077587                0.01007119
              10.00000000                7.00000000               60.00000000                0.77020957               -0.10324876               -0.10069169                0.34519915                0.00002239                0.00020018                0.01043185
               0.00000000                8.00000000               60.00000000                0.76033134               -0.08098078               -0.08141211                0.26740655                0.00096937                0.00011881               -0.00329005
               1.00000000                8.00000000               60.00000000                0.32940095               -0.08122902               -0.08073138                0.27299197                0.00271217                0.00338707               -0.00276244
               2.00000000                8.00000000               60.00000000                0.10174741               -0.06189730               -0.08211870                0.27894320                0.05460200                0.15505164                0.00050842
               3.00000000                8.00000000               60.00000000                0.12428260               -0.06390348               -0.10484093                0.29839834                0.06909717                0.23360096               -0.03741127
               4.00000000                8.00000000               60.00000000                0.17183560               -0.09324532               -0.09710803                0.31142602                0.04019896                0.11377569               -0.01583667
               5.00000000                8.00000000               60.00000000                0.22896074               -0.10160114               -0.09636813                0.32005309                0.01951727                0.04564081               -0.00470056
               6.00000000                8.00000000               60.00000000                0.29694998               -0.10195004               -0.09835719                0.32708417                0.00867756                0.01978941                0.00016167
               7.00000000                8.00000000               60.00000000                0.37805873               -0.10180800               -0.10063143                0.33346931                0.00337188                0.00879540                0.00251222
               8.00000000                8.00000000               60.00000000                0.47526252               -0.10246456               -0.10246497                0.33956219                0.00086930                0.00375841                0.00375871
               9.00000000                8.00000000               60.00000000                0.59249427               -0.10389635               -0.10366869                0.34551698               -0.00000491                0.00129287                0.00438553
              10.00000000                8.00000000               60.00000000                0.83521201               -0.10478076               -0.10428777                0.35139672               -0.00075733                0.00039613                0.00456259
               0.00000000                9.00000000               60.00000000                0.84384487               -0.08225226               -0.08201575                0.27162469                0.00076635                0.00040031               -0.00160304
               1.00000000                9.00000000               60.00000000                0.44553938               -0.08263755               -0.08269793                0.27735080                0.00143438                0.00479787               -0.00109943
               2.00000000                9.00000000               60.00000000                0.15439795               -0.07402730               -0.08408895                0.28350130                0.04135403                0.14115802                0.00064564
               3.00000000                9.00000000               60.00000000                0.17294033               -0.07940755               -0.09793814                0.30224655                0.04496548                0.22688550               -0.01791422
               4.00000000                9.00000000               60.00000000                0.22895401               -0.09680391               -0.09744719                0.31636015                0.02928912                0.12655768               -0.00781201
               5.00000000                9.00000000               60.00000000                0.29685019               -0.10014821               -0.09841210                0.32554728                0.01165025                0.05184049               -0.00250856
               6.00000000                9.00000000               60.00000000                0.37796379               -0.10092631               -0.10029236                0.33283953                0.00425078                0.02249416               -0.00025637
               7.00000000                9.00000000               60.00000000                0.47520586               -0.10209590               -0.10217673                0.33935196                0.00120495                0.01007207                0.00077457
               8.00000000                9.00000000               60.00000000                0.59249957               -0.10366758               -0.10389601                0.34551439               -0.00000611                0.00438530                0.00129246
               9.00000000                9.00000000               60.00000000                0.73511049               -0.10543063               -0.10543107                0.35150608               -0.00025749                0.00154272                0.00154301
              10.00000000                9.00000000               60.00000000                0.91450560               -0.10633724               -0.10694652                0.35739745               -0.00100227                0.00048766                0.00161374
               0.00000000               10.00000000               60.00000000                0.95151676               -0.08390912               -0.08228831                0.27596509               -0.00022304                0.00043435               -0.00067904
               1.00000000               10.00000000               60.00000000                0.76371284               -0.08601213               -0.08364146                0.28173853                0.00038850                0.00509855               -0.00029655
               2.00000000               10.00000000               60.00000000                0.59564997               -0.10439055               -0.08472222                0.28787677                0.03539103                0.13794653                0.00045027
               3.00000000               10.00000000               60.00000000                0.60350606               -0.10365720               -0.09236290                0.30688600                0.01994204                0.22537101               -0.00661067
               4.00000000               10.00000000               60.00000000                0.63425617               -0.08615739               -0.09864473                0.32162023                0.01497620                0.12960447               -0.00310413
               5.00000000               10.00000000               60.00000000                0.67168800               -0.08924744               -0.10029303                0.33115874                0.00622960                0.05348348               -0.00106963
               6.00000000               10.00000000               60.00000000                0.71645984               -0.09572423               -0.10177188                0.33861588                0.00187252                0.02324190               -0.00019742
               7.00000000               10.00000000               60.00000000                0.77021367               -0.10069173               -0.10324953                0.34520060                0.00002221                0.01043151                0.00019868
               8.00000000               10.00000000               60.00000000                0.83521577               -0.10428616               -0.10477991                0.35139255               -0.00075773                0.00456239                0.00039541
               9.00000000               10.00000000               60.00000000                0.91450514               -0.10694519               -0.10633692                0.35739441               -0.00100298                0.00161346                0.00048790
              10.00000000               10.00000000               60.00000000                0.98323049               -0.10808158               -0.10808231                0.36328818               -0.00193588                0.00051031                0.00051054
               0.00000000                0.00000000               61.00000000                0.75161715               -0.07050289               -0.07050229                0.23621543                0.00173059               -0.00069879               -0.00069859
               1.00000000                0.00000000               61.00000000                0.49753503               -0.06836850               -0.07368588                0.24039907                0.00379917               -0.00382438               -0.00036443
               2.00000000                0.00000000               61.00000000                0.49846402               -0.06799470               -0.07355336                0.24429669                0.00089833               -0.00787946                0.00015973
               3.00000000                0.00000000               61.00000000                0.51844250               -0.07141587               -0.07498667                0.24805716                0.00103017               -0.00932308                0.00007995
               4.00000000                0.00000000               61.00000000                0.54705725               -0.07450550               -0.07617569                0.25176108                0.00101648               -0.00951405                0.00005618
               5.00000000                0.00000000               61.00000000                0.58467503               -0.07707333               -0.07738693                0.25547275                0.00108420               -0.00877612                0.00001916
               6.00000000                0.00000000               61.00000000                0.63206570               -0.07905361               -0.07856914                0.25923751                0.00112611               -0.00734067               -0.00001617
               7.00000000                0.00000000               61.00000000                0.69017567               -0.08044713               -0.07972205                0.26308520                0.00109826               -0.00550231               -0.00000416
               8.00000000                0.00000000               61.00000000                0.76016363               -0.08130253               -0.08086859                0.26703556                0.00094776               -0.00360493                0.00012668
               9.00000000                0.00000000               61.00000000                0.84357281               -0.08184984               -0.08208594                0.27106550                0.00074157               -0.00179731                0.00042845
              10.00000000                0.00000000               61.00000000                0.95133725               -0.08209373               -0.08368282                0.27522159               -0.00025320               -0.00079760                0.00039367
               0.00000000                1.00000000               61.00000000                0.49753991               -0.07368465               -0.06836699                0.24039481                0.00379691               -0.00036602               -0.00382205
               1.00000000                1.00000000               61.00000000                0.01000000               -0.07737370               -0.07737336                0.24460680                0.00918264               -0.00329695               -0.00329220
               2.00000000                1.00000000               61.00000000                0.01000000               -0.08059890               -0.06669947                0.24863100                0.02517930               -0.00737382                0.01478571
               3.00000000                1.00000000               61.00000000                0.01000000               -0.07940887               -0.05824579                0.25256325                0.02730132               -0.00892504                0.03158424
               4.00000000                1.00000000               61.00000000                0.04204648               -0.07824321               -0.07388015                0.25649523                0.00571710               -0.00897971                0.00010055
               5.00000000                1.00000000               61.00000000                0.09222933               -0.07770716               -0.07714234                0.26044917                0.00526660               -0.00818916               -0.00184114
               6.00000000                1.00000000               61.00000000                0.15548915               -0.07791279               -0.07882811                0.26444204                0.00504154               -0.00671538               -0.00047027
               7.00000000                1.00000000               61.00000000                0.23367639               -0.07891815               -0.07996653                0.26849003                0.00412795               -0.00480690                0.00164759
               8.00000000                1.00000000               61.00000000                0.32919949               -0.08061839               -0.08111603                0.27261238                0.00272021               -0.00278595                0.00358606
               9.00000000                1.00000000               61.00000000                0.44517505               -0.08253279               -0.08247201                0.27679916                0.00143769               -0.00107433                0.00504757
              10.00000000                1.00000000               61.00000000                0.76348022               -0.08345013               -0.08577953                0.28100814                0.00038174               -0.00024968                0.00525271
               0.00000000                2.00000000               61.00000000                0.49848622               -0.07354821               -0.06799240                0.24428584                0.00089716                0.00015904               -0.00787409
               1.00000000                2.00000000               61.00000000                0.01000000               -0.06669744               -0.08059665                0.24862078                0.02517805                0.01478190               -0.00736570
               2.00000000                2.00000000               61.00000000                0.01000001               -0.07252980               -0.07252137                0.25407799                0.07434506                0.02719163                0.02719396
               3.00000000                2.00000000               61.00000000                0.01000000               -0.10643251               -0.04771738                0.25952444                0.07164193               -0.02353508                0.07172355
               4.00000000                2.00000000               61.00000000                0.01000000               -0.10418411               -0.04228510                0.26165741                0.07362632               -0.04202404                0.13825267
               5.00000000                2.00000000               61.00000000                0.01000001               -0.07915875               -0.03249205                0.26560370                0.09111363               -0.00828562                0.21263162
               6.00000000                2.00000000               61.00000000                0.02639672               -0.07797167               -0.03460382                0.26978275                0.08318690               -0.00277174                0.21320279
               7.00000000                2.00000000               61.00000000                0.05982377               -0.07951776               -0.04892041                0.27414629                0.06941241               -0.00038531                0.18403772
               8.00000000                2.00000000               61.00000000                0.10173356               -0.08201043               -0.06187192                0.27856919                0.05444149                0.00082450                0.16228961
               9.00000000                2.00000000               61.00000000                0.15434288               -0.08393833               -0.07389958                0.28297279                0.04118496                0.00086092                0.14804337
              10.00000000                2.00000000               61.00000000                0.59561399               -0.08454936               -0.10402855                0.28716963                0.03514442                0.00056735                0.14489881
               0.00000000                3.00000000               61.00000000                0.51844947               -0.07498406               -0.07141490                0.24805293                0.00103127                0.00007853               -0.00932139
               1.00000000                3.00000000               61.00000000                0.01000000               -0.05824426               -0.07940794                0.25255982                0.02730620                0.03157538               -0.00892152
               2.00000000                3.00000000               61.00000000                0.01000000               -0.04772624               -0.10644168                0.25951642                0.07164321                0.07172196               -0.02350951
               3.00000000                3.00000000               61.00000000                0.01000000               -0.05820766               -0.05820589                0.26719371                0.11495970                0.10185556                0.10188012
               4.00000000                3.00000000               61.00000000                0.01198452               -0.06853367               -0.03259450                0.27664190                0.14338075                0.13149175                0.23826439
               5.00000000                3.00000000               61.00000000                0.02058633               -0.08559624               -0.03224787                0.28739058                0.13356069                0.06652939                0.26891583
               6.00000000                3.00000000               61.00000000                0.04918598               -0.10000647               -0.04057948                0.29245533                0.09907525               -0.03542154                0.26344608
               7.00000000                3.00000000               61.00000000                0.08344718               -0.10474596               -0.05183773                0.29513908                0.07674736               -0.05576490                0.25358672
               8.00000000                3.00000000               61.00000000                0.12431522               -0.10474527               -0.06397238                0.29837884                0.06883525               -0.03876220                0.24406683
               9.00000000                3.00000000               61.00000000                0.17298963               -0.09788524               -0.07935709                0.30214068                0.04476622               -0.01848850                0.23763003
              10.00000000                3.00000000               61.00000000                0.60353815               -0.09235137               -0.10341914                0.30668349                0.01978874               -0.00678111                0.23700050
               0.00000000                4.00000000               61.00000000                0.54706174               -0.07617418               -0.07450584                0.25175956                0.00101684                0.00005510               -0.00951893
               1.00000000                4.00000000               61.00000000                0.04205035               -0.07388460               -0.07824383                0.25649440                0.00570580                0.00012771               -0.00898264
               2.00000000                4.00000000               61.00000000                0.01000000               -0.04229531               -0.10419298                0.26174548                0.07362673                0.13827244               -0.04200086
               3.00000000                4.00000000               61.00000000                0.01198415               -0.03259547               -0.06853861                0.27674224                0.14341591                0.23828191                0.13151550
               4.00000000                4.00000000               61.00000000                0.02053530               -0.07067202               -0.07068223                0.28986084                0.08242432                0.12454045                0.12454557
               5.00000000                4.00000000               61.00000000                0.04904696               -0.09322041               -0.08666077                0.29723350                0.05320738                0.01634782                0.06292296
               6.00000000                4.00000000               61.00000000                0.08313164               -0.09761503               -0.09486544                0.30222599                0.04270336               -0.01900501                0.06718852
               7.00000000                4.00000000               61.00000000                0.12370319               -0.09795628               -0.09281391                0.30688300                0.04096678               -0.02095679                0.09744071
               8.00000000                4.00000000               61.00000000                0.17185742               -0.09712067               -0.09330819                0.31157618                0.03999700               -0.01643193                0.11868982
               9.00000000                4.00000000               61.00000000                0.22899423               -0.09745607               -0.09683384                0.31648609                0.02912881               -0.00811083                0.13241603
              10.00000000                4.00000000               61.00000000                0.63427814               -0.09864542               -0.08624949                0.32172140                0.01486967               -0.00320582                0.13628428
               0.00000000                5.00000000               61.00000000                0.58467919               -0.07738593               -0.07707372                0.25547105                0.00108448                0.00001870               -0.00878129
               1.00000000                5.00000000               61.00000000                0.09224810               -0.07714094               -0.07770759                0.26044794                0.00526400               -0.00180913               -0.00819242
               2.00000000                5.00000000               61.00000000                0.01000001               -0.03248129               -0.07914507                0.26554600                0.09112184                0.21262359               -0.00830939
               3.00000000                5.00000000               61.00000000                0.02058858               -0.03224611               -0.08559982                0.28737551                0.13358043                0.26886814                0.06650003
               4.00000000                5.00000000               61.00000000                0.04904505               -0.08667221               -0.09322855                0.29726089                0.05321389                0.06292279                0.01635019
               5.00000000                5.00000000               61.00000000                0.08313525               -0.09721897               -0.09721926                0.30357547                0.03677617                0.00903657                0.00903276
               6.00000000                5.00000000               61.00000000                0.12369840               -0.09723160               -0.09886361                0.30933640                0.02929430               -0.00132245                0.02370377
               7.00000000                5.00000000               61.00000000                0.17184905               -0.09660522               -0.10029993                0.31485543                0.02428000               -0.00498177                0.03704824
               8.00000000                5.00000000               61.00000000                0.22898650               -0.09642882               -0.10166262                0.32029341                0.01942817               -0.00492176                0.04757031
               9.00000000                5.00000000               61.00000000                0.29689076               -0.09846321               -0.10023394                0.32578387                0.01159423               -0.00264651                0.05424796
              10.00000000                5.00000000               61.00000000                0.67171438               -0.10033514               -0.08942303                0.33140283                0.00617504               -0.00112570                0.05631387
               0.00000000                6.00000000               61.00000000                0.63206283               -0.07856863               -0.07905468                0.25923781                0.00112682               -0.00001558               -0.00734580
               1.00000000                6.00000000               61.00000000                0.15549436               -0.07882753               -0.07791382                0.26444303                0.00504456               -0.00045278               -0.00671893
               2.00000000                6.00000000               61.00000000                0.02640328               -0.03459578               -0.07796920                0.26978221                0.08318272                0.21319193               -0.00280044
               3.00000000                6.00000000               61.00000000                0.04918448               -0.04057655               -0.10001457                0.29250330                0.09906374                0.26343499               -0.03543572
               4.00000000                6.00000000               61.00000000                0.08313837               -0.09487124               -0.09761767                0.30223763                0.04270212                0.06719371               -0.01900765
               5.00000000                6.00000000               61.00000000                0.12369678               -0.09886516               -0.09723502                0.30934528                0.02929671                0.02369467               -0.00132828
               6.00000000                6.00000000               61.00000000                0.17186390               -0.09868167               -0.09868167                0.31562733                0.02006190                0.00881680                0.00881382
               7.00000000                6.00000000               61.00000000                0.22903129               -0.09815415               -0.10070359                0.32157673                0.01364619                0.00250654                0.01573737
               8.00000000                6.00000000               61.00000000                0.29699234               -0.09843701               -0.10202982                0.32737444                0.00864964                0.00011669                0.02061609
               9.00000000                6.00000000               61.00000000                0.37803511               -0.10036906               -0.10103227                0.33313770                0.00423851               -0.00030338                0.02355436
              10.00000000                6.00000000               61.00000000                0.71650101               -0.10184489               -0.09588884                0.33893569                0.00184927               -0.00022025                0.02449436
               0.00000000                7.00000000               61.00000000                0.69016158               -0.07972304               -0.08044792                0.26308693                0.00109812               -0.00000282               -0.00550489
               1.00000000                7.00000000               61.00000000                0.23367395               -0.07996713               -0.07891885                0.26849296                0.00412960                0.00165326               -0.00480827
               2.00000000                7.00000000               61.00000000                0.05982712               -0.04891513               -0.07952179                0.27415691                0.06940827                0.18402830               -0.00040285
               3.00000000                7.00000000               61.00000000                0.08345007               -0.05183555               -0.10474603                0.29514098                0.07673468                0.25357136               -0.05576766
               4.00000000                7.00000000               61.00000000                0.12370488               -0.09281768               -0.09795584                0.30689177                0.04096686                0.09743511               -0.02096862
               5.00000000                7.00000000               61.00000000                0.17184833               -0.10029973               -0.09660360                0.31485022                0.02427959                0.03704321               -0.00498835
               6.00000000                7.00000000               61.00000000                0.22902688               -0.10070269               -0.09815446                0.32157719                0.01364647                0.01574058                0.00250388
               7.00000000                7.00000000               61.00000000                0.29703142               -0.10031703               -0.10031706                0.32779206                0.00721842                0.00665318                0.00664886
               8.00000000                7.00000000               61.00000000                0.37814145               -0.10072068               -0.10190033                0.33378352                0.00337284                0.00258363                0.00916603
               9.00000000                7.00000000               61.00000000                0.47533479               -0.10227006               -0.10220825                0.33968623                0.00121035                0.00078771                0.01056199
              10.00000000                7.00000000               61.00000000                0.77029025               -0.10334357               -0.10083657                0.34556286                0.00001399                0.00020116                0.01099963
               0.00000000                8.00000000               61.00000000                0.76017119               -0.08086669               -0.08130084                0.26702957                0.00094727                0.00012697               -0.00360373
               1.00000000                8.00000000               61.00000000                0.32919318               -0.08111520               -0.08061690                0.27260796                0.00272086                0.00358266               -0.00278315
               2.00000000                8.00000000               61.00000000                0.10173210               -0.06187365               -0.08201113                0.27857423                0.05444018                0.16227234                0.00082193
               3.00000000                8.00000000               61.00000000                0.12431630               -0.06397139               -0.10474409                0.29837881                0.06883025                0.24405447               -0.03876598
               4.00000000                8.00000000               61.00000000                0.17186205               -0.09330575               -0.09711867                0.31157407                0.03999675                0.11868369               -0.01643922
               5.00000000                8.00000000               61.00000000                0.22898677               -0.10166261               -0.09642748                0.32029075                0.01942692                0.04756554               -0.00492432
               6.00000000                8.00000000               61.00000000                0.29699607               -0.10202916               -0.09843660                0.32737314                0.00864803                0.02061919                0.00011925
               7.00000000                8.00000000               61.00000000                0.37814034               -0.10189940               -0.10072017                0.33378080                0.00337190                0.00916783                0.00258304
               8.00000000                8.00000000               61.00000000                0.47539718               -0.10256478               -0.10256513                0.33989960                0.00087953                0.00391924                0.00391840
               9.00000000                8.00000000               61.00000000                0.59270815               -0.10400331               -0.10378368                0.34588018                0.00000364                0.00134673                0.00460705
              10.00000000                8.00000000               61.00000000                0.83534379               -0.10489046               -0.10441990                0.35178907               -0.00076015                0.00041471                0.00481231
               0.00000000                9.00000000               61.00000000                0.84357053               -0.08208441               -0.08184760                0.27105921                0.00074209                0.00042821               -0.00179799
               1.00000000                9.00000000               61.00000000                0.44517968               -0.08247097               -0.08253110                0.27679464                0.00143594                0.00504607               -0.00107292
               2.00000000                9.00000000               61.00000000                0.15435725               -0.07389859               -0.08393759                0.28297254                0.04118078                0.14801844                0.00086774
               3.00000000                9.00000000               61.00000000                0.17298403               -0.07935741               -0.09788520                0.30213641                0.04477020                0.23760262               -0.01848963
               4.00000000                9.00000000               61.00000000                0.22898831               -0.09683487               -0.09745728                0.31649338                0.02912956                0.13241218               -0.00812154
               5.00000000                9.00000000               61.00000000                0.29689159               -0.10023312               -0.09846394                0.32578557                0.01159189                0.05425305               -0.00264862
               6.00000000                9.00000000               61.00000000                0.37804063               -0.10103104               -0.10036877                0.33313635                0.00423811                0.02355839               -0.00030217
               7.00000000                9.00000000               61.00000000                0.47533447               -0.10220733               -0.10226983                0.33968512                0.00120965                0.01056058                0.00078739
               8.00000000                9.00000000               61.00000000                0.59271258               -0.10378276               -0.10400290                0.34587801                0.00000254                0.00460623                0.00134588
               9.00000000                9.00000000               61.00000000                0.73544086               -0.10555077               -0.10555105                0.35190006               -0.00025089                0.00162321                0.00162254
              10.00000000                9.00000000               61.00000000                0.91471096               -0.10646028               -0.10707813                0.35782282               -0.00100484                0.00051614                0.00170254
               0.00000000               10.00000000               61.00000000                0.95133973               -0.08368366               -0.08209245                0.27521970               -0.00025248                0.00039309               -0.00080004
               1.00000000               10.00000000               61.00000000                0.76347921               -0.08577924               -0.08344942                0.28100732                0.00037955                0.00525270               -0.00024991
               2.00000000               10.00000000               61.00000000                0.59561327               -0.10402508               -0.08454849                0.28716543                0.03514062                0.14487080                0.00057265
               3.00000000               10.00000000               61.00000000                0.60353711               -0.10341984               -0.09234951                0.30667603                0.01978972                0.23696343               -0.00678526
               4.00000000               10.00000000               61.00000000                0.63428018               -0.08625311               -0.09864959                0.32173335                0.01486957                0.13628007               -0.00321733
               5.00000000               10.00000000               61.00000000                0.67172023               -0.08942182               -0.10033647                0.33140478                0.00617527                0.05632361               -0.00112897
               6.00000000               10.00000000               61.00000000                0.71650597               -0.09588711               -0.10184469                0.33893417                0.00184967                0.02449851               -0.00021968
               7.00000000               10.00000000               61.00000000                0.77029229               -0.10083578               -0.10334391                0.34556362                0.00001384                0.01099695                0.00020138
               8.00000000               10.00000000               61.00000000                0.83533781               -0.10441877               -0.10488983                0.35178630               -0.00076075                0.00481004                0.00041393
               9.00000000               10.00000000               61.00000000                0.91471248               -0.10707713               -0.10646001                0.35782047               -0.00100545                0.00170184                0.00051521
              10.00000000               10.00000000               61.00000000                0.98335623               -0.10821583               -0.10821642                0.36374693               -0.00194538                0.00054007                0.00054059
               0.00000000                0.00000000               62.00000000                0.75180016               -0.07082719               -0.07082697                0.23735706                0.00167043               -0.00072700               -0.00072887
               1.00000000                0.00000000               62.00000000                0.49778471               -0.06868946               -0.07393908                0.24135895                0.00375073               -0.00401469               -0.00036991
               2.00000000                0.00000000               62.00000000                0.49858872               -0.06827748               -0.07376181                0.24507671                0.00087728               -0.00834849                0.00019691
               3.00000000                0.00000000               62.00000000                0.51854887               -0.07162601               -0.07514136                0.24865084                0.00100800               -0.00993845                0.00010082
               4.00000000                0.00000000               62.00000000                0.54711086               -0.07463938               -0.07627644                0.25215974                0.00099371               -0.01017998                0.00006750
               5.00000000                0.00000000               62.00000000                0.58470941               -0.07713293               -0.07743365                0.25567435                0.00106001               -0.00940634                0.00002292
               6.00000000                0.00000000               62.00000000                0.63205874               -0.07904462               -0.07856124                0.25924110                0.00109997               -0.00789385               -0.00001825
               7.00000000                0.00000000               62.00000000                0.69007907               -0.08037469               -0.07965831                0.26288948                0.00107047               -0.00595005               -0.00000346
               8.00000000                0.00000000               62.00000000                0.76000663               -0.08117243               -0.08074674                0.26663793                0.00092181               -0.00393646                0.00013599
               9.00000000                0.00000000               62.00000000                0.84326022               -0.08166876               -0.08191090                0.27047654                0.00071707               -0.00200890                0.00045900
              10.00000000                0.00000000               62.00000000                0.95114683               -0.08188872               -0.08344826                0.27445069               -0.00028218               -0.00093851                0.00034813
               0.00000000                1.00000000               62.00000000                0.49776848               -0.07393898               -0.06868868                0.24135756                0.00375061               -0.00036756               -0.00401791
               1.00000000                1.00000000               62.00000000                0.01000000               -0.07758058               -0.07758037                0.24538906                0.00912044               -0.00338926               -0.00339305
               2.00000000                1.00000000               62.00000000                0.01000000               -0.08074244               -0.06697091                0.24924503                0.02497044               -0.00754294                0.01538035
               3.00000000                1.00000000               62.00000000                0.01000000               -0.07952247               -0.05856895                0.25301523                0.02705392               -0.00910530                0.03283754
               4.00000000                1.00000000               62.00000000                0.04211916               -0.07832702               -0.07399973                0.25678264                0.00565919               -0.00914023                0.00032475
               5.00000000                1.00000000               62.00000000                0.09225926               -0.07775649               -0.07718349                0.26057082                0.00523589               -0.00831828               -0.00174150
               6.00000000                1.00000000               62.00000000                0.15544808               -0.07791928               -0.07881707                0.26439463                0.00500904               -0.00681827               -0.00040276
               7.00000000                1.00000000               62.00000000                0.23358235               -0.07887045               -0.07990355                0.26826649                0.00410106               -0.00487166                0.00177826
               8.00000000                1.00000000               62.00000000                0.32899374               -0.08050883               -0.08099948                0.27220564                0.00270442               -0.00278994                0.00379406
               9.00000000                1.00000000               62.00000000                0.44478981               -0.08236382               -0.08230187                0.27621838                0.00142559               -0.00103895                0.00530778
              10.00000000                1.00000000               62.00000000                0.76323592               -0.08325349               -0.08552402                0.28025046                0.00036000               -0.00020242                0.00540640
               0.00000000                2.00000000               62.00000000                0.49858835               -0.07376109               -0.06827595                0.24507212                0.00087646                0.00019789               -0.00834730
               1.00000000                2.00000000               62.00000000                0.01000000               -0.06696967               -0.08074119                0.24924131                0.02496940                0.01538181               -0.00754193
               2.00000000                2.00000000               62.00000000                0.01000001               -0.07274129               -0.07275085                0.25455811                0.07367687                0.02822632                0.02822057
               3.00000000                2.00000000               62.00000000                0.01000000               -0.10630161               -0.04814951                0.25990870                0.07100644               -0.02410996                0.07427822
               4.00000000                2.00000000               62.00000000                0.01000000               -0.10399962               -0.04275417                0.26176250                0.07294697               -0.04294080                0.14360018
               5.00000000                2.00000000               62.00000000                0.01000001               -0.07917026               -0.03305159                0.26563222                0.09021225               -0.00817419                0.22115277
               6.00000000                2.00000000               62.00000000                0.02640503               -0.07798888               -0.03513829                0.26973827                0.08232046               -0.00248385                0.22208895
               7.00000000                2.00000000               62.00000000                0.05981945               -0.07947870               -0.04927365                0.27390988                0.06864536               -0.00001011                0.19204197
               8.00000000                2.00000000               62.00000000                0.10171768               -0.08190930               -0.06203664                0.27816888                0.05378930                0.00119518                0.16969591
               9.00000000                2.00000000               62.00000000                0.15429952               -0.08378826               -0.07386969                0.28241725                0.04062539                0.00110747                0.15512294
              10.00000000                2.00000000               62.00000000                0.59557265               -0.08437773               -0.10348812                0.28642789                0.03453682                0.00070181                0.15207888
               0.00000000                3.00000000               62.00000000                0.51853927               -0.07513961               -0.07162433                0.24864564                0.00100787                0.00010188               -0.00993342
               1.00000000                3.00000000               62.00000000                0.01000000               -0.05856405               -0.07952073                0.25301067                0.02704320                0.03283434               -0.00909881
               2.00000000                3.00000000               62.00000000                0.01000000               -0.04814600               -0.10630803                0.25991639                0.07100133                0.07427870               -0.02407626
               3.00000000                3.00000000               62.00000000                0.01000000               -0.05853576               -0.05852379                0.26744961                0.11393135                0.10548285                0.10552362
               4.00000000                3.00000000               62.00000000                0.01198424               -0.06875999               -0.03322150                0.27696524                0.14196986                0.13648520                0.24707833
               5.00000000                3.00000000               62.00000000                0.02059094               -0.08563085               -0.03290937                0.28756333                0.13213217                0.06922241                0.27903954
               6.00000000                3.00000000               62.00000000                0.04918815               -0.09988088               -0.04115980                0.29268479                0.09795257               -0.03668168                0.27378714
               7.00000000                3.00000000               62.00000000                0.08345699               -0.10453670               -0.05228901                0.29526269                0.07582737               -0.05784049                0.26409585
               8.00000000                3.00000000               62.00000000                0.12434734               -0.10450608               -0.06425790                0.29835762                0.06793406               -0.04011314                0.25475028
               9.00000000                3.00000000               62.00000000                0.17303728               -0.09775646               -0.07940660                0.30202245                0.04414393               -0.01904398                0.24864291
              10.00000000                3.00000000               62.00000000                0.60356924               -0.09232214               -0.10307591                0.30646862                0.01942257               -0.00694031                0.24902338
               0.00000000                4.00000000               62.00000000                0.54711089               -0.07627515               -0.07463802                0.25215598                0.00099386                0.00006812               -0.01018067
               1.00000000                4.00000000               62.00000000                0.04212998               -0.07399842               -0.07832581                0.25677934                0.00564966                0.00036647               -0.00913944
               2.00000000                4.00000000               62.00000000                0.01000000               -0.04272200               -0.10399647                0.26166387                0.07294716                0.14365689               -0.04295580
               3.00000000                4.00000000               62.00000000                0.01199007               -0.03320366               -0.06875944                0.27692997                0.14195912                0.24704349                0.13648466
               4.00000000                4.00000000               62.00000000                0.02053870               -0.07096022               -0.07093563                0.29003055                0.08148115                0.12921484                0.12927717
               5.00000000                4.00000000               62.00000000                0.04904418               -0.09325476               -0.08678349                0.29757927                0.05255053                0.01699582                0.06521757
               6.00000000                4.00000000               62.00000000                0.08314138               -0.09758889               -0.09490306                0.30249281                0.04214079               -0.01969888                0.06967461
               7.00000000                4.00000000               62.00000000                0.12371471               -0.09792262               -0.09288267                0.30711115                0.04041564               -0.02175267                0.10131519
               8.00000000                4.00000000               62.00000000                0.17188054               -0.09710101               -0.09337642                0.31174760                0.03943105               -0.01704886                0.12369286
               9.00000000                4.00000000               62.00000000                0.22903218               -0.09743401               -0.09685626                0.31661634                0.02869312               -0.00843085                0.13841446
              10.00000000                4.00000000               62.00000000                0.63430219               -0.09860754               -0.08646660                0.32182137                0.01460142               -0.00332583                0.14319343
               0.00000000                5.00000000               62.00000000                0.58469764               -0.07743269               -0.07713282                0.25567202                0.00106052                0.00002300               -0.00941094
               1.00000000                5.00000000               62.00000000                0.09225927               -0.07718438               -0.07775649                0.26056885                0.00522629               -0.00177169               -0.00832115
               2.00000000                5.00000000               62.00000000                0.01000001               -0.03304738               -0.07916335                0.26562098                0.09020637                0.22115495               -0.00819766
               3.00000000                5.00000000               62.00000000                0.02059372               -0.03290264               -0.08564579                0.28754047                0.13209919                0.27906147                0.06917177
               4.00000000                5.00000000               62.00000000                0.04904759               -0.08678252               -0.09324035                0.29754275                0.05253406                0.06520569                0.01698417
               5.00000000                5.00000000               62.00000000                0.08314010               -0.09722498               -0.09722251                0.30388072                0.03629243                0.00928556                0.00929905
               6.00000000                5.00000000               62.00000000                0.12370729               -0.09725068               -0.09886998                0.30962048                0.02890859               -0.00143798                0.02448729
               7.00000000                5.00000000               62.00000000                0.17186698               -0.09664360               -0.10030839                0.31511535                0.02395780               -0.00522783                0.03843123
               8.00000000                5.00000000               62.00000000                0.22901368               -0.09648598               -0.10168139                0.32054726                0.01916991               -0.00516394                0.04952637
               9.00000000                5.00000000               62.00000000                0.29694068               -0.09850521               -0.10030910                0.32603003                0.01143618               -0.00279645                0.05672371
              10.00000000                5.00000000               62.00000000                0.67174177               -0.10035582               -0.08971481                0.33165243                0.00604891               -0.00118983                0.05926059
               0.00000000                6.00000000               62.00000000                0.63204590               -0.07856264               -0.07904622                0.25924529                0.00110050               -0.00001782               -0.00789313
               1.00000000                6.00000000               62.00000000                0.15547150               -0.07881674               -0.07792082                0.26439852                0.00500610               -0.00038810               -0.00681559
               2.00000000                6.00000000               62.00000000                0.02640332               -0.03513725               -0.07797947                0.26968449                0.08231251                0.22208992               -0.00245380
               3.00000000                6.00000000               62.00000000                0.04919494               -0.04115614               -0.09987963                0.29265326                0.09794445                0.27374014               -0.03669255
               4.00000000                6.00000000               62.00000000                0.08314228               -0.09490013               -0.09758317                0.30247912                0.04214243                0.06965931               -0.01972057
               5.00000000                6.00000000               62.00000000                0.12370929               -0.09887230               -0.09724747                0.30961889                0.02890933                0.02449296               -0.00144248
               6.00000000                6.00000000               62.00000000                0.17188030               -0.09871279               -0.09871140                0.31591252                0.01980314                0.00906207                0.00906322
               7.00000000                6.00000000               62.00000000                0.22906721               -0.09821229               -0.10073538                0.32185951                0.01347596                0.00253696                0.01628902
               8.00000000                6.00000000               62.00000000                0.29704823               -0.09851407               -0.10208011                0.32766849                0.00854686                0.00005932                0.02144742
               9.00000000                6.00000000               62.00000000                0.37811332               -0.10044218               -0.10114029                0.33344872                0.00419105               -0.00036479                0.02463376
              10.00000000                6.00000000               62.00000000                0.71654804               -0.10190817               -0.09612555                0.33927022                0.00179885               -0.00025020                0.02578219
               0.00000000                7.00000000               62.00000000                0.69008595               -0.07965980               -0.08037650                0.26289322                0.00107053               -0.00000406               -0.00594969
               1.00000000                7.00000000               62.00000000                0.23357813               -0.07990403               -0.07887209                0.26827027                0.00410359                0.00177877               -0.00486924
               2.00000000                7.00000000               62.00000000                0.05982724               -0.04927339               -0.07947739                0.27390673                0.06864231                0.19202342               -0.00001815
               3.00000000                7.00000000               62.00000000                0.08345980               -0.05228616               -0.10452929                0.29524488                0.07582481                0.26406937               -0.05784778
               4.00000000                7.00000000               62.00000000                0.12371945               -0.09287896               -0.09791711                0.30709671                0.04041289                0.10131164               -0.02175463
               5.00000000                7.00000000               62.00000000                0.17186755               -0.10030890               -0.09664127                0.31511257                0.02395641                0.03843312               -0.00523206
               6.00000000                7.00000000               62.00000000                0.22906725               -0.10073719               -0.09821299                0.32186407                0.01347655                0.01629119                0.00253482
               7.00000000                7.00000000               62.00000000                0.29708344               -0.10038221               -0.10038245                0.32809465                0.00713805                0.00685683                0.00685684
               8.00000000                7.00000000               62.00000000                0.37822420               -0.10080624               -0.10198105                0.33410574                0.00334178                0.00264006                0.00952274
               9.00000000                7.00000000               62.00000000                0.47546701               -0.10236163               -0.10232570                0.34003239                0.00120409                0.00078844                0.01104444
              10.00000000                7.00000000               62.00000000                0.77037662               -0.10343451               -0.10101902                0.34593950               -0.00000284                0.00019631                0.01156672
               0.00000000                8.00000000               62.00000000                0.75999834               -0.08074743               -0.08117293                0.26663818                0.00092129                0.00013687               -0.00393951
               1.00000000                8.00000000               62.00000000                0.32900439               -0.08099950               -0.08050923                0.27220622                0.00270577                0.00380021               -0.00279060
               2.00000000                8.00000000               62.00000000                0.10172266               -0.06203373               -0.08191177                0.27817184                0.05379014                0.16968333                0.00119844
               3.00000000                8.00000000               62.00000000                0.12434991               -0.06425671               -0.10450403                0.29835135                0.06793691                0.25471757               -0.04011583
               4.00000000                8.00000000               62.00000000                0.17188117               -0.09337716               -0.09709751                0.31173757                0.03943046                0.12368345               -0.01705036
               5.00000000                8.00000000               62.00000000                0.22901910               -0.10168065               -0.09648415                0.32054410                0.01916338                0.04953036               -0.00516544
               6.00000000                8.00000000               62.00000000                0.29704757               -0.10207994               -0.09851411                0.32766780                0.00854401                0.02144699                0.00005481
               7.00000000                8.00000000               62.00000000                0.37822032               -0.10198104               -0.10080709                0.33410737                0.00334288                0.00952362                0.00263932
               8.00000000                8.00000000               62.00000000                0.47554073               -0.10266275               -0.10266278                0.34024424                0.00088223                0.00406756                0.00406508
               9.00000000                8.00000000               62.00000000                0.59293554               -0.10410836               -0.10390182                0.34624653                0.00001267                0.00139325                0.00482047
              10.00000000                8.00000000               62.00000000                0.83548626               -0.10499793               -0.10456719                0.35218723               -0.00076356                0.00042823                0.00505700
               0.00000000                9.00000000               62.00000000                0.84327802               -0.08190972               -0.08166753                0.27047278                0.00071618                0.00046055               -0.00200703
               1.00000000                9.00000000               62.00000000                0.44480396               -0.08230083               -0.08236264                0.27621469                0.00142660                0.00531212               -0.00103543
               2.00000000                9.00000000               62.00000000                0.15430093               -0.07386777               -0.08378833                0.28241438                0.04062621                0.15509943                0.00110402
               3.00000000                9.00000000               62.00000000                0.17303922               -0.07940449               -0.09775874                0.30202371                0.04414455                0.24861821               -0.01905587
               4.00000000                9.00000000               62.00000000                0.22903004               -0.09685765               -0.09743681                0.31662583                0.02869556                0.13841495               -0.00842477
               5.00000000                9.00000000               62.00000000                0.29693923               -0.10031077               -0.09850655                0.32603637                0.01143160                0.05672193               -0.00279869
               6.00000000                9.00000000               62.00000000                0.37812018               -0.10113863               -0.10044122                0.33344470                0.00418759                0.02463410               -0.00036607
               7.00000000                9.00000000               62.00000000                0.47547194               -0.10232426               -0.10236103                0.34002932                0.00120432                0.01104407                0.00079035
               8.00000000                9.00000000               62.00000000                0.59293283               -0.10390191               -0.10410859                0.34624730                0.00001374                0.00481991                0.00139180
               9.00000000                9.00000000               62.00000000                0.73580415               -0.10567243               -0.10567228                0.35229630               -0.00024108                0.00170115                0.00169931
              10.00000000                9.00000000               62.00000000                0.91493712               -0.10658392               -0.10721420                0.35825118               -0.00100697                0.00054566                0.00179058
               0.00000000               10.00000000               62.00000000                0.95113479               -0.08344504               -0.08188653                0.27444284               -0.00028324                0.00034659               -0.00093348
               1.00000000               10.00000000               62.00000000                0.76322878               -0.08552183               -0.08325145                0.28024293                0.00036029                0.00540336               -0.00019622
               2.00000000               10.00000000               62.00000000                0.59557302               -0.10348659               -0.08437712                0.28642373                0.03453450                0.15204729                0.00069793
               3.00000000               10.00000000               62.00000000                0.60356922               -0.10307319               -0.09232650                0.30647026                0.01942052                0.24900358               -0.00694556
               4.00000000               10.00000000               62.00000000                0.63430431               -0.08646786               -0.09861360                0.32183882                0.01460405                0.14319655               -0.00331797
               5.00000000               10.00000000               62.00000000                0.67174743               -0.08971781               -0.10035932                0.33166315                0.00604930                0.05925571               -0.00119094
               6.00000000               10.00000000               62.00000000                0.71655405               -0.09612394               -0.10190716                0.33926609                0.00179873                0.02578331               -0.00025012
               7.00000000               10.00000000               62.00000000                0.77037968               -0.10101708               -0.10343300                0.34593401               -0.00000332                0.01156439                0.00019918
               8.00000000               10.00000000               62.00000000                0.83547776               -0.10456713               -0.10499817                0.35218724               -0.00076341                0.00505247                0.00042746
               9.00000000               10.00000000               62.00000000                0.91493662               -0.10721462               -0.10658408                0.35825189               -0.00100656                0.00179028                0.00054331
              10.00000000               10.00000000               62.00000000                0.98349919               -0.10835296               -0.10835272                0.36421047               -0.00195534                0.00057536                0.00057439
               0.00000000                0.00000000               63.00000000                0.75199469               -0.07117136               -0.07117176                0.23853965                0.00160331               -0.00075557               -0.00075441
               1.00000000                0.00000000               63.00000000                0.49804045               -0.06905594               -0.07419150                0.24235030                0.00367060               -0.00420606               -0.00036821
               2.00000000                0.00000000               63.00000000                0.49872336               -0.06861744               -0.07397845                0.24587819                0.00085159               -0.00883035                0.00023913
               3.00000000                0.00000000               63.00000000                0.51864340               -0.07186775               -0.07529769                0.24925769                0.00098062               -0.01057057                0.00012588
               4.00000000                0.00000000               63.00000000                0.54719189               -0.07478428               -0.07637898                0.25257156                0.00096650               -0.01086159                0.00008017
               5.00000000                0.00000000               63.00000000                0.58475045               -0.07718583               -0.07748024                0.25588296                0.00102928               -0.01006774                0.00002563
               6.00000000                0.00000000               63.00000000                0.63203565               -0.07901742               -0.07854901                0.25924162                0.00106827               -0.00847192               -0.00001914
               7.00000000                0.00000000               63.00000000                0.68999179               -0.08028414               -0.07959453                0.26269556                0.00103936               -0.00641341               -0.00000403
               8.00000000                0.00000000               63.00000000                0.75980790               -0.08102898               -0.08062759                0.26624171                0.00089184               -0.00428932                0.00014547
               9.00000000                0.00000000               63.00000000                0.84294773               -0.08147741               -0.08173228                0.26987462                0.00068912               -0.00222865                0.00049226
              10.00000000                0.00000000               63.00000000                0.95092867               -0.08167453               -0.08320169                0.27365433               -0.00031301               -0.00107704                0.00029136
               0.00000000                1.00000000               63.00000000                0.49803679               -0.07419170               -0.06905633                0.24235201                0.00367153               -0.00036947               -0.00420489
               1.00000000                1.00000000               63.00000000                0.01000000               -0.07775616               -0.07775660                0.24619383                0.00897161               -0.00347576               -0.00347301
               2.00000000                1.00000000               63.00000000                0.01000000               -0.08083424               -0.06731496                0.24987287                0.02453103               -0.00768950                0.01599217
               3.00000000                1.00000000               63.00000000                0.01000000               -0.07960731               -0.05904081                0.25347334                0.02656195               -0.00924551                0.03415015
               4.00000000                1.00000000               63.00000000                0.04217326               -0.07840679               -0.07415216                0.25707721                0.00554563               -0.00925315                0.00047477
               5.00000000                1.00000000               63.00000000                0.09228378               -0.07781660               -0.07723864                0.26069412                0.00513289               -0.00841794               -0.00167238
               6.00000000                1.00000000               63.00000000                0.15544087               -0.07794243               -0.07880570                0.26433801                0.00491723               -0.00689425               -0.00028186
               7.00000000                1.00000000               63.00000000                0.23346834               -0.07884142               -0.07984361                0.26803907                0.00403051               -0.00491128                0.00191485
               8.00000000                1.00000000               63.00000000                0.32876531               -0.08041192               -0.08088738                0.27179408                0.00266199               -0.00278139                0.00400281
               9.00000000                1.00000000               63.00000000                0.44438000               -0.08219550               -0.08213128                0.27561794                0.00140163               -0.00098561                0.00557705
              10.00000000                1.00000000               63.00000000                0.76295467               -0.08305153               -0.08524272                0.27946109                0.00032601               -0.00013221                0.00554847
               0.00000000                2.00000000               63.00000000                0.49873169               -0.07397928               -0.06861763                0.24588053                0.00085202                0.00024009               -0.00882729
               1.00000000                2.00000000               63.00000000                0.01000000               -0.06731181               -0.08083463                0.24987580                0.02452785                0.01598941               -0.00768464
               2.00000000                2.00000000               63.00000000                0.01000001               -0.07297378               -0.07298150                0.25505764                0.07233589                0.02930969                0.02932040
               3.00000000                2.00000000               63.00000000                0.01000000               -0.10590899               -0.04884449                0.26028300                0.06969216               -0.02471975                0.07686882
               4.00000000                2.00000000               63.00000000                0.01000000               -0.10362227               -0.04352452                0.26204845                0.07156722               -0.04384082                0.14907700
               5.00000000                2.00000000               63.00000000                0.01000001               -0.07921166               -0.03404083                0.26571244                0.08843759               -0.00787090                0.22978759
               6.00000000                2.00000000               63.00000000                0.02641088               -0.07802562               -0.03610023                0.26963026                0.08063735               -0.00210310                0.23117211
               7.00000000                2.00000000               63.00000000                0.05981914               -0.07946579               -0.04993019                0.27366198                0.06718765                0.00036789                0.20026905
               8.00000000                2.00000000               63.00000000                0.10170378               -0.08182573               -0.06240558                0.27775315                0.05258645                0.00160680                0.17731676
               9.00000000                2.00000000               63.00000000                0.15424189               -0.08364417               -0.07394849                0.28183513                0.03963307                0.00138630                0.16243353
              10.00000000                2.00000000               63.00000000                0.59552950               -0.08421078               -0.10275022                0.28565326                0.03352523                0.00084977                0.15951776
               0.00000000                3.00000000               63.00000000                0.51865539               -0.07529914               -0.07186682                0.24925655                0.00098070                0.00012554               -0.01056919
               1.00000000                3.00000000               63.00000000                0.01000000               -0.05903732               -0.07960623                0.25347280                0.02655464                0.03415181               -0.00924315
               2.00000000                3.00000000               63.00000000                0.01000000               -0.04883494               -0.10590547                0.26027093                0.06968057                0.07686145               -0.02477713
               3.00000000                3.00000000               63.00000000                0.01000000               -0.05905638               -0.05906093                0.26776833                0.11177651                0.10916168                0.10916690
               4.00000000                3.00000000               63.00000000                0.01198798               -0.06913870               -0.03427856                0.27718378                0.13918745                0.14150206                0.25601432
               5.00000000                3.00000000               63.00000000                0.02059503               -0.08570264               -0.03403333                0.28781396                0.12941452                0.07190693                0.28935571
               6.00000000                3.00000000               63.00000000                0.04920333               -0.09962432               -0.04215316                0.29284814                0.09586738               -0.03789423                0.28418245
               7.00000000                3.00000000               63.00000000                0.08348039               -0.10414775               -0.05306649                0.29536156                0.07412658               -0.05994851                0.27479047
               8.00000000                3.00000000               63.00000000                0.12437514               -0.10410847               -0.06478264                0.29835149                0.06630553               -0.04150687                0.26569069
               9.00000000                3.00000000               63.00000000                0.17309521               -0.09755283               -0.07956360                0.30191090                0.04303869               -0.01960110                0.25998536
              10.00000000                3.00000000               63.00000000                0.60360293               -0.09228185               -0.10261001                0.30625093                0.01881032               -0.00708724                0.26151563
               0.00000000                4.00000000               63.00000000                0.54719257               -0.07637973               -0.07478254                0.25256809                0.00096618                0.00007935               -0.01086529
               1.00000000                4.00000000               63.00000000                0.04217340               -0.07415144               -0.07840506                0.25707424                0.00554521                0.00040580               -0.00925539
               2.00000000                4.00000000               63.00000000                0.01000000               -0.04351943               -0.10361037                0.26196577                0.07155473                0.14906430               -0.04381604
               3.00000000                4.00000000               63.00000000                0.01198780               -0.03427150               -0.06912746                0.27714149                0.13916271                0.25606270                0.14148776
               4.00000000                4.00000000               63.00000000                0.02053854               -0.07136051               -0.07136129                0.29039176                0.07974108                0.13402479                0.13400256
               5.00000000                4.00000000               63.00000000                0.04905453               -0.09323613               -0.08692456                0.29790135                0.05136587                0.01767094                0.06753848
               6.00000000                4.00000000               63.00000000                0.08314598               -0.09748972               -0.09490134                0.30277595                0.04116591               -0.02046903                0.07214585
               7.00000000                4.00000000               63.00000000                0.12372938               -0.09782512               -0.09295422                0.30734311                0.03943908               -0.02257129                0.10520222
               8.00000000                4.00000000               63.00000000                0.17190280               -0.09704221               -0.09345777                0.31193810                0.03844056               -0.01768892                0.12878850
               9.00000000                4.00000000               63.00000000                0.22907090               -0.09738500               -0.09687476                0.31677069                0.02795067               -0.00875545                0.14457041
              10.00000000                4.00000000               63.00000000                0.63432923               -0.09853488               -0.08682621                0.32194295                0.01415536               -0.00343706                0.15035154
               0.00000000                5.00000000               63.00000000                0.58474926               -0.07748050               -0.07718547                0.25588176                0.00102922                0.00002552               -0.01006711
               1.00000000                5.00000000               63.00000000                0.09229707               -0.07723793               -0.07781623                0.26069331                0.00513571               -0.00165013               -0.00841630
               2.00000000                5.00000000               63.00000000                0.01000001               -0.03404802               -0.07921147                0.26570254                0.08843595                0.22976293               -0.00782621
               3.00000000                5.00000000               63.00000000                0.02059440               -0.03403273               -0.08569103                0.28780649                0.12938987                0.28929213                0.07188575
               4.00000000                5.00000000               63.00000000                0.04905081               -0.08691137               -0.09322968                0.29787910                0.05134819                0.06755330                0.01767403
               5.00000000                5.00000000               63.00000000                0.08314592               -0.09717323               -0.09717582                0.30420931                0.03544914                0.00952130                0.00949030
               6.00000000                5.00000000               63.00000000                0.12372051               -0.09722819               -0.09882871                0.30993050                0.02823349               -0.00158357                0.02526623
               7.00000000                5.00000000               63.00000000                0.17188820               -0.09666457               -0.10027262                0.31540160                0.02338814               -0.00549529                0.03980926
               8.00000000                5.00000000               63.00000000                0.22904802               -0.09654097               -0.10165451                0.32082077                0.01870402               -0.00543233                0.05150282
               9.00000000                5.00000000               63.00000000                0.29698589               -0.09853845               -0.10037949                0.32629900                0.01115566               -0.00297257                0.05925085
              10.00000000                5.00000000               63.00000000                0.67177331               -0.10035622               -0.09014703                0.33192704                0.00584389               -0.00126753                0.06230403
               0.00000000                6.00000000               63.00000000                0.63204689               -0.07854955               -0.07901805                0.25924324                0.00106782               -0.00002068               -0.00847233
               1.00000000                6.00000000               63.00000000                0.15542470               -0.07880686               -0.07794305                0.26434000                0.00491671               -0.00032120               -0.00689342
               2.00000000                6.00000000               63.00000000                0.02640861               -0.03610969               -0.07803166                0.26964476                0.08063884                0.23112463               -0.00212122
               3.00000000                6.00000000               63.00000000                0.04919945               -0.04215393               -0.09962771                0.29287076                0.09587012                0.28421743               -0.03789035
               4.00000000                6.00000000               63.00000000                0.08315497               -0.09488837               -0.09748386                0.30275700                0.04115649                0.07217449               -0.02044355
               5.00000000                6.00000000               63.00000000                0.12372433               -0.09882266               -0.09722366                0.30991199                0.02822533                0.02526562               -0.00158762
               6.00000000                6.00000000               63.00000000                0.17190306               -0.09871051               -0.09870915                0.31622251                0.01934375                0.00928444                0.00928461
               7.00000000                6.00000000               63.00000000                0.22910133               -0.09826119               -0.10073464                0.32216979                0.01317094                0.00253074                0.01682192
               8.00000000                6.00000000               63.00000000                0.29710204               -0.09859127               -0.10209935                0.32797472                0.00835682               -0.00002189                0.02226834
               9.00000000                6.00000000               63.00000000                0.37820562               -0.10050841               -0.10124849                0.33376601                0.00409931               -0.00043496                0.02572782
              10.00000000                6.00000000               63.00000000                0.71660806               -0.10195690               -0.09644166                0.33961196                0.00171791               -0.00028280                0.02710897
               0.00000000                7.00000000               63.00000000                0.68998606               -0.07959320               -0.08028402                0.26269335                0.00103876               -0.00000483               -0.00641827
               1.00000000                7.00000000               63.00000000                0.23347673               -0.07984278               -0.07884135                0.26803665                0.00402775                0.00191511               -0.00491455
               2.00000000                7.00000000               63.00000000                0.05982245               -0.04993298               -0.07946699                0.27365879                0.06718641                0.20024021                0.00040218
               3.00000000                7.00000000               63.00000000                0.08348237               -0.05306781               -0.10415273                0.29535094                0.07413575                0.27476425               -0.05992774
               4.00000000                7.00000000               63.00000000                0.12372688               -0.09295117               -0.09782497                0.30733916                0.03944139                0.10520856               -0.02257737
               5.00000000                7.00000000               63.00000000                0.17188873               -0.10026936               -0.09666187                0.31539453                0.02338390                0.03981820               -0.00550179
               6.00000000                7.00000000               63.00000000                0.22910411               -0.10073288               -0.09825829                0.32216093                0.01316809                0.01682593                0.00252782
               7.00000000                7.00000000               63.00000000                0.29714386               -0.10043292               -0.10043257                0.32841249                0.00699066                0.00704627                0.00704764
               8.00000000                7.00000000               63.00000000                0.37831507               -0.10088997               -0.10204945                0.33444133                0.00328329                0.00268316                0.00987299
               9.00000000                7.00000000               63.00000000                0.47561693               -0.10244955               -0.10244782                0.34038498                0.00118744                0.00078316                0.01152226
              10.00000000                7.00000000               63.00000000                0.77046531               -0.10351765               -0.10124228                0.34631977               -0.00003155                0.00019167                0.01213336
               0.00000000                8.00000000               63.00000000                0.75981305               -0.08062712               -0.08102877                0.26624032                0.00089156                0.00014467               -0.00429147
               1.00000000                8.00000000               63.00000000                0.32876848               -0.08088671               -0.08041156                0.27179166                0.00265906                0.00400334               -0.00278243
               2.00000000                8.00000000               63.00000000                0.10170458               -0.06240753               -0.08182346                0.27774365                0.05258371                0.17729479                0.00160520
               3.00000000                8.00000000               63.00000000                0.12437538               -0.06478234               -0.10410924                0.29834870                0.06631175                0.26566994               -0.04150138
               4.00000000                8.00000000               63.00000000                0.17190357               -0.09345424               -0.09704465                0.31194293                0.03844506                0.12878849               -0.01768097
               5.00000000                8.00000000               63.00000000                0.22904967               -0.10165275               -0.09654092                0.32081723                0.01870603                0.05150570               -0.00542917
               6.00000000                8.00000000               63.00000000                0.29709996               -0.10209863               -0.09859121                0.32797492                0.00835587                0.02227450               -0.00002566
               7.00000000                8.00000000               63.00000000                0.37831656               -0.10204973               -0.10089002                0.33444274                0.00328258                0.00987468                0.00268140
               8.00000000                8.00000000               63.00000000                0.47568725               -0.10275895               -0.10275893                0.34060199                0.00087805                0.00419871                0.00420053
               9.00000000                8.00000000               63.00000000                0.59317495               -0.10421404               -0.10402634                0.34662539                0.00002192                0.00143046                0.00502177
              10.00000000                8.00000000               63.00000000                0.83563360               -0.10510530               -0.10473436                0.35259489               -0.00076906                0.00044066                0.00528771
               0.00000000                9.00000000               63.00000000                0.84294003               -0.08173206               -0.08147734                0.26987371                0.00068849                0.00049200               -0.00223226
               1.00000000                9.00000000               63.00000000                0.44439596               -0.08212979               -0.08219477                0.27561444                0.00140060                0.00557685               -0.00098794
               2.00000000                9.00000000               63.00000000                0.15425656               -0.07394367               -0.08364031                0.28182103                0.03963041                0.16241440                0.00138784
               3.00000000                9.00000000               63.00000000                0.17309628               -0.07956144               -0.09755092                0.30190255                0.04304487                0.25996512               -0.01959983
               4.00000000                9.00000000               63.00000000                0.22907731               -0.09687654               -0.09738393                0.31676954                0.02795501                0.14456863               -0.00874884
               5.00000000                9.00000000               63.00000000                0.29698882               -0.10038037               -0.09853826                0.32629806                0.01115764                0.05924505               -0.00296551
               6.00000000                9.00000000               63.00000000                0.37820679               -0.10124879               -0.10050895                0.33376637                0.00409816                0.02572436               -0.00043561
               7.00000000                9.00000000               63.00000000                0.47561767               -0.10244762               -0.10244944                0.34038420                0.00118765                0.01152406                0.00077858
               8.00000000                9.00000000               63.00000000                0.59317795               -0.10402634               -0.10421404                0.34662546                0.00002266                0.00502250                0.00143026
               9.00000000                9.00000000               63.00000000                0.73621048               -0.10579516               -0.10579505                0.35269324               -0.00023093                0.00177098                0.00177204
              10.00000000                9.00000000               63.00000000                0.91517571               -0.10670602               -0.10735428                0.35867518               -0.00100686                0.00057132                0.00187187
               0.00000000               10.00000000               63.00000000                0.95094016               -0.08320026               -0.08167421                0.27365047               -0.00031317                0.00029275               -0.00108324
               1.00000000               10.00000000               63.00000000                0.76296311               -0.08524020               -0.08305024                0.27945415                0.00032746                0.00555204               -0.00013626
               2.00000000               10.00000000               63.00000000                0.59552976               -0.10274260               -0.08420597                0.28563724                0.03352389                0.15949947                0.00085655
               3.00000000               10.00000000               63.00000000                0.60360599               -0.10260713               -0.09227736                0.30623870                0.01881232                0.26149317               -0.00708466
               4.00000000               10.00000000               63.00000000                0.63433049               -0.08683013               -0.09853098                0.32193831                0.01415631                0.15034988               -0.00343264
               5.00000000               10.00000000               63.00000000                0.67177565               -0.09014898               -0.10035568                0.33192769                0.00584342                0.06229480               -0.00126125
               6.00000000               10.00000000               63.00000000                0.71660245               -0.09644234               -0.10195675                0.33960993                0.00171706                0.02709976               -0.00028250
               7.00000000               10.00000000               63.00000000                0.77046854               -0.10124173               -0.10351679                0.34631622               -0.00003132                0.01213303                0.00018717
               8.00000000               10.00000000               63.00000000                0.83563188               -0.10473429               -0.10510520                0.35259480               -0.00076872                0.00528941                0.00043977
               9.00000000               10.00000000               63.00000000                0.91518387               -0.10735461               -0.10670604                0.35867581               -0.00100666                0.00187087                0.00057247
              10.00000000               10.00000000               63.00000000                0.98364948               -0.10848631               -0.10848606                0.36465979               -0.00196195                0.00060500                0.00060644
               0.00000000                0.00000000               64.00000000                0.75218550               -0.07153881               -0.07153915                0.23976555                0.00152988               -0.00078106               -0.00078220
               1.00000000                0.00000000               64.00000000                0.49831069               -0.06947309               -0.07444470                0.24337852                0.00355384               -0.00439476               -0.00036665
               2.00000000                0.00000000               64.00000000                0.49886355               -0.06902124               -0.07420805                0.24670807                0.00082205               -0.00931648                0.00028703
               3.00000000                0.00000000               64.00000000                0.51874673               -0.07214525               -0.07546535                0.24989247                0.00094742               -0.01121785                0.00015368
               4.00000000                0.00000000               64.00000000                0.54726698               -0.07493848               -0.07648751                0.25300113                0.00093179               -0.01156959                0.00009426
               5.00000000                0.00000000               64.00000000                0.58477967               -0.07723082               -0.07752837                0.25610247                0.00099263               -0.01074931                0.00002953
               6.00000000                0.00000000               64.00000000                0.63200809               -0.07897392               -0.07854272                0.25925923                0.00102910               -0.00906668               -0.00002095
               7.00000000                0.00000000               64.00000000                0.68990229               -0.08017193               -0.07952880                0.26250037                0.00099980               -0.00689320               -0.00000609
               8.00000000                0.00000000               64.00000000                0.75960509               -0.08086770               -0.08050605                0.26584138                0.00085693               -0.00465736                0.00015293
               9.00000000                0.00000000               64.00000000                0.84258326               -0.08127694               -0.08155075                0.26926773                0.00065828               -0.00246911                0.00052688
              10.00000000                0.00000000               64.00000000                0.95070437               -0.08145456               -0.08294337                0.27283940               -0.00034431               -0.00123985                0.00023070
               0.00000000                1.00000000               64.00000000                0.49829693               -0.07444515               -0.06947432                0.24338020                0.00355527               -0.00036740               -0.00439733
               1.00000000                1.00000000               64.00000000                0.01000000               -0.07789593               -0.07789713                0.24702552                0.00872085               -0.00354806               -0.00354889
               2.00000000                1.00000000               64.00000000                0.01000000               -0.08086662               -0.06773529                0.25052026                0.02382613               -0.00779984                0.01663732
               3.00000000                1.00000000               64.00000000                0.01000000               -0.07966100               -0.05968062                0.25395159                0.02578766               -0.00934317                0.03547029
               4.00000000                1.00000000               64.00000000                0.04224968               -0.07848036               -0.07434513                0.25738191                0.00535269               -0.00932808                0.00080764
               5.00000000                1.00000000               64.00000000                0.09231558               -0.07788964               -0.07730723                0.26082043                0.00495266               -0.00847825               -0.00153216
               6.00000000                1.00000000               64.00000000                0.15540047               -0.07798922               -0.07880259                0.26428986                0.00475898               -0.00693672               -0.00021352
               7.00000000                1.00000000               64.00000000                0.23336218               -0.07883255               -0.07978507                0.26780012                0.00390955               -0.00492697                0.00205764
               8.00000000                1.00000000               64.00000000                0.32852948               -0.08032600               -0.08077676                0.27136624                0.00258453               -0.00275624                0.00422140
               9.00000000                1.00000000               64.00000000                0.44395220               -0.08202835               -0.08195909                0.27499704                0.00136010               -0.00092870                0.00585571
              10.00000000                1.00000000               64.00000000                0.76266300               -0.08284536               -0.08493103                0.27863706                0.00027987               -0.00006419                0.00569444
               0.00000000                2.00000000               64.00000000                0.49885609               -0.07421046               -0.06902244                0.24671306                0.00082133                0.00028616               -0.00931760
               1.00000000                2.00000000               64.00000000                0.01000000               -0.06773531               -0.08086827                0.25052623                0.02382786                0.01663812               -0.00779848
               2.00000000                2.00000000               64.00000000                0.01000001               -0.07323348               -0.07323946                0.25556875                0.07024173                0.03041432                0.03040818
               3.00000000                2.00000000               64.00000000                0.01000000               -0.10523873               -0.04980547                0.26064705                0.06762534               -0.02518500                0.07953315
               4.00000000                2.00000000               64.00000000                0.01000000               -0.10301458               -0.04468200                0.26242967                0.06938020               -0.04461445                0.15457611
               5.00000000                2.00000000               64.00000000                0.01000001               -0.07927078               -0.03551393                0.26579757                0.08569548               -0.00770015                0.23860091
               6.00000000                2.00000000               64.00000000                0.02640601               -0.07810074               -0.03755360                0.26951112                0.07806758               -0.00171854                0.24038304
               7.00000000                2.00000000               64.00000000                0.05981779               -0.07948468               -0.05094590                0.27338572                0.06496965                0.00085451                0.20866787
               8.00000000                2.00000000               64.00000000                0.10167447               -0.08175524               -0.06301403                0.27730152                0.05076352                0.00205848                0.18515907
               9.00000000                2.00000000               64.00000000                0.15419148               -0.08350154               -0.07414557                0.28120473                0.03815046                0.00168743                0.17000221
              10.00000000                2.00000000               64.00000000                0.59548197               -0.08404354               -0.10178492                0.28482181                0.03206055                0.00102060                0.16725369
               0.00000000                3.00000000               64.00000000                0.51876566               -0.07546199               -0.07214315                0.24988371                0.00094543                0.00015295               -0.01121579
               1.00000000                3.00000000               64.00000000                0.01000000               -0.05967550               -0.07965884                0.25394346                0.02578530                0.03545677               -0.00933959
               2.00000000                3.00000000               64.00000000                0.01000000               -0.04980460               -0.10524123                0.26064826                0.06762695                0.07952221               -0.02520377
               3.00000000                3.00000000               64.00000000                0.01000000               -0.05982063               -0.05980257                0.26809103                0.10840942                0.11286049                0.11287089
               4.00000000                3.00000000               64.00000000                0.01198420               -0.06969158               -0.03582620                0.27753001                0.13488411                0.14659593                0.26502882
               5.00000000                3.00000000               64.00000000                0.02059624               -0.08576600               -0.03568024                0.28818204                0.12529424                0.07467829                0.29972090
               6.00000000                3.00000000               64.00000000                0.04920397               -0.09923612               -0.04360833                0.29312428                0.09270043               -0.03916434                0.29484568
               7.00000000                3.00000000               64.00000000                0.08349636               -0.10358950               -0.05421725                0.29545651                0.07156765               -0.06203633                0.28569591
               8.00000000                3.00000000               64.00000000                0.12440684               -0.10354017               -0.06557670                0.29836530                0.06388237               -0.04288155                0.27692123
               9.00000000                3.00000000               64.00000000                0.17315645               -0.09726300               -0.07984419                0.30180025                0.04140364               -0.02014495                0.27168562
              10.00000000                3.00000000               64.00000000                0.60364181               -0.09222236               -0.10201305                0.30601903                0.01792742               -0.00722030                0.27450024
               0.00000000                4.00000000               64.00000000                0.54726667               -0.07648285               -0.07493508                0.25298917                0.00093206                0.00009366               -0.01156852
               1.00000000                4.00000000               64.00000000                0.04224888               -0.07434135               -0.07847689                0.25737053                0.00534830                0.00077031               -0.00932596
               2.00000000                4.00000000               64.00000000                0.01000000               -0.04466289               -0.10300385                0.26237247                0.06939151                0.15458572               -0.04463616
               3.00000000                4.00000000               64.00000000                0.01198783               -0.03583034               -0.06968512                0.27749366                0.13489627                0.26504085                0.14659427
               4.00000000                4.00000000               64.00000000                0.02054268               -0.07194182               -0.07192297                0.29088623                0.07709428                0.13887623                0.13889828
               5.00000000                4.00000000               64.00000000                0.04906127               -0.09317723               -0.08707373                0.29820986                0.04958742                0.01827795                0.06987012
               6.00000000                4.00000000               64.00000000                0.08315861               -0.09732220               -0.09483454                0.30309339                0.03970155               -0.02121402                0.07470389
               7.00000000                4.00000000               64.00000000                0.12374095               -0.09767334               -0.09301002                0.30761217                0.03799184               -0.02341900                0.10917839
               8.00000000                4.00000000               64.00000000                0.17192788               -0.09694686               -0.09354263                0.31216005                0.03698286               -0.01834286                0.13399208
               9.00000000                4.00000000               64.00000000                0.22911877               -0.09729740               -0.09689140                0.31693634                0.02686350               -0.00909895                0.15089143
              10.00000000                4.00000000               64.00000000                0.63435773               -0.09840889               -0.08735251                0.32206542                0.01350791               -0.00355856                0.15777793
               0.00000000                5.00000000               64.00000000                0.58477726               -0.07752602               -0.07722960                0.25609753                0.00099315                0.00002896               -0.01074826
               1.00000000                5.00000000               64.00000000                0.09231593               -0.07730369               -0.07788853                0.26081597                0.00495548               -0.00157118               -0.00847591
               2.00000000                5.00000000               64.00000000                0.01000001               -0.03550521               -0.07926595                0.26576730                0.08569653                0.23859644               -0.00763978
               3.00000000                5.00000000               64.00000000                0.02059674               -0.03568203               -0.08578495                0.28823541                0.12528084                0.29977359                0.07468006
               4.00000000                5.00000000               64.00000000                0.04905751               -0.08708462               -0.09318061                0.29826386                0.04958752                0.06986757                0.01826142
               5.00000000                5.00000000               64.00000000                0.08315574               -0.09706312               -0.09706239                0.30456284                0.03419498                0.00971615                0.00970648
               6.00000000                5.00000000               64.00000000                0.12373459               -0.09716651               -0.09872204                0.31027165                0.02721741               -0.00176147                0.02601842
               7.00000000                5.00000000               64.00000000                0.17190901               -0.09667116               -0.10017894                0.31572462                0.02254148               -0.00579990                0.04119672
               8.00000000                5.00000000               64.00000000                0.22908392               -0.09659551               -0.10157781                0.32111622                0.01801872               -0.00572181                0.05349988
               9.00000000                5.00000000               64.00000000                0.29704209               -0.09855886               -0.10044534                0.32658538                0.01074245               -0.00315444                0.06183014
              10.00000000                5.00000000               64.00000000                0.67180569               -0.10032799               -0.09073696                0.33221929                0.00554595               -0.00134388                0.06545153
               0.00000000                6.00000000               64.00000000                0.63201110               -0.07854001               -0.07897409                0.25925401                0.00102928               -0.00002103               -0.00906491
               1.00000000                6.00000000               64.00000000                0.15542039               -0.07880093               -0.07798948                0.26428531                0.00475841               -0.00018556               -0.00693400
               2.00000000                6.00000000               64.00000000                0.02640920               -0.03754071               -0.07810573                0.26952716                0.07805850                0.24040956               -0.00167325
               3.00000000                6.00000000               64.00000000                0.04920984               -0.04360773               -0.09924467                0.29314282                0.09268890                0.29479525               -0.03918900
               4.00000000                6.00000000               64.00000000                0.08315637               -0.09484730               -0.09732106                0.30308738                0.03970613                0.07466162               -0.02121812
               5.00000000                6.00000000               64.00000000                0.12373090               -0.09872241               -0.09716869                0.31027293                0.02722031                0.02603813               -0.00176542
               6.00000000                6.00000000               64.00000000                0.17192351               -0.09867406               -0.09867470                0.31657418                0.01865560                0.00949118                0.00947346
               7.00000000                6.00000000               64.00000000                0.22914192               -0.09829754               -0.10069778                0.32251011                0.01271069                0.00250324                0.01733720
               8.00000000                6.00000000               64.00000000                0.29715709               -0.09867171               -0.10208994                0.32831513                0.00807053               -0.00013052                0.02308876
               9.00000000                6.00000000               64.00000000                0.37830048               -0.10057023               -0.10136328                0.33410427                0.00395957               -0.00052258                0.02682494
              10.00000000                6.00000000               64.00000000                0.71666071               -0.10199014               -0.09685277                0.33996593                0.00160116               -0.00032357                0.02845069
               0.00000000                7.00000000               64.00000000                0.68990486               -0.07952728               -0.08017194                0.26249685                0.00099958               -0.00000611               -0.00689338
               1.00000000                7.00000000               64.00000000                0.23335908               -0.07978354               -0.07883266                0.26779687                0.00390800                0.00205725               -0.00492705
               2.00000000                7.00000000               64.00000000                0.05982365               -0.05094500               -0.07948578                0.27338324                0.06496479                0.20864107                0.00083055
               3.00000000                7.00000000               64.00000000                0.08349402               -0.05421754               -0.10358868                0.29547076                0.07156077                0.28568130               -0.06207079
               4.00000000                7.00000000               64.00000000                0.12374400               -0.09301064               -0.09767331                0.30761416                0.03799687                0.10918675               -0.02340222
               5.00000000                7.00000000               64.00000000                0.17190458               -0.10017894               -0.09667264                0.31573001                0.02254055                0.04119587               -0.00579022
               6.00000000                7.00000000               64.00000000                0.22914053               -0.10069660               -0.09829760                0.32250708                0.01270911                0.01734405                0.00250297
               7.00000000                7.00000000               64.00000000                0.29720719               -0.10046934               -0.10046973                0.32876033                0.00676201                0.00721739                0.00721190
               8.00000000                7.00000000               64.00000000                0.37842250               -0.10097025               -0.10210662                0.33479313                0.00318995                0.00270407                0.01020726
               9.00000000                7.00000000               64.00000000                0.47577919               -0.10253230               -0.10257573                0.34074396                0.00116134                0.00075959                0.01199468
              10.00000000                7.00000000               64.00000000                0.77057057               -0.10359108               -0.10151016                0.34670213               -0.00006935                0.00017501                0.01269741
               0.00000000                8.00000000               64.00000000                0.75961181               -0.08050327               -0.08086642                0.26583537                0.00085649                0.00015297               -0.00465744
               1.00000000                8.00000000               64.00000000                0.32853770               -0.08077427               -0.08032485                0.27136031                0.00258310                0.00422153               -0.00275690
               2.00000000                8.00000000               64.00000000                0.10168552               -0.06300744               -0.08175431                0.27729863                0.05075740                0.18514789                0.00205504
               3.00000000                8.00000000               64.00000000                0.12441143               -0.06557520               -0.10353807                0.29835503                0.06387833                0.27690224               -0.04287764
               4.00000000                8.00000000               64.00000000                0.17192770               -0.09354882               -0.09694835                0.31216648                0.03698555                0.13398430               -0.01834021
               5.00000000                8.00000000               64.00000000                0.22908398               -0.10158018               -0.09659745                0.32112314                0.01802033                0.05349998               -0.00571739
               6.00000000                8.00000000               64.00000000                0.29716339               -0.10208936               -0.09867143                0.32831290                0.00807257                0.02309168               -0.00012598
               7.00000000                8.00000000               64.00000000                0.37842274               -0.10210582               -0.10096913                0.33478952                0.00318948                0.01020705                0.00270338
               8.00000000                8.00000000               64.00000000                0.47585688               -0.10285060               -0.10285044                0.34096355                0.00086977                0.00431836                0.00431786
               9.00000000                8.00000000               64.00000000                0.59344191               -0.10431611               -0.10415326                0.34700357                0.00003560                0.00145760                0.00520960
              10.00000000                8.00000000               64.00000000                0.83579843               -0.10520747               -0.10491726                0.35299816               -0.00077480                0.00044716                0.00550605
               0.00000000                9.00000000               64.00000000                0.84260416               -0.08154877               -0.08127535                0.26926161                0.00065828                0.00052508               -0.00246607
               1.00000000                9.00000000               64.00000000                0.44396228               -0.08195711               -0.08202650                0.27498969                0.00135741                0.00585129               -0.00092731
               2.00000000                9.00000000               64.00000000                0.15419337               -0.07414636               -0.08349814                0.28119298                0.03814504                0.16997720                0.00168094
               3.00000000                9.00000000               64.00000000                0.17315262               -0.07984460               -0.09725763                0.30179148                0.04139176                0.27166711               -0.02016127
               4.00000000                9.00000000               64.00000000                0.22912282               -0.09688932               -0.09729687                0.31693558                0.02686005                0.15089438               -0.00909772
               5.00000000                9.00000000               64.00000000                0.29704483               -0.10044409               -0.09855818                0.32658188                0.01074377                0.06182705               -0.00315207
               6.00000000                9.00000000               64.00000000                0.37830069               -0.10136319               -0.10057016                0.33410415                0.00396322                0.02682424               -0.00052496
               7.00000000                9.00000000               64.00000000                0.47577951               -0.10257635               -0.10253261                0.34074566                0.00116132                0.01199343                0.00075796
               8.00000000                9.00000000               64.00000000                0.59344099               -0.10415323               -0.10431581                0.34700324                0.00003437                0.00520940                0.00145663
               9.00000000                9.00000000               64.00000000                0.73662866               -0.10591810               -0.10591820                0.35308800               -0.00021488                0.00182829                0.00182723
              10.00000000                9.00000000               64.00000000                0.91544312               -0.10682753               -0.10749833                0.35909515               -0.00100457                0.00059054                0.00193520
               0.00000000               10.00000000               64.00000000                0.95071817               -0.08294303               -0.08145353                0.27283536               -0.00034343                0.00022754               -0.00123414
               1.00000000               10.00000000               64.00000000                0.76267046               -0.08492968               -0.08284365                0.27863052                0.00027917                0.00568530               -0.00006119
               2.00000000               10.00000000               64.00000000                0.59548330               -0.10178644               -0.08403807                0.28480496                0.03205710                0.16722110                0.00101293
               3.00000000               10.00000000               64.00000000                0.60363977               -0.10201360               -0.09221690                0.30601258                0.01791968                0.27448620               -0.00723435
               4.00000000               10.00000000               64.00000000                0.63435915               -0.08734905               -0.09840796                0.32206075                0.01350488                0.15778772               -0.00355986
               5.00000000               10.00000000               64.00000000                0.67181006               -0.09073471               -0.10032541                0.33221044                0.00554630                0.06544493               -0.00134252
               6.00000000               10.00000000               64.00000000                0.71666579               -0.09685264               -0.10199017                0.33996581                0.00160190                0.02844667               -0.00032724
               7.00000000               10.00000000               64.00000000                0.77056873               -0.10151132               -0.10359276                0.34670631               -0.00006923                0.01269662                0.00017318
               8.00000000               10.00000000               64.00000000                0.83579787               -0.10491723               -0.10520728                0.35299809               -0.00077498                0.00550539                0.00044634
               9.00000000               10.00000000               64.00000000                0.91544593               -0.10749778               -0.10682732                0.35909438               -0.00100498                0.00193539                0.00058940
              10.00000000               10.00000000               64.00000000                0.98381655               -0.10862043               -0.10862077                0.36510424               -0.00196779                0.00062644                0.00062596
               0.00000000                0.00000000               65.00000000                0.75241018               -0.07192634               -0.07192573                0.24102339                0.00144827               -0.00080863               -0.00080491
               1.00000000                0.00000000               65.00000000                0.49860036               -0.06994341               -0.07469219                0.24443157                0.00339874               -0.00458269               -0.00036082
               2.00000000                0.00000000               65.00000000                0.49900802               -0.06949435               -0.07445000                0.24756381                0.00078815               -0.00980668                0.00033626
               3.00000000                0.00000000               65.00000000                0.51887042               -0.07245914               -0.07563695                0.25054338                0.00090691               -0.01187261                0.00018160
               4.00000000                0.00000000               65.00000000                0.54734538               -0.07510332               -0.07660119                0.25344904                0.00089171               -0.01228936                0.00010754
               5.00000000                0.00000000               65.00000000                0.58481804               -0.07726889               -0.07758240                0.25634363                0.00094796               -0.01144517                0.00003225
               6.00000000                0.00000000               65.00000000                0.63198414               -0.07891145               -0.07853673                0.25928848                0.00098059               -0.00967826               -0.00002520
               7.00000000                0.00000000               65.00000000                0.68980596               -0.08003569               -0.07946183                0.26230967                0.00095186               -0.00738942               -0.00000874
               8.00000000                0.00000000               65.00000000                0.75939097               -0.08068501               -0.08037919                0.26543280                0.00081640               -0.00503453                0.00015895
               9.00000000                0.00000000               65.00000000                0.84220510               -0.08106576               -0.08136627                0.26865426                0.00062565               -0.00271218                0.00055797
              10.00000000                0.00000000               65.00000000                0.95047504               -0.08123117               -0.08268046                0.27201947               -0.00037183               -0.00140261                0.00015806
               0.00000000                1.00000000               65.00000000                0.49862328               -0.07469111               -0.06994246                0.24442745                0.00339717               -0.00036605               -0.00457658
               1.00000000                1.00000000               65.00000000                0.01000000               -0.07799154               -0.07799154                0.24786984                0.00835621               -0.00361122               -0.00360112
               2.00000000                1.00000000               65.00000000                0.01000000               -0.08083211               -0.06824163                0.25118541                0.02282770               -0.00787520                0.01730430
               3.00000000                1.00000000               65.00000000                0.01000000               -0.07967798               -0.06049745                0.25443694                0.02465797               -0.00938941                0.03683128
               4.00000000                1.00000000               65.00000000                0.04234525               -0.07854894               -0.07457027                0.25769512                0.00505836               -0.00935167                0.00116031
               5.00000000                1.00000000               65.00000000                0.09233765               -0.07798079               -0.07739093                0.26095734                0.00469904               -0.00849440               -0.00141364
               6.00000000                1.00000000               65.00000000                0.15538263               -0.07806269               -0.07880387                0.26424077                0.00452722               -0.00694866               -0.00009986
               7.00000000                1.00000000               65.00000000                0.23323298               -0.07884648               -0.07972764                0.26755054                0.00373335               -0.00492485                0.00219764
               8.00000000                1.00000000               65.00000000                0.32825602               -0.08025082               -0.08066521                0.27091438                0.00246835               -0.00271412                0.00443277
               9.00000000                1.00000000               65.00000000                0.44349846               -0.08186109               -0.08178548                0.27434893                0.00129144               -0.00085525                0.00613011
              10.00000000                1.00000000               65.00000000                0.76234745               -0.08263554               -0.08459000                0.27778321                0.00021694                0.00001849                0.00582233
               0.00000000                2.00000000               65.00000000                0.49902223               -0.07444739               -0.06949248                0.24755694                0.00078758                0.00033563               -0.00981013
               1.00000000                2.00000000               65.00000000                0.01000000               -0.06824312               -0.08083050                0.25117948                0.02282974                0.01729781               -0.00787448
               2.00000000                2.00000000               65.00000000                0.01000001               -0.07356283               -0.07355479                0.25608748                0.06730655                0.03155673                0.03157830
               3.00000000                2.00000000               65.00000000                0.01000000               -0.10426937               -0.05109028                0.26108739                0.06472916               -0.02560242                0.08222334
               4.00000000                2.00000000               65.00000000                0.01000000               -0.10210235               -0.04616275                0.26243752                0.06635023               -0.04536682                0.16033417
               5.00000000                2.00000000               65.00000000                0.01000001               -0.07934571               -0.03747701                0.26589040                0.08188842               -0.00743009                0.24766375
               6.00000000                2.00000000               65.00000000                0.02640703               -0.07823007               -0.03948438                0.26939664                0.07449604               -0.00124711                0.24992151
               7.00000000                2.00000000               65.00000000                0.05981312               -0.07953945               -0.05233400                0.27307400                0.06189688                0.00133646                0.21731424
               8.00000000                2.00000000               65.00000000                0.10165725               -0.08170292               -0.06386916                0.27682428                0.04824176                0.00254810                0.19327754
               9.00000000                2.00000000               65.00000000                0.15413066               -0.08335763               -0.07447768                0.28051509                0.03611676                0.00201900                0.17785261
              10.00000000                2.00000000               65.00000000                0.59543632               -0.08386682               -0.10057384                0.28390876                0.03009134                0.00120302                0.17529835
               0.00000000                3.00000000               65.00000000                0.51887160               -0.07563526               -0.07245696                0.25053660                0.00090701                0.00018198               -0.01188216
               1.00000000                3.00000000               65.00000000                0.01000000               -0.06050098               -0.07967604                0.25443121                0.02466431                0.03684047               -0.00939804
               2.00000000                3.00000000               65.00000000                0.01000000               -0.05108692               -0.10427079                0.26108920                0.06472672                0.08221314               -0.02569185
               3.00000000                3.00000000               65.00000000                0.01000000               -0.06078797               -0.06080446                0.26843392                0.10387338                0.11671164                0.11669368
               4.00000000                3.00000000               65.00000000                0.01199461               -0.07041700               -0.03790618                0.27797053                0.12900246                0.15184812                0.27423498
               5.00000000                3.00000000               65.00000000                0.02059753               -0.08590440               -0.03788990                0.28863680                0.11957973                0.07743130                0.31033287
               6.00000000                3.00000000               65.00000000                0.04921545               -0.09873288               -0.04556387                0.29348348                0.08831331               -0.04051004                0.30568023
               7.00000000                3.00000000               65.00000000                0.08351114               -0.10283704               -0.05577550                0.29564142                0.06800875               -0.06424905                0.29689342
               8.00000000                3.00000000               65.00000000                0.12444218               -0.10277289               -0.06666871                0.29838353                0.06055229               -0.04428697                0.28849136
               9.00000000                3.00000000               65.00000000                0.17322630               -0.09686273               -0.08026756                0.30167599                0.03915952               -0.02070875                0.28378125
              10.00000000                3.00000000               65.00000000                0.60368030               -0.09213162               -0.10127745                0.30577323                0.01673215               -0.00736048                0.28802682
               0.00000000                4.00000000               65.00000000                0.54733734               -0.07659943               -0.07510179                0.25344214                0.00089187                0.00010827               -0.01228717
               1.00000000                4.00000000               65.00000000                0.04232111               -0.07456993               -0.07854760                0.25768914                0.00505740                0.00104307               -0.00934840
               2.00000000                4.00000000               65.00000000                0.01000000               -0.04617833               -0.10211322                0.26253559                0.06634153                0.16029173               -0.04535446
               3.00000000                4.00000000               65.00000000                0.01199221               -0.03790756               -0.07042607                0.27792339                0.12901804                0.27430607                0.15185855
               4.00000000                4.00000000               65.00000000                0.02054842               -0.07272244               -0.07273551                0.29127451                0.07343755                0.14372645                0.14369616
               5.00000000                4.00000000               65.00000000                0.04906123               -0.09311029               -0.08728401                0.29870825                0.04713317                0.01883069                0.07217429
               6.00000000                4.00000000               65.00000000                0.08316735               -0.09709084               -0.09476552                0.30348381                0.03770889               -0.02198555                0.07720166
               7.00000000                4.00000000               65.00000000                0.12375533               -0.09745864               -0.09307465                0.30795003                0.03603124               -0.02429085                0.11322857
               8.00000000                4.00000000               65.00000000                0.17195354               -0.09680824               -0.09365645                0.31241931                0.03501233               -0.01903386                0.13930121
               9.00000000                4.00000000               65.00000000                0.22915970               -0.09716960               -0.09691171                0.31713048                0.02538713               -0.00946376                0.15739257
              10.00000000                4.00000000               65.00000000                0.63439264               -0.09823293               -0.08806816                0.32221617                0.01263001               -0.00369333                0.16549433
               0.00000000                5.00000000               65.00000000                0.58482026               -0.07758134               -0.07726753                0.25633866                0.00094791                0.00003220               -0.01143719
               1.00000000                5.00000000               65.00000000                0.09234632               -0.07738949               -0.07797958                0.26095320                0.00469364               -0.00141807               -0.00848552
               2.00000000                5.00000000               65.00000000                0.01000001               -0.03745894               -0.07934161                0.26585861                0.08187690                0.24769025               -0.00732023
               3.00000000                5.00000000               65.00000000                0.02060416               -0.03788859               -0.08589460                0.28860044                0.11960395                0.31032675                0.07744395
               4.00000000                5.00000000               65.00000000                0.04906113               -0.08730689               -0.09311420                0.29872520                0.04715980                0.07214077                0.01881846
               5.00000000                5.00000000               65.00000000                0.08316620               -0.09690232               -0.09689774                0.30500943                0.03247638                0.00990806                0.00991761
               6.00000000                5.00000000               65.00000000                0.12375306               -0.09706631               -0.09856091                0.31067177                0.02584291               -0.00195081                0.02677878
               7.00000000                5.00000000               65.00000000                0.17193166               -0.09666342               -0.10003119                0.31610278                0.02139114               -0.00613027                0.04257903
               8.00000000                5.00000000               65.00000000                0.22911964               -0.09665503               -0.10145556                0.32146447                0.01708772               -0.00604809                0.05552565
               9.00000000                5.00000000               65.00000000                0.29710072               -0.09856854               -0.10050871                0.32690289                0.01018008               -0.00336101                0.06447445
              10.00000000                5.00000000               65.00000000                0.67184470               -0.10026904               -0.09150365                0.33253075                0.00514635               -0.00143392                0.06870976
               0.00000000                6.00000000               65.00000000                0.63200237               -0.07853497               -0.07890972                0.25928038                0.00098054               -0.00002607               -0.00967529
               1.00000000                6.00000000               65.00000000                0.15537913               -0.07880059               -0.07806123                0.26423327                0.00452983               -0.00011936               -0.00694497
               2.00000000                6.00000000               65.00000000                0.02640850               -0.03948174               -0.07822321                0.26937154                0.07449087                0.24989612               -0.00123836
               3.00000000                6.00000000               65.00000000                0.04921887               -0.04555912               -0.09872082                0.29342156                0.08829060                0.30566855               -0.04054745
               4.00000000                6.00000000               65.00000000                0.08316458               -0.09476872               -0.09709561                0.30350921                0.03771605                0.07721282               -0.02201207
               5.00000000                6.00000000               65.00000000                0.12375245               -0.09856992               -0.09707251                0.31069617                0.02585318                0.02678683               -0.00195311
               6.00000000                6.00000000               65.00000000                0.17195443               -0.09860494               -0.09860547                0.31697494                0.01772174                0.00964901                0.00964757
               7.00000000                6.00000000               65.00000000                0.22918657               -0.09832560               -0.10062238                0.32289612                0.01207915                0.00243646                0.01783083
               8.00000000                6.00000000               65.00000000                0.29723266               -0.09875462               -0.10204852                0.32868214                0.00767870               -0.00026630                0.02389906
               9.00000000                6.00000000               65.00000000                0.37840148               -0.10062699               -0.10148497                0.33446567                0.00377207               -0.00063523                0.02793140
              10.00000000                6.00000000               65.00000000                0.71672556               -0.10200941               -0.09736865                0.34034225                0.00144694               -0.00038040                0.02982083
               0.00000000                7.00000000               65.00000000                0.68979949               -0.07945997               -0.08003502                0.26230352                0.00095214               -0.00000937               -0.00739194
               1.00000000                7.00000000               65.00000000                0.23323524               -0.07972641               -0.07884619                0.26754577                0.00373345                0.00219825               -0.00492673
               2.00000000                7.00000000               65.00000000                0.05981390               -0.05233231               -0.07954213                0.27308300                0.06189169                0.21730202                0.00135791
               3.00000000                7.00000000               65.00000000                0.08351665               -0.05577193               -0.10283196                0.29562405                0.06799598                0.29686591               -0.06424700
               4.00000000                7.00000000               65.00000000                0.12375363               -0.09307522               -0.09745674                0.30794875                0.03602469                0.11322596               -0.02428562
               5.00000000                7.00000000               65.00000000                0.17193271               -0.10003559               -0.09666744                0.31611691                0.02139546                0.04258648               -0.00613148
               6.00000000                7.00000000               65.00000000                0.22918001               -0.10062390               -0.09832816                0.32290072                0.01208313                0.01783053                0.00243281
               7.00000000                7.00000000               65.00000000                0.29728200               -0.10049221               -0.10049302                0.32914296                0.00644669                0.00735112                0.00734832
               8.00000000                7.00000000               65.00000000                0.37853511               -0.10104670               -0.10215070                0.33516244                0.00305669                0.00269590                0.01051322
               9.00000000                7.00000000               65.00000000                0.47595390               -0.10261144               -0.10271172                0.34111832                0.00112152                0.00072060                0.01244700
              10.00000000                7.00000000               65.00000000                0.77067329               -0.10365891               -0.10183012                0.34709803               -0.00011808                0.00015225                0.01324942
               0.00000000                8.00000000               65.00000000                0.75938965               -0.08037840               -0.08068513                0.26542984                0.00081596                0.00015954               -0.00503643
               1.00000000                8.00000000               65.00000000                0.32826618               -0.08066412               -0.08025113                0.27091221                0.00246873                0.00443581               -0.00271665
               2.00000000                8.00000000               65.00000000                0.10165694               -0.06387403               -0.08170228                0.27681411                0.04824421                0.19324954                0.00254595
               3.00000000                8.00000000               65.00000000                0.12444251               -0.06666849               -0.10276883                0.29837150                0.06054746                0.28846674               -0.04428961
               4.00000000                8.00000000               65.00000000                0.17195992               -0.09365048               -0.09680543                0.31241383                0.03500370                0.13931148               -0.01902316
               5.00000000                8.00000000               65.00000000                0.22911968               -0.10145602               -0.09665477                0.32146701                0.01708646                0.05552098               -0.00605070
               6.00000000                8.00000000               65.00000000                0.29723097               -0.10204939               -0.09875546                0.32868425                0.00768062                0.02389586               -0.00026734
               7.00000000                8.00000000               65.00000000                0.37853572               -0.10215109               -0.10104785                0.33516475                0.00305825                0.01051614                0.00269553
               8.00000000                8.00000000               65.00000000                0.47604508               -0.10293803               -0.10293796                0.34133174                0.00085401                0.00441416                0.00441252
               9.00000000                8.00000000               65.00000000                0.59372984               -0.10441298               -0.10428236                0.34737787                0.00004991                0.00147175                0.00537960
              10.00000000                8.00000000               65.00000000                0.83597461               -0.10530316               -0.10511686                0.35339418               -0.00078052                0.00044788                0.00570556
               0.00000000                9.00000000               65.00000000                0.84222204               -0.08136211               -0.08106298                0.26864245                0.00062474                0.00055716               -0.00271224
               1.00000000                9.00000000               65.00000000                0.44349802               -0.08178200               -0.08185874                0.27433918                0.00129497                0.00612587               -0.00085690
               2.00000000                9.00000000               65.00000000                0.15413385               -0.07448023               -0.08335480                0.28051032                0.03612076                0.17783133                0.00201315
               3.00000000                9.00000000               65.00000000                0.17322190               -0.08027123               -0.09686431                0.30168488                0.03916405                0.28377310               -0.02069636
               4.00000000                9.00000000               65.00000000                0.22916584               -0.09691030               -0.09716977                0.31713006                0.02538188                0.15739623               -0.00946204
               5.00000000                9.00000000               65.00000000                0.29710108               -0.10050753               -0.09856793                0.32690126                0.01017779                0.06446760               -0.00336495
               6.00000000                9.00000000               65.00000000                0.37840345               -0.10148456               -0.10062713                0.33446625                0.00377181                0.02793043               -0.00063362
               7.00000000                9.00000000               65.00000000                0.47595974               -0.10271144               -0.10261144                0.34111735                0.00112260                0.01244770                0.00072219
               8.00000000                9.00000000               65.00000000                0.59372711               -0.10428276               -0.10441360                0.34737926                0.00005135                0.00537894                0.00147122
               9.00000000                9.00000000               65.00000000                0.73709704               -0.10603901               -0.10603896                0.35347198               -0.00019461                0.00187692                0.00187673
              10.00000000                9.00000000               65.00000000                0.91572973               -0.10694461               -0.10764173                0.35949756               -0.00100125                0.00060871                0.00199299
               0.00000000               10.00000000               65.00000000                0.95047028               -0.08267371               -0.08122597                0.27200135               -0.00037312                0.00015704               -0.00140200
               1.00000000               10.00000000               65.00000000                0.76234895               -0.08458550               -0.08263110                0.27776899                0.00021880                0.00581746                0.00001643
               2.00000000               10.00000000               65.00000000                0.59543911               -0.10057376               -0.08386496                0.28391079                0.03008964                0.17528144                0.00119552
               3.00000000               10.00000000               65.00000000                0.60368297               -0.10128149               -0.09213661                0.30578859                0.01673527                0.28802065               -0.00735529
               4.00000000               10.00000000               65.00000000                0.63439277               -0.08807110               -0.09823454                0.32221691                0.01262985                0.16549416               -0.00369247
               5.00000000               10.00000000               65.00000000                0.67184464               -0.09150349               -0.10026889                0.33252737                0.00514534                0.06870376               -0.00143657
               6.00000000               10.00000000               65.00000000                0.71672401               -0.09736781               -0.10200948                0.34034157                0.00144691                0.02982089               -0.00037882
               7.00000000               10.00000000               65.00000000                0.77067517               -0.10182918               -0.10365800                0.34709439               -0.00011781                0.01324826                0.00015442
               8.00000000               10.00000000               65.00000000                0.83598048               -0.10511706               -0.10530419                0.35339511               -0.00077996                0.00570337                0.00044822
               9.00000000               10.00000000               65.00000000                0.91573715               -0.10764231               -0.10694516                0.35949896               -0.00100036                0.00199281                0.00060837
              10.00000000               10.00000000               65.00000000                0.98399931               -0.10875078               -0.10875044                0.36552503               -0.00197151                0.00065092                0.00065038
               0.00000000                0.00000000               66.00000000                0.75264621               -0.07233075               -0.07233014                0.24230089                0.00135916               -0.00083196               -0.00083449
               1.00000000                0.00000000               66.00000000                0.49892208               -0.07046803               -0.07492873                0.24549579                0.00319671               -0.00475919               -0.00035981
               2.00000000                0.00000000               66.00000000                0.49917574               -0.07004097               -0.07469687                0.24842955                0.00074799               -0.01029330                0.00038982
               3.00000000                0.00000000               66.00000000                0.51899760               -0.07281197               -0.07581122                0.25120725                0.00085903               -0.01253197                0.00021109
               4.00000000                0.00000000               66.00000000                0.54744272               -0.07527799               -0.07671620                0.25390962                0.00084389               -0.01301288                0.00011963
               5.00000000                0.00000000               66.00000000                0.58485125               -0.07729517               -0.07763720                0.25659913                0.00089431               -0.01214712                0.00003251
               6.00000000                0.00000000               66.00000000                0.63197061               -0.07882587               -0.07852933                0.25932664                0.00092359               -0.01029855               -0.00003172
               7.00000000                0.00000000               66.00000000                0.68967481               -0.07987750               -0.07939599                0.26213283                0.00089666               -0.00789550               -0.00001401
               8.00000000                0.00000000               66.00000000                0.75916173               -0.08048636               -0.08025324                0.26503450                0.00076922               -0.00541638                0.00016738
               9.00000000                0.00000000               66.00000000                0.84183365               -0.08084144               -0.08117267                0.26802582                0.00058929               -0.00295726                0.00058713
              10.00000000                0.00000000               66.00000000                0.95022531               -0.08099511               -0.08239834                0.27116847               -0.00039876               -0.00156844                0.00007073
               0.00000000                1.00000000               66.00000000                0.49891201               -0.07492790               -0.07046653                0.24549238                0.00319486               -0.00035612               -0.00476269
               1.00000000                1.00000000               66.00000000                0.01000000               -0.07803581               -0.07803506                0.24872222                0.00786375               -0.00364730               -0.00365241
               2.00000000                1.00000000               66.00000000                0.01000000               -0.08072082               -0.06884251                0.25185180                0.02150070               -0.00790377                0.01800616
               3.00000000                1.00000000               66.00000000                0.01000000               -0.07965513               -0.06151470                0.25492528                0.02317847               -0.00938522                0.03827768
               4.00000000                1.00000000               66.00000000                0.04241388               -0.07861257               -0.07484728                0.25800855                0.00464455               -0.00931925                0.00132504
               5.00000000                1.00000000               66.00000000                0.09239869               -0.07808953               -0.07748713                0.26109285                0.00433741               -0.00846331               -0.00121309
               6.00000000                1.00000000               66.00000000                0.15533248               -0.07816469               -0.07880580                0.26418175                0.00421479               -0.00692708               -0.00001964
               7.00000000                1.00000000               66.00000000                0.23309756               -0.07889019               -0.07967358                0.26729380                0.00349408               -0.00489952                0.00233262
               8.00000000                1.00000000               66.00000000                0.32798067               -0.08019368               -0.08055608                0.27044895                0.00231815               -0.00265357                0.00466622
               9.00000000                1.00000000               66.00000000                0.44297128               -0.08169255               -0.08160753                0.27366427                0.00121020               -0.00077009                0.00639921
              10.00000000                1.00000000               66.00000000                0.76201234               -0.08241501               -0.08421080                0.27687928                0.00013849                0.00010787                0.00592304
               0.00000000                2.00000000               66.00000000                0.49917429               -0.07469283               -0.07003882                0.24842095                0.00074750                0.00039122               -0.01029280
               1.00000000                2.00000000               66.00000000                0.01000000               -0.06884393               -0.08071872                0.25184436                0.02150222                0.01800821               -0.00790446
               2.00000000                2.00000000               66.00000000                0.01000001               -0.07392197               -0.07389794                0.25663065                0.06344536                0.03280777                0.03279630
               3.00000000                2.00000000               66.00000000                0.01000000               -0.10297859               -0.05270780                0.26151080                0.06089715               -0.02614521                0.08500866
               4.00000000                2.00000000               66.00000000                0.01000000               -0.10092660               -0.04810275                0.26267816                0.06233532               -0.04601538                0.16619981
               5.00000000                2.00000000               66.00000000                0.01000001               -0.07942695               -0.03997505                0.26586080                0.07689915               -0.00693036                0.25700237
               6.00000000                2.00000000               66.00000000                0.02640271               -0.07839380               -0.04198350                0.26922917                0.06983276               -0.00080048                0.25970162
               7.00000000                2.00000000               66.00000000                0.05979340               -0.07963622               -0.05413908                0.27273452                0.05788907                0.00191352                0.22626199
               8.00000000                2.00000000               66.00000000                0.10162486               -0.08166692               -0.06501909                0.27629437                0.04497061                0.00307847                0.20167527
               9.00000000                2.00000000               66.00000000                0.15405424               -0.08321801               -0.07497325                0.27978423                0.03349152                0.00234472                0.18601019
              10.00000000                2.00000000               66.00000000                0.59538163               -0.08369598               -0.09910559                0.28295676                0.02756834                0.00136995                0.18369637
               0.00000000                3.00000000               66.00000000                0.51900055               -0.07581002               -0.07281133                0.25120376                0.00085980                0.00021180               -0.01252820
               1.00000000                3.00000000               66.00000000                0.01000000               -0.06151977               -0.07965469                0.25492303                0.02319931                0.03826938               -0.00938030
               2.00000000                3.00000000               66.00000000                0.01000000               -0.05271912               -0.10296181                0.26149460                0.06091001                0.08501384               -0.02609025
               3.00000000                3.00000000               66.00000000                0.01000000               -0.06205459               -0.06207003                0.26883465                0.09784320                0.12063267                0.12060879
               4.00000000                3.00000000               66.00000000                0.01199677               -0.07136127               -0.04058021                0.27831081                0.12134503                0.15718948                0.28369912
               5.00000000                3.00000000               66.00000000                0.02060267               -0.08604648               -0.04071066                0.28916470                0.11220096                0.08023011                0.32116714
               6.00000000                3.00000000               66.00000000                0.04921952               -0.09806301               -0.04806340                0.29386236                0.08257324               -0.04191380                0.31682502
               7.00000000                3.00000000               66.00000000                0.08353125               -0.10187587               -0.05777605                0.29586814                0.06337018               -0.06649977                0.30843884
               8.00000000                3.00000000               66.00000000                0.12447293               -0.10179406               -0.06809543                0.29842391                0.05622706               -0.04574581                0.30042847
               9.00000000                3.00000000               66.00000000                0.17328916               -0.09635648               -0.08086063                0.30157397                0.03626270               -0.02126331                0.29634727
              10.00000000                3.00000000               66.00000000                0.60372653               -0.09202143               -0.10040629                0.30554704                0.01520537               -0.00748762                0.30218400
               0.00000000                4.00000000               66.00000000                0.54744170               -0.07671502               -0.07527797                0.25390631                0.00084351                0.00012003               -0.01300814
               1.00000000                4.00000000               66.00000000                0.04239988               -0.07484618               -0.07861279                0.25800632                0.00466336                0.00138995               -0.00931386
               2.00000000                4.00000000               66.00000000                0.01000000               -0.04812813               -0.10094152                0.26286442                0.06233155                0.16617722               -0.04605490
               3.00000000                4.00000000               66.00000000                0.01199298               -0.04057587               -0.07138193                0.27839776                0.12132051                0.28367115                0.15718834
               4.00000000                4.00000000               66.00000000                0.02054621               -0.07370044               -0.07373112                0.29194289                0.06874101                0.14871493                0.14868713
               5.00000000                4.00000000               66.00000000                0.04906502               -0.09300398               -0.08756459                0.29935583                0.04402186                0.01948816                0.07452054
               6.00000000                4.00000000               66.00000000                0.08316999               -0.09679434               -0.09464977                0.30402511                0.03512680               -0.02284502                0.07979077
               7.00000000                4.00000000               66.00000000                0.12377157               -0.09717433               -0.09314205                0.30835803                0.03348341               -0.02521478                0.11735966
               8.00000000                4.00000000               66.00000000                0.17198156               -0.09662016               -0.09378323                0.31272959                0.03246078               -0.01976368                0.14477974
               9.00000000                4.00000000               66.00000000                0.22920717               -0.09700608               -0.09693514                0.31737593                0.02348445               -0.00985002                0.16412561
              10.00000000                4.00000000               66.00000000                0.63442074               -0.09801172               -0.08900078                0.32241300                0.01150197               -0.00383115                0.17353718
               0.00000000                5.00000000               66.00000000                0.58486162               -0.07763437               -0.07729296                0.25659122                0.00089342                0.00003230               -0.01214486
               1.00000000                5.00000000               66.00000000                0.09236983               -0.07748491               -0.07808750                0.26108600                0.00434560               -0.00128088               -0.00846015
               2.00000000                5.00000000               66.00000000                0.01000001               -0.03998727               -0.07944416                0.26591793                0.07688939                0.25695966               -0.00697833
               3.00000000                5.00000000               66.00000000                0.02060515               -0.04070926               -0.08604297                0.28911528                0.11221578                0.32121294                0.08026111
               4.00000000                5.00000000               66.00000000                0.04907175               -0.08754583               -0.09299946                0.29928179                0.04401897                0.07454753                0.01948659
               5.00000000                5.00000000               66.00000000                0.08317795               -0.09669033               -0.09668995                0.30557659                0.03026782                0.01004996                0.01006431
               6.00000000                5.00000000               66.00000000                0.12376322               -0.09694086               -0.09835500                0.31120120                0.02408002               -0.00219717                0.02751691
               7.00000000                5.00000000               66.00000000                0.17196023               -0.09664622               -0.09983454                0.31656550                0.01991213               -0.00649507                0.04397287
               8.00000000                5.00000000               66.00000000                0.22916223               -0.09671701               -0.10128222                0.32186711                0.01588191               -0.00640913                0.05758007
               9.00000000                5.00000000               66.00000000                0.29716274               -0.09857020               -0.10057361                0.32727089                0.00944881               -0.00359660                0.06718346
              10.00000000                5.00000000               66.00000000                0.67187986               -0.10018554               -0.09247261                0.33288757                0.00463557               -0.00153866                0.07208359
               0.00000000                6.00000000               66.00000000                0.63197790               -0.07852405               -0.07882208                0.25931305                0.00092337               -0.00003125               -0.01029658
               1.00000000                6.00000000               66.00000000                0.15534518               -0.07880317               -0.07816131                0.26416949                0.00421441               -0.00001136               -0.00692365
               2.00000000                6.00000000               66.00000000                0.02641342               -0.04198196               -0.07839902                0.26926463                0.06982453                0.25966546               -0.00072221
               3.00000000                6.00000000               66.00000000                0.04922204               -0.04806508               -0.09805021                0.29381013                0.08258024                0.31678175               -0.04189261
               4.00000000                6.00000000               66.00000000                0.08317381               -0.09465094               -0.09678958                0.30401639                0.03512771                0.07980928               -0.02285729
               5.00000000                6.00000000               66.00000000                0.12376995               -0.09835337               -0.09693406                0.31118355                0.02407404                0.02751399               -0.00219614
               6.00000000                6.00000000               66.00000000                0.17198451               -0.09850498               -0.09850349                0.31745925                0.01651722                0.00978983                0.00979401
               7.00000000                6.00000000               66.00000000                0.22924230               -0.09834874               -0.10051075                0.32334158                0.01127004                0.00233940                0.01830463
               8.00000000                6.00000000               66.00000000                0.29730263               -0.09884517               -0.10197569                0.32909555                0.00717163               -0.00044224                0.02469124
               9.00000000                6.00000000               66.00000000                0.37851857               -0.10068063               -0.10161651                0.33486035                0.00352326               -0.00076209                0.02903735
              10.00000000                6.00000000               66.00000000                0.71679507               -0.10201181               -0.09800138                0.34073882                0.00124997               -0.00043885                0.03120945
               0.00000000                7.00000000               66.00000000                0.68968796               -0.07939211               -0.07987482                0.26212318                0.00089733               -0.00001268               -0.00789010
               1.00000000                7.00000000               66.00000000                0.23310960               -0.07967056               -0.07888781                0.26728531                0.00349225                0.00234456               -0.00489342
               2.00000000                7.00000000               66.00000000                0.05980038               -0.05414264               -0.07963011                0.27272410                0.05788901                0.22621933                0.00190481
               3.00000000                7.00000000               66.00000000                0.08352795               -0.05777869               -0.10186459                0.29583338                0.06336317                0.30839059               -0.06647957
               4.00000000                7.00000000               66.00000000                0.12377485               -0.09313770               -0.09717430                0.30835323                0.03347910                0.11738122               -0.02521832
               5.00000000                7.00000000               66.00000000                0.17196338               -0.09983285               -0.09664476                0.31655667                0.01991276                0.04397203               -0.00650481
               6.00000000                7.00000000               66.00000000                0.22923051               -0.10051258               -0.09834850                0.32334909                0.01127045                0.01829947                0.00233932
               7.00000000                7.00000000               66.00000000                0.29736910               -0.10050165               -0.10050140                0.32956324                0.00603758                0.00745199                0.00745157
               8.00000000                7.00000000               66.00000000                0.37866275               -0.10112461               -0.10218412                0.33556493                0.00288224                0.00265564                0.01079688
               9.00000000                7.00000000               66.00000000                0.47615024               -0.10268784               -0.10285699                0.34150928                0.00106837                0.00066624                0.01287877
              10.00000000                7.00000000               66.00000000                0.77079510               -0.10371604               -0.10220550                0.34749358               -0.00018009                0.00012486                0.01377870
               0.00000000                8.00000000               66.00000000                0.75917423               -0.08025066               -0.08048484                0.26502834                0.00077063                0.00016671               -0.00541914
               1.00000000                8.00000000               66.00000000                0.32797175               -0.08055401               -0.08019244                0.27044419                0.00232204                0.00465609               -0.00265567
               2.00000000                8.00000000               66.00000000                0.10162834               -0.06502141               -0.08166214                0.27628936                0.04496995                0.20165011                0.00306422
               3.00000000                8.00000000               66.00000000                0.12447298               -0.06809883               -0.10179471                0.29842870                0.05621979                0.30041828               -0.04572240
               4.00000000                8.00000000               66.00000000                0.17198679               -0.09378055               -0.09661931                0.31272059                0.03245524                0.14478100               -0.01975869
               5.00000000                8.00000000               66.00000000                0.22916310               -0.10127961               -0.09671759                0.32186372                0.01588074                0.05758276               -0.00641663
               6.00000000                8.00000000               66.00000000                0.29731087               -0.10197682               -0.09884594                0.32910018                0.00717135                0.02469309               -0.00044065
               7.00000000                8.00000000               66.00000000                0.37866887               -0.10218418               -0.10112562                0.33556641                0.00288246                0.01079473                0.00265501
               8.00000000                8.00000000               66.00000000                0.47624795               -0.10302258               -0.10302349                0.34171658                0.00082726                0.00447847                0.00448194
               9.00000000                8.00000000               66.00000000                0.59404328               -0.10450721               -0.10441625                0.34775558                0.00006705                0.00147036                0.00552163
              10.00000000                8.00000000               66.00000000                0.83617062               -0.10539428               -0.10533612                0.35377938               -0.00078511                0.00044616                0.00587199
               0.00000000                9.00000000               66.00000000                0.84182664               -0.08117053               -0.08083971                0.26801829                0.00059098                0.00058790               -0.00296599
               1.00000000                9.00000000               66.00000000                0.44295494               -0.08160727               -0.08169229                0.27366202                0.00121377                0.00639507               -0.00077675
               2.00000000                9.00000000               66.00000000                0.15405576               -0.07497721               -0.08322393                0.27980277                0.03348885                0.18599581                0.00234951
               3.00000000                9.00000000               66.00000000                0.17328842               -0.08086264               -0.09636037                0.30158312                0.03625527                0.29633998               -0.02125902
               4.00000000                9.00000000               66.00000000                0.22921656               -0.09693239               -0.09700348                0.31736653                0.02348340                0.16411916               -0.00984315
               5.00000000                9.00000000               66.00000000                0.29716550               -0.10057230               -0.09856883                0.32726569                0.00944753                0.06717957               -0.00359705
               6.00000000                9.00000000               66.00000000                0.37852017               -0.10161717               -0.10067997                0.33485936                0.00352268                0.02903691               -0.00076499
               7.00000000                9.00000000               66.00000000                0.47615057               -0.10285664               -0.10268706                0.34150687                0.00106780                0.01287766                0.00066140
               8.00000000                9.00000000               66.00000000                0.59405267               -0.10441508               -0.10450615                0.34775168                0.00006655                0.00552132                0.00147129
               9.00000000                9.00000000               66.00000000                0.73759451               -0.10615476               -0.10615475                0.35383462               -0.00017100                0.00190684                0.00190910
              10.00000000                9.00000000               66.00000000                0.91604474               -0.10705300               -0.10778153                0.35986675               -0.00099173                0.00061903                0.00202749
               0.00000000               10.00000000               66.00000000                0.95020114               -0.08239734               -0.08099314                0.27116218               -0.00039906                0.00007319               -0.00157799
               1.00000000               10.00000000               66.00000000                0.76201559               -0.08421160               -0.08241546                0.27688009                0.00013569                0.00592415                0.00010126
               2.00000000               10.00000000               66.00000000                0.59538787               -0.09911041               -0.08370692                0.28298046                0.02756541                0.18368368                0.00137639
               3.00000000               10.00000000               66.00000000                0.60372697               -0.10040750               -0.09202478                0.30555424                0.01520627                0.30217226               -0.00748576
               4.00000000               10.00000000               66.00000000                0.63441947               -0.08899804               -0.09800773                0.32240377                0.01150453                0.17352893               -0.00382694
               5.00000000               10.00000000               66.00000000                0.67188452               -0.09247278               -0.10018286                0.33288092                0.00463367                0.07207491               -0.00153713
               6.00000000               10.00000000               66.00000000                0.71679220               -0.09800228               -0.10201062                0.34073663                0.00124936                0.03120597               -0.00044153
               7.00000000               10.00000000               66.00000000                0.77079419               -0.10220493               -0.10371426                0.34749026               -0.00017993                0.01377915                0.00011900
               8.00000000               10.00000000               66.00000000                0.83617202               -0.10533450               -0.10539174                0.35377337               -0.00078578                0.00587483                0.00044578
               9.00000000               10.00000000               66.00000000                0.91605336               -0.10778063               -0.10705204                0.35986376               -0.00099291                0.00202605                0.00062159
              10.00000000               10.00000000               66.00000000                0.98418887               -0.10886705               -0.10886738                0.36589455               -0.00196882                0.00066138                0.00066384
               0.00000000                0.00000000               67.00000000                0.75289445               -0.07275649               -0.07275666                0.24360114                0.00126220               -0.00085309               -0.00085158
               1.00000000                0.00000000               67.00000000                0.49925276               -0.07105223               -0.07515634                0.24657534                0.00294219               -0.00492653               -0.00034607
               2.00000000                0.00000000               67.00000000                0.49934452               -0.07066575               -0.07495040                0.24930659                0.00069989               -0.01076420                0.00044803
               3.00000000                0.00000000               67.00000000                0.51913602               -0.07320545               -0.07599000                0.25188875                0.00080197               -0.01317892                0.00024346
               4.00000000                0.00000000               67.00000000                0.54755007               -0.07546027               -0.07683197                0.25438360                0.00078614               -0.01372795                0.00013336
               5.00000000                0.00000000               67.00000000                0.58490010               -0.07730632               -0.07769109                0.25686765                0.00083115               -0.01284560                0.00003189
               6.00000000                0.00000000               67.00000000                0.63194848               -0.07871484               -0.07852231                0.25938218                0.00085639               -0.01091610               -0.00003883
               7.00000000                0.00000000               67.00000000                0.68956101               -0.07969294               -0.07932849                0.26197029                0.00083192               -0.00839651               -0.00002068
               8.00000000                0.00000000               67.00000000                0.75890693               -0.08026924               -0.08012667                0.26465133                0.00071729               -0.00580906                0.00017127
               9.00000000                0.00000000               67.00000000                0.84140445               -0.08060951               -0.08097673                0.26740483                0.00055266               -0.00322064                0.00062025
              10.00000000                0.00000000               67.00000000                0.94993094               -0.08075621               -0.08210572                0.27031307               -0.00042230               -0.00175469               -0.00001611
               0.00000000                1.00000000               67.00000000                0.49925497               -0.07515793               -0.07105252                0.24657742                0.00294497               -0.00034814               -0.00492482
               1.00000000                1.00000000               67.00000000                0.01000000               -0.07802446               -0.07802414                0.24958652                0.00722928               -0.00367282               -0.00366970
               2.00000000                1.00000000               67.00000000                0.01000000               -0.08052456               -0.06954358                0.25252048                0.01981334               -0.00788710                0.01875455
               3.00000000                1.00000000               67.00000000                0.01000000               -0.07958920               -0.06274583                0.25541944                0.02132684               -0.00931811                0.03975103
               4.00000000                1.00000000               67.00000000                0.04250146               -0.07867003               -0.07517330                0.25831893                0.00411959               -0.00922679                0.00175102
               5.00000000                1.00000000               67.00000000                0.09241453               -0.07821697               -0.07759676                0.26122005                0.00386990               -0.00838293               -0.00114200
               6.00000000                1.00000000               67.00000000                0.15529351               -0.07829840               -0.07881080                0.26411412                0.00380796               -0.00686676                0.00007730
               7.00000000                1.00000000               67.00000000                0.23293850               -0.07896369               -0.07961878                0.26702112                0.00318180               -0.00484460                0.00246498
               8.00000000                1.00000000               67.00000000                0.32766111               -0.08015378               -0.08044725                0.26996318                0.00212922               -0.00258254                0.00487462
               9.00000000                1.00000000               67.00000000                0.44237810               -0.08152745               -0.08142966                0.27295467                0.00111485               -0.00068171                0.00667766
              10.00000000                1.00000000               67.00000000                0.76163650               -0.08219209               -0.08379718                0.27594251                0.00004219                0.00020025                0.00603436
               0.00000000                2.00000000               67.00000000                0.49934634               -0.07495635               -0.07066604                0.24931211                0.00070025                0.00044777               -0.01076563
               1.00000000                2.00000000               67.00000000                0.01000000               -0.06954885               -0.08052532                0.25252789                0.01981751                0.01875266               -0.00788701
               2.00000000                2.00000000               67.00000000                0.01000001               -0.07430167               -0.07430785                0.25718798                0.05858305                0.03408980                0.03408332
               3.00000000                2.00000000               67.00000000                0.01000000               -0.10131923               -0.05469756                0.26191759                0.05607275               -0.02647689                0.08790512
               4.00000000                2.00000000               67.00000000                0.01000000               -0.09946152               -0.05049659                0.26310850                0.05727895               -0.04671162                0.17227893
               5.00000000                2.00000000               67.00000000                0.01000001               -0.07954136               -0.04305710                0.26583768                0.07063643               -0.00657979                0.26668844
               6.00000000                2.00000000               67.00000000                0.02640709               -0.07861381               -0.04506209                0.26905060                0.06396546               -0.00017384                0.26986696
               7.00000000                2.00000000               67.00000000                0.05979090               -0.07976866               -0.05638155                0.27234871                0.05285996                0.00249464                0.23554853
               8.00000000                2.00000000               67.00000000                0.10158683               -0.08163867               -0.06647386                0.27568763                0.04087164                0.00363886                0.21042853
               9.00000000                2.00000000               67.00000000                0.15396508               -0.08308796               -0.07564328                0.27901542                0.03020821                0.00272039                0.19455010
              10.00000000                2.00000000               67.00000000                0.59532228               -0.08354444               -0.09736042                0.28197969                0.02443561                0.00157519                0.19251411
               0.00000000                3.00000000               67.00000000                0.51913487               -0.07599065               -0.07320444                0.25188689                0.00080019                0.00024315               -0.01318129
               1.00000000                3.00000000               67.00000000                0.01000000               -0.06274536               -0.07958840                0.25541862                0.02132362                0.03974590               -0.00932015
               2.00000000                3.00000000               67.00000000                0.01000000               -0.05470805               -0.10130858                0.26194085                0.05609683                0.08791442               -0.02643237
               3.00000000                3.00000000               67.00000000                0.01000000               -0.06361781               -0.06359897                0.26926481                0.09033978                0.12469513                0.12472240
               4.00000000                3.00000000               67.00000000                0.01200188               -0.07254727               -0.04384791                0.27882160                0.11180176                0.16277183                0.29348699
               5.00000000                3.00000000               67.00000000                0.02061166               -0.08625092               -0.04419068                0.28971852                0.10299405                0.08320035                0.33246680
               6.00000000                3.00000000               67.00000000                0.04922896               -0.09724381               -0.05115189                0.29436504                0.07539052               -0.04339315                0.32835016
               7.00000000                3.00000000               67.00000000                0.08354364               -0.10067107               -0.06026785                0.29612222                0.05754831               -0.06886421                0.32037634
               8.00000000                3.00000000               67.00000000                0.12450461               -0.10058187               -0.06989511                0.29851459                0.05079823               -0.04725983                0.31285998
               9.00000000                3.00000000               67.00000000                0.17335364               -0.09573560               -0.08164518                0.30151166                0.03262373               -0.02184240                0.30946413
              10.00000000                3.00000000               67.00000000                0.60377209               -0.09188889               -0.09939584                0.30534510                0.01330815               -0.00761199                0.31702824
               0.00000000                4.00000000               67.00000000                0.54753400               -0.07683148               -0.07545827                0.25438141                0.00078572                0.00013384               -0.01372592
               1.00000000                4.00000000               67.00000000                0.04250554               -0.07516352               -0.07866813                0.25831765                0.00413346                0.00182155               -0.00922407
               2.00000000                4.00000000               67.00000000                0.01000000               -0.05047204               -0.09945597                0.26297225                0.05729284                0.17232206               -0.04668020
               3.00000000                4.00000000               67.00000000                0.01200512               -0.04384703               -0.07254368                0.27890369                0.11177763                0.29345636                0.16277467
               4.00000000                4.00000000               67.00000000                0.02055668               -0.07497483               -0.07495257                0.29272032                0.06286454                0.15381886                0.15381512
               5.00000000                4.00000000               67.00000000                0.04907265               -0.09291108               -0.08790195                0.30013861                0.04011322                0.01997787                0.07689640
               6.00000000                4.00000000               67.00000000                0.08318647               -0.09642414               -0.09451449                0.30466592                0.03191903               -0.02377178                0.08242897
               7.00000000                4.00000000               67.00000000                0.12379133               -0.09682067               -0.09323193                0.30885791                0.03030718               -0.02623482                0.12162345
               8.00000000                4.00000000               67.00000000                0.17200872               -0.09639093               -0.09394999                0.31312157                0.02928285               -0.02054509                0.15043205
               9.00000000                4.00000000               67.00000000                0.22926900               -0.09679690               -0.09697680                0.31766961                0.02111821               -0.01025882                0.17110175
              10.00000000                4.00000000               67.00000000                0.63445771               -0.09772306               -0.09018047                0.32263719                0.01010488               -0.00397367                0.18192547
               0.00000000                5.00000000               67.00000000                0.58490356               -0.07768996               -0.07730445                0.25686315                0.00083117                0.00003299               -0.01284384
               1.00000000                5.00000000               67.00000000                0.09241417               -0.07759929               -0.07821527                0.26121661                0.00386877               -0.00108442               -0.00838021
               2.00000000                5.00000000               67.00000000                0.01000001               -0.04306744               -0.07955694                0.26593881                0.07063947                0.26667049               -0.00663721
               3.00000000                5.00000000               67.00000000                0.02060981               -0.04418948               -0.08625293                0.28975255                0.10294044                0.33236812                0.08311105
               4.00000000                5.00000000               67.00000000                0.04906866               -0.08788794               -0.09289562                0.30007365                0.04007764                0.07690466                0.01997085
               5.00000000                5.00000000               67.00000000                0.08319061               -0.09643143               -0.09643564                0.30627985                0.02752973                0.01022860                0.01016768
               6.00000000                5.00000000               67.00000000                0.12378692               -0.09677954               -0.09810008                0.31184875                0.02188397               -0.00247223                0.02822713
               7.00000000                5.00000000               67.00000000                0.17199608               -0.09662065               -0.09958241                0.31711578                0.01806436               -0.00693610                0.04537508
               8.00000000                5.00000000               67.00000000                0.22920877               -0.09678967               -0.10105883                0.32234473                0.01437948               -0.00682701                0.05968577
               9.00000000                5.00000000               67.00000000                0.29723310               -0.09856169               -0.10064822                0.32769242                0.00854143               -0.00385437                0.06996584
              10.00000000                5.00000000               67.00000000                0.67192628               -0.10006596               -0.09367052                0.33327861                0.00400004               -0.00164734                0.07556617
               0.00000000                6.00000000               67.00000000                0.63193135               -0.07852229               -0.07871273                0.25937895                0.00085659               -0.00003662               -0.01091497
               1.00000000                6.00000000               67.00000000                0.15531572               -0.07881069               -0.07829634                0.26411129                0.00380364                0.00010235               -0.00686475
               2.00000000                6.00000000               67.00000000                0.02640462               -0.04508801               -0.07860855                0.26902579                0.06398190                0.26979802               -0.00023371
               3.00000000                6.00000000               67.00000000                0.04922268               -0.05115888               -0.09725553                0.29439891                0.07539249                0.32830920               -0.04340089
               4.00000000                6.00000000               67.00000000                0.08318797               -0.09448776               -0.09641853                0.30463659                0.03189528                0.08247533               -0.02372674
               5.00000000                6.00000000               67.00000000                0.12378174               -0.09809152               -0.09677667                0.31183939                0.02187228                0.02823985               -0.00247707
               6.00000000                6.00000000               67.00000000                0.17202740               -0.09838055               -0.09838212                0.31806172                0.01502360                0.00989697                0.00988720
               7.00000000                6.00000000               67.00000000                0.22928892               -0.09836998               -0.10036916                0.32388103                0.01026100                0.00218722                0.01873832
               8.00000000                6.00000000               67.00000000                0.29739643               -0.09894655               -0.10187502                0.32957764                0.00653397               -0.00065389                0.02547625
               9.00000000                6.00000000               67.00000000                0.37863755               -0.10073273               -0.10176769                0.33530442                0.00321130               -0.00092242                0.03014344
              10.00000000                6.00000000               67.00000000                0.71686752               -0.10199958               -0.09877227                0.34117001                0.00100586               -0.00051874                0.03260465
               0.00000000                7.00000000               67.00000000                0.68956464               -0.07932894               -0.07969012                0.26196666                0.00083228               -0.00001997               -0.00839547
               1.00000000                7.00000000               67.00000000                0.23293600               -0.07961900               -0.07896099                0.26701755                0.00318428                0.00246098               -0.00484208
               2.00000000                7.00000000               67.00000000                0.05978400               -0.05639594               -0.07976207                0.27233210                0.05285888                0.23550734                0.00247527
               3.00000000                7.00000000               67.00000000                0.08353683               -0.06027441               -0.10068955                0.29616443                0.05757129                0.32037574               -0.06881748
               4.00000000                7.00000000               67.00000000                0.12378552               -0.09321864               -0.09682556                0.30886975                0.03030942                0.12164798               -0.02622763
               5.00000000                7.00000000               67.00000000                0.17200164               -0.09957406               -0.09661840                0.31710309                0.01805699                0.04538964               -0.00692319
               6.00000000                7.00000000               67.00000000                0.22929050               -0.10036623               -0.09836984                0.32388134                0.01025958                0.01874418                0.00218757
               7.00000000                7.00000000               67.00000000                0.29746014               -0.10050464               -0.10050348                0.33006072                0.00552695                0.00751308                0.00751801
               8.00000000                7.00000000               67.00000000                0.37881417               -0.10120525               -0.10220919                0.33601086                0.00265918                0.00258456                0.01104346
               9.00000000                7.00000000               67.00000000                0.47637293               -0.10275913               -0.10301425                0.34191793                0.00099487                0.00058501                0.01328157
              10.00000000                7.00000000               67.00000000                0.77092732               -0.10376145               -0.10264303                0.34789133               -0.00025483                0.00008022                0.01428515
               0.00000000                8.00000000               67.00000000                0.75889275               -0.08012711               -0.08026673                0.26464695                0.00071768                0.00017081               -0.00581211
               1.00000000                8.00000000               67.00000000                0.32766127               -0.08044761               -0.08015161                0.26996021                0.00212894                0.00487512               -0.00258144
               2.00000000                8.00000000               67.00000000                0.10159756               -0.06647449               -0.08164091                0.27569812                0.04086424                0.21040701                0.00365415
               3.00000000                8.00000000               67.00000000                0.12450383               -0.06989639               -0.10058455                0.29851181                0.05081112                0.31284042               -0.04723454
               4.00000000                8.00000000               67.00000000                0.17201012               -0.09395068               -0.09639400                0.31312813                0.02929114                0.15043862               -0.02053911
               5.00000000                8.00000000               67.00000000                0.22921431               -0.10105681               -0.09678854                0.32233881                0.01437861                0.05969092               -0.00682523
               6.00000000                8.00000000               67.00000000                0.29740115               -0.10187232               -0.09894410                0.32956902                0.00653340                0.02547524               -0.00066141
               7.00000000                8.00000000               67.00000000                0.37881749               -0.10220914               -0.10120292                0.33600578                0.00265971                0.01104140                0.00258323
               8.00000000                8.00000000               67.00000000                0.47648003               -0.10310698               -0.10310572                0.34212018                0.00079217                0.00451552                0.00451313
               9.00000000                8.00000000               67.00000000                0.59440892               -0.10459252               -0.10454947                0.34811825                0.00008623                0.00145083                0.00562927
              10.00000000                8.00000000               67.00000000                0.83638349               -0.10546891               -0.10556728                0.35412394               -0.00078900                0.00043558                0.00600724
               0.00000000                9.00000000               67.00000000                0.84139433               -0.08097907               -0.08060966                0.26740764                0.00055277                0.00062346               -0.00322319
               1.00000000                9.00000000               67.00000000                0.44240903               -0.08143065               -0.08152769                0.27295755                0.00111178                0.00669230               -0.00067909
               2.00000000                9.00000000               67.00000000                0.15397847               -0.07563956               -0.08308864                0.27901363                0.03020253                0.19453642                0.00273324
               3.00000000                9.00000000               67.00000000                0.17335355               -0.08164552               -0.09573093                0.30150272                0.03262645                0.30942783               -0.02183292
               4.00000000                9.00000000               67.00000000                0.22926622               -0.09698087               -0.09679661                0.31767216                0.02111950                0.17109321               -0.01025751
               5.00000000                9.00000000               67.00000000                0.29723461               -0.10064652               -0.09856086                0.32768815                0.00854205                0.06996581               -0.00385981
               6.00000000                9.00000000               67.00000000                0.37864047               -0.10176544               -0.10073005                0.33529647                0.00321321                0.03014439               -0.00092515
               7.00000000                9.00000000               67.00000000                0.47636742               -0.10301455               -0.10275894                0.34191894                0.00099498                0.01327914                0.00058435
               8.00000000                9.00000000               67.00000000                0.59439843               -0.10455014               -0.10459267                0.34811942                0.00008492                0.00562945                0.00144691
               9.00000000                9.00000000               67.00000000                0.73813137               -0.10626282               -0.10626300                0.35416693               -0.00013772                0.00192055                0.00191603
              10.00000000                9.00000000               67.00000000                0.91638103               -0.10714904               -0.10791263                0.36018500               -0.00097791                0.00062762                0.00203880
               0.00000000               10.00000000               67.00000000                0.94993114               -0.08210908               -0.08075818                0.27032070               -0.00042206               -0.00001314               -0.00175538
               1.00000000               10.00000000               67.00000000                0.76164453               -0.08379820               -0.08219384                0.27594851                0.00004133                0.00604860                0.00020539
               2.00000000               10.00000000               67.00000000                0.59532620               -0.09735437               -0.08354268                0.28197081                0.02443385                0.19249790                0.00158750
               3.00000000               10.00000000               67.00000000                0.60377625               -0.09939641               -0.09188382                0.30533932                0.01330852                0.31698952               -0.00760844
               4.00000000               10.00000000               67.00000000                0.63445579               -0.09018670               -0.09772267                0.32264109                0.01010342                0.18191126               -0.00397672
               5.00000000               10.00000000               67.00000000                0.67192524               -0.09366814               -0.10006509                0.33327398                0.00400111                0.07556533               -0.00165269
               6.00000000               10.00000000               67.00000000                0.71687310               -0.09876960               -0.10199738                0.34116488                0.00100676                0.03260759               -0.00051838
               7.00000000               10.00000000               67.00000000                0.77092826               -0.10264404               -0.10376332                0.34789746               -0.00025607                0.01428035                0.00008120
               8.00000000               10.00000000               67.00000000                0.83638441               -0.10556809               -0.10547025                0.35412643               -0.00078953                0.00600381                0.00043212
               9.00000000               10.00000000               67.00000000                0.91638587               -0.10791208               -0.10714938                0.36018400               -0.00097789                0.00204156                0.00062305
              10.00000000               10.00000000               67.00000000                0.98440163               -0.10897112               -0.10897180                0.36620440               -0.00196070                0.00067335                0.00067023
               0.00000000                0.00000000               68.00000000                0.75317409               -0.07319918               -0.07319842                0.24491027                0.00115653               -0.00087269               -0.00087066
               1.00000000                0.00000000               68.00000000                0.49959014               -0.07169769               -0.07537082                0.24766512                0.00263950               -0.00507956               -0.00033379
               2.00000000                0.00000000               68.00000000                0.49951986               -0.07137457               -0.07522195                0.25020925                0.00064589               -0.01121222                0.00050805
               3.00000000                0.00000000               68.00000000                0.51927655               -0.07364018               -0.07617628                0.25258987                0.00073321               -0.01380718                0.00027562
               4.00000000                0.00000000               68.00000000                0.54764178               -0.07564858               -0.07695647                0.25488456                0.00071797               -0.01442801                0.00014648
               5.00000000                0.00000000               68.00000000                0.58494951               -0.07730059               -0.07775052                0.25716148                0.00075564               -0.01352555                0.00002994
               6.00000000                0.00000000               68.00000000                0.63191293               -0.07857531               -0.07851899                0.25946524                0.00077699               -0.01152106               -0.00004842
               7.00000000                0.00000000               68.00000000                0.68941144               -0.07947906               -0.07926415                0.26183627                0.00075680               -0.00889135               -0.00002868
               8.00000000                0.00000000               68.00000000                0.75862675               -0.08003249               -0.08000332                0.26429341                0.00065800               -0.00619544                0.00017224
               9.00000000                0.00000000               68.00000000                0.84092811               -0.08037581               -0.08078708                0.26681908                0.00051234               -0.00348513                0.00065446
              10.00000000                0.00000000               68.00000000                0.94963760               -0.08052560               -0.08181424                0.26949464               -0.00043729               -0.00195045               -0.00010547
               0.00000000                1.00000000               68.00000000                0.49961387               -0.07536913               -0.07169596                0.24766013                0.00263636               -0.00033657               -0.00507648
               1.00000000                1.00000000               68.00000000                0.01000000               -0.07794889               -0.07794822                0.25044887                0.00644174               -0.00367475               -0.00367002
               2.00000000                1.00000000               68.00000000                0.01000000               -0.08023946               -0.07035476                0.25320604                0.01774422               -0.00781777                0.01955627
               3.00000000                1.00000000               68.00000000                0.01000000               -0.07947699               -0.06420216                0.25591831                0.01900672               -0.00919303                0.04129921
               4.00000000                1.00000000               68.00000000                0.04261933               -0.07872107               -0.07553489                0.25863449                0.00346585               -0.00907882                0.00219569
               5.00000000                1.00000000               68.00000000                0.09244481               -0.07836578               -0.07772639                0.26134351                0.00329135               -0.00825043               -0.00095551
               6.00000000                1.00000000               68.00000000                0.15523461               -0.07846538               -0.07882033                0.26403714                0.00329736               -0.00677010                0.00016371
               7.00000000                1.00000000               68.00000000                0.23275381               -0.07906769               -0.07956829                0.26673345                0.00279391               -0.00476776                0.00258995
               8.00000000                1.00000000               68.00000000                0.32730293               -0.08013120               -0.08034280                0.26945469                0.00188381               -0.00249061                0.00508065
               9.00000000                1.00000000               68.00000000                0.44178243               -0.08136613               -0.08125357                0.27222180                0.00098349               -0.00057836                0.00697367
              10.00000000                1.00000000               68.00000000                0.76123379               -0.08196760               -0.08334677                0.27497830               -0.00006915                0.00030418                0.00616252
               0.00000000                2.00000000               68.00000000                0.49953344               -0.07521556               -0.07137139                0.25019744                0.00064515                0.00050731               -0.01121299
               1.00000000                2.00000000               68.00000000                0.01000000               -0.07035125               -0.08023610                0.25319462                0.01774129                0.01955361               -0.00781691
               2.00000000                2.00000000               68.00000000                0.01000001               -0.07477757               -0.07477986                0.25775156                0.05263935                0.03546688                0.03548375
               3.00000000                2.00000000               68.00000000                0.01000000               -0.09927986               -0.05708458                0.26242418                0.05020196               -0.02680030                0.09097280
               4.00000000                2.00000000               68.00000000                0.01000000               -0.09761736               -0.05335838                0.26301111                0.05110720               -0.04733950                0.17867056
               5.00000000                2.00000000               68.00000000                0.01000001               -0.07968878               -0.04680725                0.26589132                0.06300438               -0.00621080                0.27672946
               6.00000000                2.00000000               68.00000000                0.02639321               -0.07889314               -0.04881404                0.26881961                0.05683754                0.00037361                0.28045913
               7.00000000                2.00000000               68.00000000                0.05976000               -0.07994624               -0.05913850                0.27191392                0.04672992                0.00310918                0.24524201
               8.00000000                2.00000000               68.00000000                0.10154605               -0.08163259               -0.06827275                0.27503129                0.03586575                0.00424035                0.21960076
               9.00000000                2.00000000               68.00000000                0.15387973               -0.08294841               -0.07649887                0.27814171                0.02620456                0.00313355                0.20353437
              10.00000000                2.00000000               68.00000000                0.59525885               -0.08337219               -0.09530482                0.28087472                0.02064719                0.00181825                0.20181568
               0.00000000                3.00000000               68.00000000                0.51927099               -0.07617412               -0.07363883                0.25258594                0.00073524                0.00027574               -0.01380742
               1.00000000                3.00000000               68.00000000                0.01000000               -0.06419700               -0.07947583                0.25591538                0.01899877                0.04131397               -0.00919329
               2.00000000                3.00000000               68.00000000                0.01000000               -0.05708096               -0.09929368                0.26242354                0.05019118                0.09096786               -0.02685952
               3.00000000                3.00000000               68.00000000                0.01000000               -0.06548454               -0.06547441                0.26974712                0.08123234                0.12897671                0.12902679
               4.00000000                3.00000000               68.00000000                0.01200469               -0.07398074               -0.04782875                0.27953100                0.10013221                0.16852270                0.30358486
               5.00000000                3.00000000               68.00000000                0.02061104               -0.08650718               -0.04838371                0.29057280                0.09176008                0.08619206                0.34421912
               6.00000000                3.00000000               68.00000000                0.04923059               -0.09628410               -0.05489484                0.29504806                0.06667861               -0.04490608                0.34038698
               7.00000000                3.00000000               68.00000000                0.08355051               -0.09925437               -0.06329725                0.29651124                0.05049064               -0.07133707                0.33287605
               8.00000000                3.00000000               68.00000000                0.12453237               -0.09912804               -0.07210255                0.29864904                0.04423332               -0.04882735                0.32587453
               9.00000000                3.00000000               68.00000000                0.17341885               -0.09496891               -0.08265257                0.30145899                0.02821609               -0.02243475                0.32319449
              10.00000000                3.00000000               68.00000000                0.60382423               -0.09170221               -0.09825692                0.30514341                0.01100975               -0.00772737                0.33261461
               0.00000000                4.00000000               68.00000000                0.54763503               -0.07695753               -0.07564975                0.25488757                0.00071868                0.00014690               -0.01442419
               1.00000000                4.00000000               68.00000000                0.04260410               -0.07553766               -0.07872247                0.25863840                0.00344789                0.00212443               -0.00907468
               2.00000000                4.00000000               68.00000000                0.01000000               -0.05334194               -0.09762209                0.26295919                0.05110702                0.17870811               -0.04732408
               3.00000000                4.00000000               68.00000000                0.01200959               -0.04782595               -0.07396577                0.27948820                0.10015203                0.30363388                0.16850400
               4.00000000                4.00000000               68.00000000                0.02056371               -0.07646590               -0.07644765                0.29356880                0.05577138                0.15918371                0.15920679
               5.00000000                4.00000000               68.00000000                0.04909364               -0.09275350               -0.08827199                0.30099552                0.03538042                0.02060849                0.07946164
               6.00000000                4.00000000               68.00000000                0.08319409               -0.09597991               -0.09432479                0.30545150                0.02801560               -0.02480494                0.08520210
               7.00000000                4.00000000               68.00000000                0.12380181               -0.09641604               -0.09332100                0.30951874                0.02647912               -0.02731403                0.12608358
               8.00000000                4.00000000               68.00000000                0.17203626               -0.09612347               -0.09416306                0.31363184                0.02544782               -0.02139085                0.15633238
               9.00000000                4.00000000               68.00000000                0.22931862               -0.09654010               -0.09706309                0.31804792                0.01825136               -0.01071647                0.17837291
              10.00000000                4.00000000               68.00000000                0.63449865               -0.09736654               -0.09166365                0.32292794                0.00840358               -0.00414235                0.19069456
               0.00000000                5.00000000               68.00000000                0.58495318               -0.07775130               -0.07730175                0.25716323                0.00075576                0.00003100               -0.01352460
               1.00000000                5.00000000               68.00000000                0.09245724               -0.07772641               -0.07836693                0.26134582                0.00328166               -0.00092007               -0.00824943
               2.00000000                5.00000000               68.00000000                0.01000001               -0.04679876               -0.07967482                0.26582632                0.06301723                0.27672857               -0.00614813
               3.00000000                5.00000000               68.00000000                0.02061301               -0.04838487               -0.08650802                0.29052819                0.09176388                0.34413758                0.08614087
               4.00000000                5.00000000               68.00000000                0.04908284               -0.08828342               -0.09275239                0.30103457                0.03537279                0.07945824                0.02058907
               5.00000000                5.00000000               68.00000000                0.08320384               -0.09613043               -0.09613177                0.30716738                0.02422117                0.01029124                0.01024821
               6.00000000                5.00000000               68.00000000                0.12381571               -0.09658806               -0.09778470                0.31263304                0.01921112               -0.00281770                0.02896015
               7.00000000                5.00000000               68.00000000                0.17203482               -0.09659527               -0.09927793                0.31779647                0.01582567               -0.00742841                0.04682754
               8.00000000                5.00000000               68.00000000                0.22926805               -0.09688060               -0.10079490                0.32293040                0.01256238               -0.00728713                0.06184842
               9.00000000                5.00000000               68.00000000                0.29732284               -0.09854401               -0.10074050                0.32818457                0.00743960               -0.00415164                0.07284850
              10.00000000                5.00000000               68.00000000                0.67197279               -0.09990902               -0.09512107                0.33371532                0.00323161               -0.00178287                0.07919977
               0.00000000                6.00000000               68.00000000                0.63190535               -0.07852097               -0.07857551                0.25946881                0.00077643               -0.00004845               -0.01152021
               1.00000000                6.00000000               68.00000000                0.15524483               -0.07882070               -0.07846534                0.26404077                0.00329538                0.00014970               -0.00676887
               2.00000000                6.00000000               68.00000000                0.02639585               -0.04880444               -0.07888249                0.26877724                0.05684440                0.28046127                0.00034446
               3.00000000                6.00000000               68.00000000                0.04923027               -0.05489460               -0.09629954                0.29511214                0.06669019                0.34039979               -0.04491596
               4.00000000                6.00000000               68.00000000                0.08319205               -0.09433332               -0.09598322                0.30545643                0.02801297                0.08519886               -0.02475938
               5.00000000                6.00000000               68.00000000                0.12381844               -0.09778349               -0.09659366                0.31263717                0.01921179                0.02898409               -0.00282203
               6.00000000                6.00000000               68.00000000                0.17207673               -0.09823160               -0.09823267                0.31878183                0.01321002                0.00994936                0.00994827
               7.00000000                6.00000000               68.00000000                0.22936961               -0.09839622               -0.10019134                0.32452216                0.00903488                0.00198698                0.01917329
               8.00000000                6.00000000               68.00000000                0.29749850               -0.09906355               -0.10174640                0.33013409                0.00576358               -0.00091921                0.02624654
               9.00000000                6.00000000               68.00000000                0.37879607               -0.10077994               -0.10193738                0.33578934                0.00283497               -0.00109981                0.03124729
              10.00000000                6.00000000               68.00000000                0.71695881               -0.10196313               -0.09968540                0.34161640                0.00071324               -0.00059593                0.03401685
               0.00000000                7.00000000               68.00000000                0.68944308               -0.07926360               -0.07947685                0.26183222                0.00075564               -0.00002912               -0.00888950
               1.00000000                7.00000000               68.00000000                0.23277168               -0.07956548               -0.07906537                0.26672861                0.00279609                0.00258931               -0.00476443
               2.00000000                7.00000000               68.00000000                0.05976829               -0.05912138               -0.07994338                0.27188519                0.04672593                0.24524475                0.00312715
               3.00000000                7.00000000               68.00000000                0.08354790               -0.06329835               -0.09926362                0.29656832                0.05048028                0.33288844               -0.07136397
               4.00000000                7.00000000               68.00000000                0.12380600               -0.09333816               -0.09641842                0.30953586                0.02648154                0.12607247               -0.02729377
               5.00000000                7.00000000               68.00000000                0.17203109               -0.09927843               -0.09659638                0.31779990                0.01582520                0.04682033               -0.00743373
               6.00000000                7.00000000               68.00000000                0.22937002               -0.10018973               -0.09839548                0.32451756                0.00903530                0.01917774                0.00198237
               7.00000000                7.00000000               68.00000000                0.29758305               -0.10049841               -0.10049874                0.33062680                0.00490294                0.00753380                0.00753132
               8.00000000                7.00000000               68.00000000                0.37898419               -0.10128934               -0.10222712                0.33650584                0.00238757                0.00245764                0.01125292
               9.00000000                7.00000000               68.00000000                0.47661504               -0.10282666               -0.10318756                0.34235007                0.00090807                0.00048236                0.01363615
              10.00000000                7.00000000               68.00000000                0.77107652               -0.10379381               -0.10315014                0.34828667               -0.00034383                0.00003445                0.01473051
               0.00000000                8.00000000               68.00000000                0.75864489               -0.08000066               -0.08002922                0.26428540                0.00065708                0.00017255               -0.00619647
               1.00000000                8.00000000               68.00000000                0.32731150               -0.08034036               -0.08012807                0.26944638                0.00188145                0.00508495               -0.00249112
               2.00000000                8.00000000               68.00000000                0.10154888               -0.06827121               -0.08163359                0.27502855                0.03585610                0.21957691                0.00423404
               3.00000000                8.00000000               68.00000000                0.12453304               -0.07210328               -0.09912439                0.29865096                0.04421272                0.32585757               -0.04884750
               4.00000000                8.00000000               68.00000000                0.17204148               -0.09416439               -0.09612270                0.31363637                0.02545171                0.15633408               -0.02139675
               5.00000000                8.00000000               68.00000000                0.22927049               -0.10079449               -0.09687791                0.32292133                0.01256413                0.06183956               -0.00728769
               6.00000000                8.00000000               68.00000000                0.29749605               -0.10174577               -0.09906224                0.33013115                0.00576346                0.02624834               -0.00092377
               7.00000000                8.00000000               68.00000000                0.37898947               -0.10222703               -0.10128866                0.33650391                0.00238667                0.01125713                0.00245755
               8.00000000                8.00000000               68.00000000                0.47674705               -0.10318715               -0.10318686                0.34253959                0.00074514                0.00450489                0.00450507
               9.00000000                8.00000000               68.00000000                0.59478244               -0.10467040               -0.10468746                0.34847457                0.00010594                0.00139539                0.00569459
              10.00000000                8.00000000               68.00000000                0.83661941               -0.10553343               -0.10581952                0.35444213               -0.00079177                0.00040521                0.00608923
               0.00000000                9.00000000               68.00000000                0.84093700               -0.08078610               -0.08037443                0.26681839                0.00051150                0.00065248               -0.00348770
               1.00000000                9.00000000               68.00000000                0.44178982               -0.08125229               -0.08136375                0.27221706                0.00097850                0.00696681               -0.00058163
               2.00000000                9.00000000               68.00000000                0.15388002               -0.07649903               -0.08294264                0.27812013                0.02619799                0.20351172                0.00311935
               3.00000000                9.00000000               68.00000000                0.17342324               -0.08265026               -0.09496385                0.30145315                0.02821423                0.32318361               -0.02242869
               4.00000000                9.00000000               68.00000000                0.22932836               -0.09706107               -0.09653958                0.31804898                0.01825508                0.17837046               -0.01071468
               5.00000000                9.00000000               68.00000000                0.29731709               -0.10074214               -0.09854252                0.32818215                0.00744031                0.07283695               -0.00415296
               6.00000000                9.00000000               68.00000000                0.37879758               -0.10193739               -0.10077952                0.33578878                0.00283319                0.03125022               -0.00110037
               7.00000000                9.00000000               68.00000000                0.47662931               -0.10318696               -0.10282558                0.34234707                0.00090763                0.01364178                0.00048585
               8.00000000                9.00000000               68.00000000                0.59478733               -0.10468750               -0.10466986                0.34847386                0.00010629                0.00569272                0.00139843
               9.00000000                9.00000000               68.00000000                0.73873482               -0.10635955               -0.10635924                0.35445378               -0.00010406                0.00190502                0.00190845
              10.00000000                9.00000000               68.00000000                0.91673991               -0.10722632               -0.10802898                0.36042742               -0.00095911                0.00062364                0.00203722
               0.00000000               10.00000000               68.00000000                0.94964541               -0.08181393               -0.08052549                0.26949705               -0.00043641               -0.00010960               -0.00195133
               1.00000000               10.00000000               68.00000000                0.76123345               -0.08334523               -0.08196544                0.27497410               -0.00006819                0.00615101                0.00030240
               2.00000000               10.00000000               68.00000000                0.59525652               -0.09530170               -0.08336056                0.28084570                0.02064210                0.20179499                0.00180958
               3.00000000               10.00000000               68.00000000                0.60382811               -0.09825328               -0.09169927                0.30514186                0.01100667                0.33260735               -0.00772494
               4.00000000               10.00000000               68.00000000                0.63449502               -0.09166387               -0.09736768                0.32293031                0.00840503                0.19068741               -0.00413622
               5.00000000               10.00000000               68.00000000                0.67196892               -0.09512391               -0.09990937                0.33371865                0.00323239                0.07918499               -0.00178395
               6.00000000               10.00000000               68.00000000                0.71695866               -0.09968529               -0.10196329                0.34161628                0.00071255                0.03402024               -0.00059642
               7.00000000               10.00000000               68.00000000                0.77107370               -0.10314896               -0.10379240                0.34828256               -0.00034361                0.01473524                0.00003959
               8.00000000               10.00000000               68.00000000                0.83661659               -0.10581955               -0.10553296                0.35444186               -0.00079182                0.00608467                0.00040896
               9.00000000               10.00000000               68.00000000                0.91674469               -0.10802956               -0.10722622                0.36042812               -0.00095904                0.00203199                0.00062563
              10.00000000               10.00000000               68.00000000                0.98461930               -0.10904713               -0.10904672                0.36640019               -0.00194167                0.00068003                0.00068293
               0.00000000                0.00000000               69.00000000                0.75344167               -0.07366003               -0.07365962                0.24623187                0.00104192               -0.00087731               -0.00088106
               1.00000000                0.00000000               69.00000000                0.49998115               -0.07240426               -0.07556813                0.24875580                0.00227544               -0.00519883               -0.00031818
               2.00000000                0.00000000               69.00000000                0.49972556               -0.07216356               -0.07549424                0.25110627                0.00058195               -0.01162039                0.00056633
               3.00000000                0.00000000               69.00000000                0.51943529               -0.07411345               -0.07636398                0.25330020                0.00065467               -0.01439955                0.00030562
               4.00000000                0.00000000               69.00000000                0.54776504               -0.07584200               -0.07708360                0.25540659                0.00063775               -0.01508957                0.00015544
               5.00000000                0.00000000               69.00000000                0.58501661               -0.07727489               -0.07780994                0.25747969                0.00066699               -0.01417748                0.00002503
               6.00000000                0.00000000               69.00000000                0.63187481               -0.07840623               -0.07851686                0.25958050                0.00068536               -0.01209895               -0.00006098
               7.00000000                0.00000000               69.00000000                0.68927371               -0.07923862               -0.07920466                0.26174369                0.00066913               -0.00936251               -0.00004034
               8.00000000                0.00000000               69.00000000                0.75834342               -0.07977808               -0.07988021                0.26397065                0.00058820               -0.00657006                0.00017147
               9.00000000                0.00000000               69.00000000                0.84043595               -0.08013816               -0.08059476                0.26626670                0.00046748               -0.00374411                0.00068256
              10.00000000                0.00000000               69.00000000                0.94932079               -0.08029899               -0.08151510                0.26871028               -0.00043997               -0.00214259               -0.00020852
               0.00000000                1.00000000               69.00000000                0.49996528               -0.07556850               -0.07240349                0.24875503                0.00227560               -0.00031295               -0.00520493
               1.00000000                1.00000000               69.00000000                0.01000000               -0.07780565               -0.07780495                0.25131076                0.00549117               -0.00364019               -0.00364921
               2.00000000                1.00000000               69.00000000                0.01000000               -0.07985276               -0.07126889                0.25387372                0.01526359               -0.00768960                0.02040923
               3.00000000                1.00000000               69.00000000                0.01000000               -0.07931367               -0.06587860                0.25640818                0.01624935               -0.00900698                0.04298567
               4.00000000                1.00000000               69.00000000                0.04270170               -0.07876716               -0.07596442                0.25894294                0.00262549               -0.00887017                0.00239371
               5.00000000                1.00000000               69.00000000                0.09249508               -0.07853708               -0.07786661                0.26145123                0.00256442               -0.00807494               -0.00078745
               6.00000000                1.00000000               69.00000000                0.15518451               -0.07866909               -0.07883056                0.26394182                0.00266828               -0.00663938                0.00026134
               7.00000000                1.00000000               69.00000000                0.23258069               -0.07920740               -0.07951467                0.26642574                0.00231709               -0.00466707                0.00272320
               8.00000000                1.00000000               69.00000000                0.32690400               -0.08012704               -0.08023638                0.26891220                0.00158382               -0.00239116                0.00528541
               9.00000000                1.00000000               69.00000000                0.44111807               -0.08120259               -0.08107430                0.27144340                0.00081939               -0.00047204                0.00725421
              10.00000000                1.00000000               69.00000000                0.76080341               -0.08173217               -0.08285256                0.27396397               -0.00019632                0.00041399                0.00626454
               0.00000000                2.00000000               69.00000000                0.49971195               -0.07549529               -0.07216337                0.25110643                0.00058228                0.00056763               -0.01161961
               1.00000000                2.00000000               69.00000000                0.01000000               -0.07126967               -0.07985271                0.25387425                0.01526316                0.02041398               -0.00769137
               2.00000000                2.00000000               69.00000000                0.01000001               -0.07528564               -0.07528316                0.25831912                0.04557761                0.03700430                0.03699646
               3.00000000                2.00000000               69.00000000                0.01000000               -0.09688274               -0.05986562                0.26290029                0.04318690               -0.02732298                0.09423203
               4.00000000                2.00000000               69.00000000                0.01000000               -0.09546762               -0.05670226                0.26312922                0.04375720               -0.04807238                0.18547232
               5.00000000                2.00000000               69.00000000                0.01000001               -0.07982972               -0.05117368                0.26569668                0.05392379               -0.00558217                0.28748173
               6.00000000                2.00000000               69.00000000                0.02638101               -0.07921638               -0.05320808                0.26850034                0.04833331                0.00096326                0.29170995
               7.00000000                2.00000000               69.00000000                0.05974072               -0.08016578               -0.06238001                0.27135079                0.03942095                0.00372246                0.25551864
               8.00000000                2.00000000               69.00000000                0.10148156               -0.08163627               -0.07044455                0.27426869                0.02988941                0.00482423                0.22930039
               9.00000000                2.00000000               69.00000000                0.15375951               -0.08279370               -0.07757970                0.27713810                0.02142796                0.00353578                0.21304991
              10.00000000                2.00000000               69.00000000                0.59517506               -0.08317609               -0.09294676                0.27962482                0.01615166                0.00205285                0.21168764
               0.00000000                3.00000000               69.00000000                0.51942123               -0.07636576               -0.07411456                0.25330480                0.00065483                0.00030696               -0.01439103
               1.00000000                3.00000000               69.00000000                0.01000000               -0.06588240               -0.07931501                0.25641333                0.01625203                0.04298041               -0.00899787
               2.00000000                3.00000000               69.00000000                0.01000000               -0.05985653               -0.09688058                0.26289663                0.04317701                0.09422169               -0.02729020
               3.00000000                3.00000000               69.00000000                0.01000000               -0.06767596               -0.06768433                0.27030838                0.07042392                0.13357261                0.13358917
               4.00000000                3.00000000               69.00000000                0.01200891               -0.07572231               -0.05249010                0.28036619                0.08639827                0.17472657                0.31462483
               5.00000000                3.00000000               69.00000000                0.02061694               -0.08687292               -0.05334030                0.29177665                0.07847836                0.08931268                0.35664856
               6.00000000                3.00000000               69.00000000                0.04923767               -0.09516011               -0.05931888                0.29590679                0.05630241               -0.04667146                0.35311689
               7.00000000                3.00000000               69.00000000                0.08355141               -0.09758011               -0.06690876                0.29707126                0.04203983               -0.07406140                0.34610196
               8.00000000                3.00000000               69.00000000                0.12455854               -0.09740594               -0.07477307                0.29888237                0.03637518               -0.05055370                0.33964092
               9.00000000                3.00000000               69.00000000                0.17349334               -0.09404414               -0.08392343                0.30144334                0.02297009               -0.02307319                0.33773722
              10.00000000                3.00000000               69.00000000                0.60388465               -0.09145554               -0.09700705                0.30495940                0.00827816               -0.00784377                0.34914250
               0.00000000                4.00000000               69.00000000                0.54775863               -0.07708504               -0.07584351                0.25541027                0.00063786                0.00015523               -0.01508599
               1.00000000                4.00000000               69.00000000                0.04268979               -0.07596665               -0.07876884                0.25894748                0.00262921                0.00240837               -0.00886648
               2.00000000                4.00000000               69.00000000                0.01000000               -0.05669471               -0.09546852                0.26318424                0.04375601                0.18547485               -0.04804078
               3.00000000                4.00000000               69.00000000                0.01201282               -0.05249750               -0.07570865                0.28023772                0.08639847                0.31452812                0.17465642
               4.00000000                4.00000000               69.00000000                0.02056216               -0.07826715               -0.07825734                0.29497756                0.04734730                0.16479906                0.16481039
               5.00000000                4.00000000               69.00000000                0.04909372               -0.09262494               -0.08878780                0.30220378                0.02980092                0.02119634                0.08203566
               6.00000000                4.00000000               69.00000000                0.08320979               -0.09548708               -0.09416268                0.30649022                0.02341926               -0.02581939                0.08807671
               7.00000000                4.00000000               69.00000000                0.12382834               -0.09594234               -0.09348566                0.31035257                0.02193554               -0.02850335                0.13075805
               8.00000000                4.00000000               69.00000000                0.17207760               -0.09580078               -0.09444337                0.31425359                0.02090591               -0.02233565                0.16253590
               9.00000000                4.00000000               69.00000000                0.22937841               -0.09623170               -0.09720470                0.31852704                0.01486370               -0.01121978                0.18601332
              10.00000000                4.00000000               69.00000000                0.63454323               -0.09694179               -0.09348252                0.32330855                0.00638447               -0.00432144                0.19991604
               0.00000000                5.00000000               69.00000000                0.58500971               -0.07781185               -0.07727621                0.25748371                0.00066689                0.00002484               -0.01417702
               1.00000000                5.00000000               69.00000000                0.09249399               -0.07786792               -0.07853830                0.26145624                0.00256843               -0.00079684               -0.00807455
               2.00000000                5.00000000               69.00000000                0.01000001               -0.05117129               -0.07983177                0.26569934                0.05393284                0.28741766               -0.00559701
               3.00000000                5.00000000               69.00000000                0.02061380               -0.05333991               -0.08687440                0.29167298                0.07847906                0.35660299                0.08928086
               4.00000000                5.00000000               69.00000000                0.04908054               -0.08879261               -0.09264287                0.30231647                0.02980930                0.08209134                0.02118195
               5.00000000                5.00000000               69.00000000                0.08321861               -0.09580042               -0.09580245                0.30832683                0.02031454                0.01042352                0.01039250
               6.00000000                5.00000000               69.00000000                0.12385184               -0.09638826               -0.09744520                0.31364061                0.01607056               -0.00320208                0.02970043
               7.00000000                5.00000000               69.00000000                0.17208292               -0.09657606               -0.09894027                0.31864709                0.01318900               -0.00799034                0.04829745
               8.00000000                5.00000000               69.00000000                0.22934174               -0.09698391               -0.10049542                0.32362393                0.01040844               -0.00782381                0.06407753
               9.00000000                5.00000000               69.00000000                0.29741124               -0.09851680               -0.10086985                0.32877187                0.00612585               -0.00449360                0.07582139
              10.00000000                5.00000000               69.00000000                0.67202836               -0.09971823               -0.09686659                0.33423378                0.00231813               -0.00193703                0.08294898
               0.00000000                6.00000000               69.00000000                0.63187531               -0.07851743               -0.07840585                0.25958081                0.00068459               -0.00006180               -0.01210174
               1.00000000                6.00000000               69.00000000                0.15517646               -0.07883073               -0.07866847                0.26394341                0.00267212                0.00024235               -0.00664298
               2.00000000                6.00000000               69.00000000                0.02638881               -0.05320125               -0.07922054                0.26851549                0.04832943                0.29170115                0.00094941
               3.00000000                6.00000000               69.00000000                0.04923687               -0.05931772               -0.09517208                0.29594163                0.05629319                0.35312136               -0.04661360
               4.00000000                6.00000000               69.00000000                0.08320624               -0.09416909               -0.09549466                0.30652085                0.02342977                0.08806998               -0.02580454
               5.00000000                6.00000000               69.00000000                0.12384785               -0.09744434               -0.09639230                0.31363734                0.01608180                0.02970988               -0.00320784
               6.00000000                6.00000000               69.00000000                0.17213688               -0.09806946               -0.09807046                0.31967398                0.01107540                0.00997957                0.00997007
               7.00000000                6.00000000               69.00000000                0.22944835               -0.09843261               -0.09999247                0.32529731                0.00759197                0.00173450                0.01956001
               8.00000000                6.00000000               69.00000000                0.29762453               -0.09920022               -0.10160031                0.33079295                0.00484937               -0.00123366                0.02700223
               9.00000000                6.00000000               69.00000000                0.37896290               -0.10082637               -0.10213710                0.33633915                0.00238062               -0.00132353                0.03235107
              10.00000000                6.00000000               69.00000000                0.71705851               -0.10190609               -0.10076137                0.34209383                0.00036468               -0.00070748                0.03542913
               0.00000000                7.00000000               69.00000000                0.68926641               -0.07920283               -0.07923639                0.26173760                0.00066853               -0.00004141               -0.00936956
               1.00000000                7.00000000               69.00000000                0.23255438               -0.07951484               -0.07920508                0.26642121                0.00231599                0.00269528               -0.00467393
               2.00000000                7.00000000               69.00000000                0.05973999               -0.06237869               -0.08016709                0.27136314                0.03941571                0.25553467                0.00374313
               3.00000000                7.00000000               69.00000000                0.08356494               -0.06690285               -0.09757532                0.29705205                0.04203164                0.34610437               -0.07406468
               4.00000000                7.00000000               69.00000000                0.12383180               -0.09348553               -0.09593666                0.31033502                0.02194012                0.13072604               -0.02850031
               5.00000000                7.00000000               69.00000000                0.17208337               -0.09894448               -0.09657635                0.31864987                0.01319221                0.04829342               -0.00798942
               6.00000000                7.00000000               69.00000000                0.22945711               -0.09999297               -0.09843143                0.32529211                0.00758975                0.01956319                0.00173307
               7.00000000                7.00000000               69.00000000                0.29771517               -0.10049292               -0.10049333                0.33129658                0.00416453                0.00750928                0.00750899
               8.00000000                7.00000000               69.00000000                0.37919611               -0.10138044               -0.10224229                0.33706288                0.00206454                0.00230026                0.01141459
               9.00000000                7.00000000               69.00000000                0.47690589               -0.10288881               -0.10337723                0.34280408                0.00080395                0.00034696                0.01395773
              10.00000000                7.00000000               69.00000000                0.77123300               -0.10380970               -0.10372705                0.34866932               -0.00044701               -0.00003361                0.01514903
               0.00000000                8.00000000               69.00000000                0.75832346               -0.07987905               -0.07977640                0.26396655                0.00058811                0.00017337               -0.00656994
               1.00000000                8.00000000               69.00000000                0.32692089               -0.08023520               -0.08012534                0.26890847                0.00158219                0.00529180               -0.00239073
               2.00000000                8.00000000               69.00000000                0.10149203               -0.07044335               -0.08163240                0.27425903                0.02988851                0.22928698                0.00485378
               3.00000000                8.00000000               69.00000000                0.12455157               -0.07477340               -0.09740013                0.29888197                0.03637093                0.33962050               -0.05057913
               4.00000000                8.00000000               69.00000000                0.17207729               -0.09444426               -0.09580008                0.31425762                0.02089917                0.16253090               -0.02234770
               5.00000000                8.00000000               69.00000000                0.22933621               -0.10049542               -0.09698506                0.32362899                0.01040933                0.06407805               -0.00782744
               6.00000000                8.00000000               69.00000000                0.29762978               -0.10159991               -0.09919973                0.33079220                0.00484851                0.02700800               -0.00123739
               7.00000000                8.00000000               69.00000000                0.37919425               -0.10224151               -0.10138021                0.33706128                0.00206286                0.01141470                0.00229653
               8.00000000                8.00000000               69.00000000                0.47704932               -0.10326590               -0.10326609                0.34297912                0.00068857                0.00444953                0.00444510
               9.00000000                8.00000000               69.00000000                0.59522299               -0.10473836               -0.10482653                0.34881496                0.00012850                0.00132478                0.00570500
              10.00000000                8.00000000               69.00000000                0.83687012               -0.10558187               -0.10608630                0.35471073               -0.00079260                0.00037727                0.00611374
               0.00000000                9.00000000               69.00000000                0.84042978               -0.08059407               -0.08013748                0.26626504                0.00046765                0.00068289               -0.00373835
               1.00000000                9.00000000               69.00000000                0.44111005               -0.08107333               -0.08120198                0.27144188                0.00082025                0.00725261               -0.00046849
               2.00000000                9.00000000               69.00000000                0.15376666               -0.07757955               -0.08279195                0.27713479                0.02142559                0.21303551                0.00352757
               3.00000000                9.00000000               69.00000000                0.17349446               -0.08392468               -0.09404654                0.30145387                0.02296272                0.33772467               -0.02306811
               4.00000000                9.00000000               69.00000000                0.22938872               -0.09720346               -0.09623014                0.31851624                0.01486093                0.18600670               -0.01122270
               5.00000000                9.00000000               69.00000000                0.29740990               -0.10086887               -0.09851616                0.32877133                0.00612995                0.07582042               -0.00448898
               6.00000000                9.00000000               69.00000000                0.37896671               -0.10213823               -0.10082643                0.33634122                0.00238102                0.03235166               -0.00132423
               7.00000000                9.00000000               69.00000000                0.47690631               -0.10337678               -0.10288722                0.34279891                0.00080280                0.01395471                0.00034475
               8.00000000                9.00000000               69.00000000                0.59521415               -0.10482608               -0.10473716                0.34881262                0.00012865                0.00570744                0.00132110
               9.00000000                9.00000000               69.00000000                0.73936309               -0.10644157               -0.10644111                0.35468418               -0.00006576                0.00186127                0.00185732
              10.00000000                9.00000000               69.00000000                0.91713228               -0.10728176               -0.10812683                0.36057747               -0.00093308                0.00060957                0.00197880
               0.00000000               10.00000000               69.00000000                0.94932230               -0.08151414               -0.08029839                0.26870815               -0.00044002               -0.00020973               -0.00213810
               1.00000000               10.00000000               69.00000000                0.76078935               -0.08285198               -0.08173179                0.27396277               -0.00019586                0.00625598                0.00041375
               2.00000000               10.00000000               69.00000000                0.59517682               -0.09294694               -0.08317704                0.27962816                0.01614600                0.21167692                0.00203439
               3.00000000               10.00000000               69.00000000                0.60387785               -0.09700801               -0.09146143                0.30496953                0.00827521                0.34913175               -0.00783397
               4.00000000               10.00000000               69.00000000                0.63453709               -0.09348080               -0.09693608                0.32328619                0.00638678                0.19990408               -0.00431680
               5.00000000               10.00000000               69.00000000                0.67202771               -0.09686582               -0.09971607                0.33423057                0.00231876                0.08294580               -0.00193125
               6.00000000               10.00000000               69.00000000                0.71706028               -0.10076315               -0.10190622                0.34209596                0.00036517                0.03542547               -0.00070634
               7.00000000               10.00000000               69.00000000                0.77124183               -0.10372640               -0.10380712                0.34866183               -0.00044671                0.01514352               -0.00003489
               8.00000000               10.00000000               69.00000000                0.83687354               -0.10608569               -0.10557980                0.35470750               -0.00079297                0.00611387                0.00037500
               9.00000000               10.00000000               69.00000000                0.91712644               -0.10812730               -0.10728103                0.36057786               -0.00093358                0.00198094                0.00060699
              10.00000000               10.00000000               69.00000000                0.98484931               -0.10909172               -0.10909115                0.36646515               -0.00191038                0.00066466                0.00066361
               0.00000000                0.00000000               70.00000000                0.75371693               -0.07414231               -0.07414285                0.24756979                0.00091633               -0.00088529               -0.00088337
               1.00000000                0.00000000               70.00000000                0.50035960               -0.07317436               -0.07575171                0.24985316                0.00185220               -0.00530306               -0.00029298
               2.00000000                0.00000000               70.00000000                0.49993644               -0.07303283               -0.07577171                0.25199939                0.00050669               -0.01197631                0.00062588
               3.00000000                0.00000000               70.00000000                0.51960389               -0.07462069               -0.07655125                0.25401573                0.00056213               -0.01492617                0.00033567
               4.00000000                0.00000000               70.00000000                0.54788818               -0.07603580               -0.07720890                0.25594351                0.00054515               -0.01569738                0.00016313
               5.00000000                0.00000000               70.00000000                0.58505375               -0.07723041               -0.07787258                0.25783553                0.00056462               -0.01477549                0.00001806
               6.00000000                0.00000000               70.00000000                0.63185101               -0.07820636               -0.07851741                0.25973737                0.00057740               -0.01262555               -0.00007671
               7.00000000                0.00000000               70.00000000                0.68911631               -0.07896679               -0.07914313                0.26168736                0.00056885               -0.00980204               -0.00005818
               8.00000000                0.00000000               70.00000000                0.75799380               -0.07950914               -0.07976287                0.26370354                0.00051137               -0.00692355                0.00016788
               9.00000000                0.00000000               70.00000000                0.83988380               -0.07990537               -0.08040738                0.26577326                0.00041955               -0.00398654                0.00071081
              10.00000000                0.00000000               70.00000000                0.94897611               -0.08008469               -0.08121051                0.26797573               -0.00042951               -0.00232921               -0.00031098
               0.00000000                1.00000000               70.00000000                0.50036642               -0.07575235               -0.07317597                0.24985661                0.00185379               -0.00029504               -0.00529933
               1.00000000                1.00000000               70.00000000                0.01000000               -0.07759160               -0.07759262                0.25217038                0.00437786               -0.00359444               -0.00358866
               2.00000000                1.00000000               70.00000000                0.01000000               -0.07936213               -0.07229608                0.25452570                0.01236297               -0.00750689                0.02134073
               3.00000000                1.00000000               70.00000000                0.01000000               -0.07909550               -0.06779681                0.25688077                0.01302905               -0.00875005                0.04473985
               4.00000000                1.00000000               70.00000000                0.04281018               -0.07880690               -0.07644783                0.25923028                0.00161687               -0.00861102                0.00285955
               5.00000000                1.00000000               70.00000000                0.09251669               -0.07873601               -0.07803074                0.26154611                0.00166052               -0.00785657               -0.00069949
               6.00000000                1.00000000               70.00000000                0.15514238               -0.07891143               -0.07883684                0.26382193                0.00190790               -0.00647545                0.00032857
               7.00000000                1.00000000               70.00000000                0.23235016               -0.07937959               -0.07945664                0.26607645                0.00174729               -0.00455549                0.00280165
               8.00000000                1.00000000               70.00000000                0.32647173               -0.08014264               -0.08012964                0.26833634                0.00122424               -0.00228839                0.00548281
               9.00000000                1.00000000               70.00000000                0.44037774               -0.08104198               -0.08089385                0.27062792                0.00063061               -0.00036101                0.00753981
              10.00000000                1.00000000               70.00000000                0.76030840               -0.08149080               -0.08231461                0.27290400               -0.00033383                0.00052438                0.00637023
               0.00000000                2.00000000               70.00000000                0.49994156               -0.07577487               -0.07303654                0.25200919                0.00050787                0.00062620               -0.01197418
               1.00000000                2.00000000               70.00000000                0.01000000               -0.07229912               -0.07936596                0.25453527                0.01236600                0.02133589               -0.00750285
               2.00000000                2.00000000               70.00000000                0.01000001               -0.07584601               -0.07583959                0.25888700                0.03734977                0.03861381                0.03863150
               3.00000000                2.00000000               70.00000000                0.01000000               -0.09409397               -0.06305893                0.26336921                0.03499535               -0.02765293                0.09775063
               4.00000000                2.00000000               70.00000000                0.01000000               -0.09301337               -0.06055001                0.26339660                0.03514265               -0.04887522                0.19281514
               5.00000000                2.00000000               70.00000000                0.01000001               -0.08000822               -0.05618660                0.26549843                0.04333471               -0.00520253                0.29902696
               6.00000000                2.00000000               70.00000000                0.02636427               -0.07956547               -0.05833941                0.26797909                0.03841645                0.00158131                0.30367857
               7.00000000                2.00000000               70.00000000                0.05969768               -0.08041317               -0.06619768                0.27065820                0.03085808                0.00434138                0.26650936
               8.00000000                2.00000000               70.00000000                0.10140840               -0.08164244               -0.07301893                0.27336086                0.02288656                0.00545030                0.23968514
               9.00000000                2.00000000               70.00000000                0.15362415               -0.08262477               -0.07891155                0.27600382                0.01583726                0.00394198                0.22323904
              10.00000000                2.00000000               70.00000000                0.59508276               -0.08296906               -0.09029310                0.27826098                0.01091622                0.00227974                0.22226794
               0.00000000                3.00000000               70.00000000                0.51959580               -0.07655426               -0.07462391                0.25402521                0.00056164                0.00033522               -0.01492673
               1.00000000                3.00000000               70.00000000                0.01000000               -0.06780364               -0.07909896                0.25689030                0.01304063                0.04474580               -0.00874984
               2.00000000                3.00000000               70.00000000                0.01000000               -0.06306969               -0.09408456                0.26336856                0.03501465                0.09775298               -0.02766434
               3.00000000                3.00000000               70.00000000                0.01000000               -0.07026096               -0.07027621                0.27095933                0.05783487                0.13855903                0.13853027
               4.00000000                3.00000000               70.00000000                0.01202396               -0.07777498               -0.05788248                0.28123505                0.07049496                0.18134399                0.32625286
               5.00000000                3.00000000               70.00000000                0.02063132               -0.08731369               -0.05907606                0.29280588                0.06302053                0.09255563                0.36999974
               6.00000000                3.00000000               70.00000000                0.04922802               -0.09389862               -0.06449558                0.29704318                0.04414190               -0.04865838                0.36677449
               7.00000000                3.00000000               70.00000000                0.08356772               -0.09565773               -0.07116141                0.29775531                0.03219167               -0.07696455                0.36024425
               8.00000000                3.00000000               70.00000000                0.12458114               -0.09538901               -0.07796470                0.29919072                0.02720832               -0.05245395                0.35431531
               9.00000000                3.00000000               70.00000000                0.17356396               -0.09294036               -0.08552116                0.30148946                0.01682110               -0.02379696                0.35324782
              10.00000000                3.00000000               70.00000000                0.60393388               -0.09113392               -0.09569729                0.30482436                0.00508301               -0.00796887                0.36675744
               0.00000000                4.00000000               70.00000000                0.54789436               -0.07720911               -0.07603608                0.25594420                0.00054462                0.00016276               -0.01569672
               1.00000000                4.00000000               70.00000000                0.04279039               -0.07644588               -0.07880735                0.25923147                0.00163399                0.00283885               -0.00860918
               2.00000000                4.00000000               70.00000000                0.01000000               -0.06060877               -0.09301505                0.26346388                0.03514527                0.19273014               -0.04885877
               3.00000000                4.00000000               70.00000000                0.01201262               -0.05790616               -0.07780649                0.28138393                0.07049521                0.32631716                0.18131599
               4.00000000                4.00000000               70.00000000                0.02057367               -0.08035777               -0.08042088                0.29664517                0.03766419                0.17090785                0.17085964
               5.00000000                4.00000000               70.00000000                0.04909656               -0.09254672               -0.08947377                0.30393159                0.02331126                0.02164537                0.08477283
               6.00000000                4.00000000               70.00000000                0.08322593               -0.09495010               -0.09399168                0.30782949                0.01806689               -0.02706771                0.09120663
               7.00000000                4.00000000               70.00000000                0.12384062               -0.09540667               -0.09370181                0.31139134                0.01668110               -0.02984554                0.13571012
               8.00000000                4.00000000               70.00000000                0.17210370               -0.09543498               -0.09483378                0.31505691                0.01562820               -0.02338913                0.16909165
               9.00000000                4.00000000               70.00000000                0.22945644               -0.09586218               -0.09744377                0.31911733                0.01091545               -0.01176968                0.19408857
              10.00000000                4.00000000               70.00000000                0.63458571               -0.09642287               -0.09569320                0.32375508                0.00401995               -0.00450665                0.20964720
               0.00000000                5.00000000               70.00000000                0.58506367               -0.07787259               -0.07722893                0.25783283                0.00056471                0.00001681               -0.01477687
               1.00000000                5.00000000               70.00000000                0.09253371               -0.07802978               -0.07873453                0.26154451                0.00167070               -0.00066525               -0.00785713
               2.00000000                5.00000000               70.00000000                0.01000001               -0.05620811               -0.08001786                0.26552756                0.04331640                0.29891854               -0.00518295
               3.00000000                5.00000000               70.00000000                0.02062341               -0.05907779               -0.08732659                0.29300579                0.06308408                0.37003965                0.09267532
               4.00000000                5.00000000               70.00000000                0.04910106               -0.08945118               -0.09257611                0.30391957                0.02336065                0.08487018                0.02164759
               5.00000000                5.00000000               70.00000000                0.08324383               -0.09547697               -0.09548156                0.30980971                0.01580290                0.01039481                0.01044995
               6.00000000                5.00000000               70.00000000                0.12390018               -0.09618332               -0.09707882                0.31488323                0.01244644               -0.00370120                0.03046488
               7.00000000                5.00000000               70.00000000                0.17213629               -0.09657027               -0.09857932                0.31970632                0.01012962               -0.00866083                0.04985604
               8.00000000                5.00000000               70.00000000                0.22941843               -0.09711673               -0.10017952                0.32449519                0.00791082               -0.00842981                0.06642917
               9.00000000                5.00000000               70.00000000                0.29752046               -0.09848412               -0.10105126                0.32948134                0.00460890               -0.00486006                0.07893125
              10.00000000                5.00000000               70.00000000                0.67209178               -0.09948659               -0.09893506                0.33483134                0.00125305               -0.00209408                0.08685446
               0.00000000                6.00000000               70.00000000                0.63185032               -0.07851652               -0.07820520                0.25973415                0.00057810               -0.00007696               -0.01263068
               1.00000000                6.00000000               70.00000000                0.15513650               -0.07883738               -0.07891013                0.26382066                0.00191319                0.00032721               -0.00647962
               2.00000000                6.00000000               70.00000000                0.02636169               -0.05832554               -0.07957157                0.26801696                0.03839526                0.30371152                0.00155911
               3.00000000                6.00000000               70.00000000                0.04924363               -0.06448626               -0.09388077                0.29700845                0.04414815                0.36674751               -0.04855581
               4.00000000                6.00000000               70.00000000                0.08321770               -0.09400402               -0.09495295                0.30784713                0.01808675                0.09115691               -0.02713279
               5.00000000                6.00000000               70.00000000                0.12389520               -0.09708561               -0.09618683                0.31490303                0.01245260                0.03045924               -0.00370370
               6.00000000                6.00000000               70.00000000                0.17220303               -0.09790784               -0.09790864                0.32078973                0.00860854                0.00995217                0.00994583
               7.00000000                6.00000000               70.00000000                0.22956668               -0.09848827               -0.09978166                0.32625056                0.00591144                0.00142205                0.01995264
               8.00000000                6.00000000               70.00000000                0.29778051               -0.09936035               -0.10144097                0.33157385                0.00378362               -0.00161516                0.02776367
               9.00000000                6.00000000               70.00000000                0.37916821               -0.10087517               -0.10238146                0.33697775                0.00185456               -0.00157823                0.03344644
              10.00000000                6.00000000               70.00000000                0.71717148               -0.10183334               -0.10202564                0.34262770               -0.00003731               -0.00082433                0.03682828
               0.00000000                7.00000000               70.00000000                0.68911888               -0.07914402               -0.07896712                0.26168819                0.00057008               -0.00005644               -0.00980282
               1.00000000                7.00000000               70.00000000                0.23235098               -0.07945855               -0.07937966                0.26608021                0.00174912                0.00281560               -0.00455576
               2.00000000                7.00000000               70.00000000                0.05969689               -0.06620349               -0.08041621                0.27068659                0.03085791                0.26649505                0.00434281
               3.00000000                7.00000000               70.00000000                0.08357035               -0.07115914               -0.09563922                0.29770663                0.03216752                0.36020384               -0.07701435
               4.00000000                7.00000000               70.00000000                0.12384858               -0.09369450               -0.09540517                0.31138354                0.01667190                0.13570306               -0.02984471
               5.00000000                7.00000000               70.00000000                0.17213971               -0.09857838               -0.09656917                0.31969800                0.01013416                0.04985696               -0.00865892
               6.00000000                7.00000000               70.00000000                0.22956717               -0.09978105               -0.09848802                0.32624608                0.00591232                0.01995361                0.00141729
               7.00000000                7.00000000               70.00000000                0.29789622               -0.10049485               -0.10049440                0.33209756                0.00330760                0.00743073                0.00742446
               8.00000000                7.00000000               70.00000000                0.37943816               -0.10148085               -0.10225670                0.33769091                0.00168488                0.00206625                0.01152182
               9.00000000                7.00000000               70.00000000                0.47723990               -0.10294491               -0.10358825                0.34328272                0.00067511                0.00017821                0.01421230
              10.00000000                7.00000000               70.00000000                0.77143368               -0.10380787               -0.10438216                0.34903579               -0.00056365               -0.00010774                0.01548448
               0.00000000                8.00000000               70.00000000                0.75800742               -0.07976477               -0.07950973                0.26370484                0.00051232                0.00016792               -0.00692078
               1.00000000                8.00000000               70.00000000                0.32646926               -0.08013194               -0.08014336                0.26834125                0.00122678                0.00547983               -0.00228648
               2.00000000                8.00000000               70.00000000                0.10141653               -0.07302229               -0.08164442                0.27337535                0.02288595                0.23966133                0.00543215
               3.00000000                8.00000000               70.00000000                0.12458311               -0.07796121               -0.09539413                0.29920261                0.02720931                0.35431338               -0.05245105
               4.00000000                8.00000000               70.00000000                0.17211657               -0.09482814               -0.09543258                0.31504340                0.01563114                0.16909672               -0.02338457
               5.00000000                8.00000000               70.00000000                0.22941686               -0.10018110               -0.09711434                0.32449297                0.00791475                0.06641371               -0.00843155
               6.00000000                8.00000000               70.00000000                0.29778144               -0.10144222               -0.09935893                0.33157029                0.00378329                0.02776021               -0.00161336
               7.00000000                8.00000000               70.00000000                0.37943983               -0.10225672               -0.10147918                0.33768694                0.00168461                0.01152643                0.00206417
               8.00000000                8.00000000               70.00000000                0.47740531               -0.10334517               -0.10334396                0.34344413                0.00062085                0.00433216                0.00433090
               9.00000000                8.00000000               70.00000000                0.59571241               -0.10479035               -0.10496184                0.34911974                0.00015264                0.00121188                0.00565666
              10.00000000                8.00000000               70.00000000                0.83716442               -0.10560224               -0.10635912                0.35489115               -0.00078930                0.00033105                0.00606529
               0.00000000                9.00000000               70.00000000                0.83988952               -0.08040869               -0.07990521                0.26577126                0.00042013                0.00070812               -0.00398739
               1.00000000                9.00000000               70.00000000                0.44035256               -0.08089639               -0.08104319                0.27063199                0.00063241                0.00753025               -0.00036240
               2.00000000                9.00000000               70.00000000                0.15362645               -0.07891143               -0.08263028                0.27602447                0.01583403                0.22322646                0.00393699
               3.00000000                9.00000000               70.00000000                0.17358243               -0.08551641               -0.09294089                0.30148091                0.01682227                0.35322893               -0.02378411
               4.00000000                9.00000000               70.00000000                0.22945645               -0.09744294               -0.09585672                0.31910127                0.01092046                0.19407240               -0.01178481
               5.00000000                9.00000000               70.00000000                0.29752050               -0.10105412               -0.09848333                0.32948278                0.00461017                0.07892796               -0.00486563
               6.00000000                9.00000000               70.00000000                0.37916986               -0.10238192               -0.10087483                0.33697646                0.00185576                0.03344580               -0.00157572
               7.00000000                9.00000000               70.00000000                0.47724187               -0.10358834               -0.10294420                0.34328073                0.00067630                0.01421500                0.00017744
               8.00000000                9.00000000               70.00000000                0.59571208               -0.10496327               -0.10479066                0.34912357                0.00015319                0.00565909                0.00121300
               9.00000000                9.00000000               70.00000000                0.74006298               -0.10650095               -0.10650047                0.35483203               -0.00001746                0.00177692                0.00177879
              10.00000000                9.00000000               70.00000000                0.91753061               -0.10730458               -0.10819433                0.36059889               -0.00089755                0.00058142                0.00189163
               0.00000000               10.00000000               70.00000000                0.94896054               -0.08121169               -0.08008431                0.26797253               -0.00043065               -0.00031409               -0.00233079
               1.00000000               10.00000000               70.00000000                0.76031628               -0.08231690               -0.08149263                0.27290783               -0.00033595                0.00636332                0.00052267
               2.00000000               10.00000000               70.00000000                0.59508925               -0.09029410               -0.08297702                0.27828100                0.01091806                0.22225875                0.00228126
               3.00000000               10.00000000               70.00000000                0.60393782               -0.09569430               -0.09112753                0.30479959                0.00508782                0.36672270               -0.00795555
               4.00000000               10.00000000               70.00000000                0.63458595               -0.09569281               -0.09641488                0.32373739                0.00402000                0.20962294               -0.00452237
               5.00000000               10.00000000               70.00000000                0.67209067               -0.09893708               -0.09948604                0.33483087                0.00125029                0.08685861               -0.00209897
               6.00000000               10.00000000               70.00000000                0.71717809               -0.10202523               -0.10183347                0.34262636               -0.00003646                0.03682920               -0.00082241
               7.00000000               10.00000000               70.00000000                0.77143340               -0.10438248               -0.10380816                0.34903602               -0.00056330                0.01548595               -0.00010931
               8.00000000               10.00000000               70.00000000                0.83716776               -0.10636112               -0.10560428                0.35489770               -0.00078907                0.00606779                0.00033115
               9.00000000               10.00000000               70.00000000                0.91753413               -0.10819584               -0.10730535                0.36060286               -0.00089639                0.00188966                0.00058351
              10.00000000               10.00000000               70.00000000                0.98509070               -0.10909499               -0.10909426                0.36636458               -0.00186443                0.00064116                0.00064373
               0.00000000                0.00000000               71.00000000                0.75400543               -0.07463846               -0.07463936                0.24889862                0.00078251               -0.00088590               -0.00088864
               1.00000000                0.00000000               71.00000000                0.50076766               -0.07400433               -0.07591590                0.25094308                0.00136968               -0.00537283               -0.00027212
               2.00000000                0.00000000               71.00000000                0.50015310               -0.07398276               -0.07606072                0.25290057                0.00042110               -0.01226855                0.00068474
               3.00000000                0.00000000               71.00000000                0.51977522               -0.07516182               -0.07674503                0.25474887                0.00045452               -0.01537403                0.00036325
               4.00000000                0.00000000               71.00000000                0.54802224               -0.07622829               -0.07734067                0.25651026                0.00043752               -0.01621161                0.00016824
               5.00000000                0.00000000               71.00000000                0.58512553               -0.07716308               -0.07794080                0.25823446                0.00044563               -0.01529231                0.00000678
               6.00000000                0.00000000               71.00000000                0.63180758               -0.07797460               -0.07851950                0.25994549                0.00045293               -0.01309634               -0.00009580
               7.00000000                0.00000000               71.00000000                0.68895088               -0.07866696               -0.07908440                0.26169198                0.00045526               -0.01018444               -0.00007455
               8.00000000                0.00000000               71.00000000                0.75765685               -0.07922714               -0.07965059                0.26350306                0.00042706               -0.00722968                0.00015949
               9.00000000                0.00000000               71.00000000                0.83928191               -0.07968160               -0.08022921                0.26535782                0.00037014               -0.00421329                0.00073044
              10.00000000                0.00000000               71.00000000                0.94859786               -0.07989153               -0.08091239                0.26732629               -0.00039935               -0.00251598               -0.00041406
               0.00000000                1.00000000               71.00000000                0.50075139               -0.07591597               -0.07400638                0.25094648                0.00137057               -0.00027122               -0.00537460
               1.00000000                1.00000000               71.00000000                0.01000000               -0.07730346               -0.07730516                0.25301759                0.00308957               -0.00351632               -0.00351697
               2.00000000                1.00000000               71.00000000                0.01000000               -0.07876881               -0.07345229                0.25517262                0.00902088               -0.00726974                0.02234534
               3.00000000                1.00000000               71.00000000                0.01000000               -0.07882685               -0.06997782                0.25734436                0.00929804               -0.00843817                0.04665926
               4.00000000                1.00000000               71.00000000                0.04292602               -0.07884308               -0.07697814                0.25950248                0.00044664               -0.00829343                0.00327979
               5.00000000                1.00000000               71.00000000                0.09253361               -0.07896179               -0.07820942                0.26162041                0.00062374               -0.00760148               -0.00056947
               6.00000000                1.00000000               71.00000000                0.15502818               -0.07919288               -0.07884490                0.26367287                0.00101625               -0.00630250                0.00029135
               7.00000000                1.00000000               71.00000000                0.23211374               -0.07958668               -0.07939510                0.26569206                0.00107615               -0.00443116                0.00287138
               8.00000000                1.00000000               71.00000000                0.32595694               -0.08017662               -0.08002383                0.26772001                0.00080232               -0.00217808                0.00565250
               9.00000000                1.00000000               71.00000000                0.43953423               -0.08088323               -0.08071717                0.26977459                0.00040633               -0.00025860                0.00780941
              10.00000000                1.00000000               71.00000000                0.75978369               -0.08124531               -0.08173823                0.27180918               -0.00048401                0.00062601                0.00648510
               0.00000000                2.00000000               71.00000000                0.50014984               -0.07606155               -0.07398643                0.25290621                0.00042152                0.00068259               -0.01226495
               1.00000000                2.00000000               71.00000000                0.01000000               -0.07345285               -0.07877278                0.25517778                0.00902298                0.02234543               -0.00726430
               2.00000000                2.00000000               71.00000000                0.01000001               -0.07650194               -0.07650002                0.25946142                0.02791494                0.04041269                0.04040251
               3.00000000                2.00000000               71.00000000                0.01000000               -0.09089923               -0.06670817                0.26389137                0.02563655               -0.02810287                0.10162205
               4.00000000                2.00000000               71.00000000                0.01000000               -0.09017383               -0.06502948                0.26333921                0.02525815               -0.04983546                0.20070895
               5.00000000                2.00000000               71.00000000                0.01000001               -0.08023238               -0.06205578                0.26531334                0.03117225               -0.00487452                0.31124325
               6.00000000                2.00000000               71.00000000                0.02634620               -0.07999226               -0.06420147                0.26744492                0.02698386                0.00211689                0.31672705
               7.00000000                2.00000000               71.00000000                0.05964040               -0.08069387               -0.07061666                0.26983790                0.02099674                0.00499591                0.27839290
               8.00000000                2.00000000               71.00000000                0.10130797               -0.08164543               -0.07606349                0.27231496                0.01480681                0.00603475                0.25087632
               9.00000000                2.00000000               71.00000000                0.15346062               -0.08243401               -0.08054648                0.27472535                0.00938552                0.00434449                0.23424554
              10.00000000                2.00000000               71.00000000                0.59497944               -0.08273622               -0.08736716                0.27674869                0.00491928                0.00252473                0.23371178
               0.00000000                3.00000000               71.00000000                0.51976950               -0.07674569               -0.07516517                0.25475303                0.00045440                0.00036134               -0.01537180
               1.00000000                3.00000000               71.00000000                0.01000000               -0.06997178               -0.07883052                0.25734802                0.00930451                0.04664700               -0.00843366
               2.00000000                3.00000000               71.00000000                0.01000000               -0.06673223               -0.09091483                0.26389834                0.02566393                0.10162145               -0.02804434
               3.00000000                3.00000000               71.00000000                0.01000000               -0.07327119               -0.07319994                0.27169836                0.04355035                0.14399186                0.14411359
               4.00000000                3.00000000               71.00000000                0.01201830               -0.08018714               -0.06415107                0.28250084                0.05219244                0.18833488                0.33908186
               5.00000000                3.00000000               71.00000000                0.02062292               -0.08789484               -0.06570099                0.29450209                0.04542768                0.09620482                0.38463906
               6.00000000                3.00000000               71.00000000                0.04923627               -0.09250244               -0.07046962                0.29850257                0.03034202               -0.05057649                0.38171573
               7.00000000                3.00000000               71.00000000                0.08357915               -0.09344092               -0.07612079                0.29859287                0.02083087               -0.08029923                0.37556734
               8.00000000                3.00000000               71.00000000                0.12459630               -0.09306619               -0.08174753                0.29962050                0.01665472               -0.05458117                0.37020143
               9.00000000                3.00000000               71.00000000                0.17364916               -0.09162759               -0.08751927                0.30159925                0.00975921               -0.02459480                0.36995760
              10.00000000                3.00000000               71.00000000                0.60400077               -0.09069092               -0.09439685                0.30472396                0.00142223               -0.00808997                0.38562593
               0.00000000                4.00000000               71.00000000                0.54801722               -0.07734061               -0.07622841                0.25651064                0.00043641                0.00016786               -0.01621664
               1.00000000                4.00000000               71.00000000                0.04292627               -0.07697945               -0.07884341                0.25950271                0.00043819                0.00336010               -0.00829641
               2.00000000                4.00000000               71.00000000                0.01000000               -0.06496788               -0.09017721                0.26333026                0.02532714                0.20085008               -0.04984582
               3.00000000                4.00000000               71.00000000                0.01203117               -0.06412168               -0.08020914                0.28260835                0.05223144                0.33902488                0.18846374
               4.00000000                4.00000000               71.00000000                0.02058805               -0.08292522               -0.08286655                0.29867182                0.02654876                0.17735716                0.17747769
               5.00000000                4.00000000               71.00000000                0.04912908               -0.09250844               -0.09017900                0.30584071                0.01601326                0.02215555                0.08807005
               6.00000000                4.00000000               71.00000000                0.08324886               -0.09436911               -0.09388753                0.30946080                0.01205236               -0.02853564                0.09449472
               7.00000000                4.00000000               71.00000000                0.12387422               -0.09482520               -0.09402205                0.31269794                0.01069823               -0.03137015                0.14105724
               8.00000000                4.00000000               71.00000000                0.17215936               -0.09502391               -0.09535124                0.31606474                0.00959660               -0.02459145                0.17616180
               9.00000000                4.00000000               71.00000000                0.22953870               -0.09542107               -0.09782634                0.31985384                0.00639069               -0.01242507                0.20269743
              10.00000000                4.00000000               71.00000000                0.63463992               -0.09579883               -0.09837427                0.32430918                0.00128489               -0.00474452                0.21994637
               0.00000000                5.00000000               71.00000000                0.58512973               -0.07793687               -0.07716089                0.25822568                0.00044581                0.00000716               -0.01529527
               1.00000000                5.00000000               71.00000000                0.09255645               -0.07820407               -0.07895964                0.26161172                0.00062721               -0.00054993               -0.00760226
               2.00000000                5.00000000               71.00000000                0.01000001               -0.06202939               -0.08021834                0.26524015                0.03118062                0.31137899               -0.00494902
               3.00000000                5.00000000               71.00000000                0.02062279               -0.06570549               -0.08796217                0.29471958                0.04535137                0.38461097                0.09603493
               4.00000000                5.00000000               71.00000000                0.04912123               -0.09020278               -0.09248463                0.30577419                0.01598288                0.08792762                0.02216828
               5.00000000                5.00000000               71.00000000                0.08328071               -0.09513124               -0.09513496                0.31157234                0.01070291                0.01042384                0.01040776
               6.00000000                5.00000000               71.00000000                0.12394725               -0.09599215               -0.09671498                0.31643805                0.00832714               -0.00428255                0.03124740
               7.00000000                5.00000000               71.00000000                0.17221843               -0.09659517               -0.09821899                0.32101633                0.00664504               -0.00940065                0.05149625
               8.00000000                5.00000000               71.00000000                0.22952050               -0.09728069               -0.09987156                0.32556533                0.00505923               -0.00913812                0.06888686
               9.00000000                5.00000000               71.00000000                0.29766305               -0.09843947               -0.10131166                0.33032487                0.00286715               -0.00530104                0.08219133
              10.00000000                5.00000000               71.00000000                0.67217180               -0.09920399               -0.10136502                0.33551028                0.00002330               -0.00228592                0.09093212
               0.00000000                6.00000000               71.00000000                0.63179731               -0.07851950               -0.07797523                0.25994543                0.00045458               -0.00009509               -0.01309797
               1.00000000                6.00000000               71.00000000                0.15502844               -0.07884504               -0.07919335                0.26367387                0.00101737                0.00030871               -0.00630227
               2.00000000                6.00000000               71.00000000                0.02634266               -0.06421496               -0.07999436                0.26745919                0.02698000                0.31668578                0.00209351
               3.00000000                6.00000000               71.00000000                0.04923816               -0.07046625               -0.09250989                0.29844780                0.03030965                0.38169357               -0.05070976
               4.00000000                6.00000000               71.00000000                0.08325414               -0.09387075               -0.09437372                0.30945661                0.01205317                0.09452445               -0.02849964
               5.00000000                6.00000000               71.00000000                0.12394443               -0.09671665               -0.09599296                0.31644536                0.00832944                0.03123527               -0.00428646
               6.00000000                6.00000000               71.00000000                0.17229315               -0.09776429               -0.09776307                0.32218173                0.00579468                0.00989647                0.00990602
               7.00000000                6.00000000               71.00000000                0.22970453               -0.09857589               -0.09957040                0.32740455                0.00399696                0.00103370                0.02030592
               8.00000000                6.00000000               71.00000000                0.29798281               -0.09954930               -0.10128426                0.33249277                0.00257044               -0.00206344                0.02849711
               9.00000000                6.00000000               71.00000000                0.37942138               -0.10091997               -0.10267681                0.33769372                0.00125533               -0.00187440                0.03453069
              10.00000000                6.00000000               71.00000000                0.71731074               -0.10172950               -0.10348281                0.34318517               -0.00049624               -0.00095855                0.03821101
               0.00000000                7.00000000               71.00000000                0.68894241               -0.07908614               -0.07867006                0.26169731                0.00045537               -0.00007525               -0.01018899
               1.00000000                7.00000000               71.00000000                0.23209673               -0.07939666               -0.07958948                0.26569876                0.00107844                0.00286655               -0.00443296
               2.00000000                7.00000000               71.00000000                0.05964580               -0.07061868               -0.08069650                0.26984384                0.02099711                0.27835767                0.00498663
               3.00000000                7.00000000               71.00000000                0.08357634               -0.07611798               -0.09344754                0.29857885                0.02084702                0.37555051               -0.08025423
               4.00000000                7.00000000               71.00000000                0.12388169               -0.09401639               -0.09482484                0.31269126                0.01069796                0.14106054               -0.03138181
               5.00000000                7.00000000               71.00000000                0.17220956               -0.09821852               -0.09659491                0.32101511                0.00664937                0.05149165               -0.00941414
               6.00000000                7.00000000               71.00000000                0.22970890               -0.09957309               -0.09857778                0.32741091                0.00400264                0.02031314                0.00103324
               7.00000000                7.00000000               71.00000000                0.29810594               -0.10050925               -0.10050875                0.33303855                0.00233443                0.00728431                0.00727971
               8.00000000                7.00000000               71.00000000                0.37974213               -0.10159239               -0.10227748                0.33839945                0.00125248                0.00177908                0.01156932
               9.00000000                7.00000000               71.00000000                0.47763314               -0.10299226               -0.10382519                0.34378447                0.00053155               -0.00003034                0.01439723
              10.00000000                7.00000000               71.00000000                0.77165501               -0.10378209               -0.10511905                0.34937268               -0.00069364               -0.00020479                0.01573590
               0.00000000                8.00000000               71.00000000                0.75764613               -0.07964926               -0.07922829                0.26350182                0.00042649                0.00016044               -0.00723120
               1.00000000                8.00000000               71.00000000                0.32598608               -0.08002340               -0.08017775                0.26772127                0.00080661                0.00566645               -0.00217562
               2.00000000                8.00000000               71.00000000                0.10132104               -0.07605739               -0.08164750                0.27232404                0.01480671                0.25086927                0.00605046
               3.00000000                8.00000000               71.00000000                0.12461274               -0.08174571               -0.09306799                0.29960796                0.01665560                0.37014951               -0.05456565
               4.00000000                8.00000000               71.00000000                0.17215472               -0.09535549               -0.09501714                0.31604065                0.00959895                0.17613506               -0.02460108
               5.00000000                8.00000000               71.00000000                0.22952393               -0.09987007               -0.09727899                0.32555883                0.00505689                0.06889196               -0.00913057
               6.00000000                8.00000000               71.00000000                0.29797844               -0.10128469               -0.09955116                0.33249408                0.00257207                0.02850052               -0.00206245
               7.00000000                8.00000000               71.00000000                0.37972611               -0.10227985               -0.10159561                0.33841213                0.00125646                0.01157138                0.00177528
               8.00000000                8.00000000               71.00000000                0.47783500               -0.10342233               -0.10342300                0.34392942                0.00054266                0.00415149                0.00414691
               9.00000000                8.00000000               71.00000000                0.59626640               -0.10482348               -0.10509648                0.34938569                0.00018025                0.00105744                0.00552771
              10.00000000                8.00000000               71.00000000                0.83747738               -0.10559596               -0.10664241                0.35498483               -0.00078045                0.00026348                0.00592713
               0.00000000                9.00000000               71.00000000                0.83930490               -0.08022557               -0.07967924                0.26534844                0.00036969                0.00073271               -0.00420944
               1.00000000                9.00000000               71.00000000                0.43954016               -0.08071522               -0.08088174                0.26976976                0.00040841                0.00782228               -0.00025213
               2.00000000                9.00000000               71.00000000                0.15346918               -0.08054935               -0.08243677                0.27473468                0.00938682                0.23421682                0.00434368
               3.00000000                9.00000000               71.00000000                0.17364327               -0.08752209               -0.09161871                0.30157651                0.00975191                0.36989899               -0.02461393
               4.00000000                9.00000000               71.00000000                0.22953687               -0.09782390               -0.09542064                0.31985218                0.00638998                0.20269328               -0.01242699
               5.00000000                9.00000000               71.00000000                0.29766851               -0.10130771               -0.09843964                0.33032347                0.00286173                0.08220152               -0.00529353
               6.00000000                9.00000000               71.00000000                0.37942641               -0.10267522               -0.10091957                0.33768992                0.00125225                0.03452671               -0.00187284
               7.00000000                9.00000000               71.00000000                0.47762704               -0.10382590               -0.10299451                0.34379093                0.00053270                0.01439733               -0.00002917
               8.00000000                9.00000000               71.00000000                0.59627375               -0.10509680               -0.10482529                0.34938875                0.00018227                0.00553209                0.00105825
               9.00000000                9.00000000               71.00000000                0.74081174               -0.10653022               -0.10653067                0.35487018                0.00003516                0.00164653                0.00164775
              10.00000000                9.00000000               71.00000000                0.91796418               -0.10728618               -0.10822348                0.36045799               -0.00085089                0.00053568                0.00174718
               0.00000000               10.00000000               71.00000000                0.94859928               -0.08090714               -0.07988740                0.26731147               -0.00040097               -0.00041487               -0.00251082
               1.00000000               10.00000000               71.00000000                0.75977600               -0.08173503               -0.08124261                0.27179960               -0.00048524                0.00648851                0.00063349
               2.00000000               10.00000000               71.00000000                0.59497978               -0.08737447               -0.08273854                0.27675407                0.00492622                0.23366671                0.00252438
               3.00000000               10.00000000               71.00000000                0.60399891               -0.09440210               -0.09067693                0.30469715                0.00141786                0.38557351               -0.00811018
               4.00000000               10.00000000               71.00000000                0.63464720               -0.09836839               -0.09580417                0.32431919                0.00127858                0.21995360               -0.00474978
               5.00000000               10.00000000               71.00000000                0.67217648               -0.10136029               -0.09920559                0.33551136                0.00002261                0.09094265               -0.00228385
               6.00000000               10.00000000               71.00000000                0.71731411               -0.10348136               -0.10172776                0.34318000               -0.00049820                0.03820587               -0.00095826
               7.00000000               10.00000000               71.00000000                0.77165394               -0.10511937               -0.10378246                0.34937231               -0.00069477                0.01573541               -0.00020306
               8.00000000               10.00000000               71.00000000                0.83747978               -0.10664243               -0.10559683                0.35498426               -0.00077918                0.00593100                0.00026688
               9.00000000               10.00000000               71.00000000                0.91795935               -0.10822306               -0.10728651                0.36045742               -0.00085031                0.00174660                0.00053932
              10.00000000               10.00000000               71.00000000                0.98533548               -0.10903925               -0.10903956                0.36603628               -0.00179948                0.00060108                0.00060281
               0.00000000                0.00000000               72.00000000                0.75432026               -0.07514201               -0.07514298                0.25019645                0.00064074               -0.00088631               -0.00088115
               1.00000000                0.00000000               72.00000000                0.50116828               -0.07488645               -0.07605554                0.25200628                0.00082864               -0.00540654               -0.00024493
               2.00000000                0.00000000               72.00000000                0.50038585               -0.07500610               -0.07635603                0.25379585                0.00032385               -0.01246696                0.00073186
               3.00000000                0.00000000               72.00000000                0.51996569               -0.07573230               -0.07694107                0.25549316                0.00033021               -0.01570596                0.00038252
               4.00000000                0.00000000               72.00000000                0.54816735               -0.07641310               -0.07747387                0.25710592                0.00031187               -0.01661612                0.00016813
               5.00000000                0.00000000               72.00000000                0.58518838               -0.07706762               -0.07800566                0.25867132                0.00031139               -0.01570641               -0.00000712
               6.00000000                0.00000000               72.00000000                0.63172013               -0.07771682               -0.07853139                0.26023217                0.00031641               -0.01347524               -0.00011514
               7.00000000                0.00000000               72.00000000                0.68873446               -0.07835082               -0.07904269                0.26179769                0.00032639               -0.01050082               -0.00009654
               8.00000000                0.00000000               72.00000000                0.75725255               -0.07893907               -0.07954770                0.26339309                0.00032993               -0.00748282                0.00014867
               9.00000000                0.00000000               72.00000000                0.83866079               -0.07946773               -0.08005552                0.26502989                0.00031658               -0.00439407                0.00074818
              10.00000000                0.00000000               72.00000000                0.94820114               -0.07971767               -0.08061200                0.26676524               -0.00034664               -0.00267057               -0.00051458
               0.00000000                1.00000000               72.00000000                0.50119252               -0.07605437               -0.07488870                0.25200648                0.00082773               -0.00025138               -0.00539922
               1.00000000                1.00000000               72.00000000                0.01000000               -0.07693902               -0.07694146                0.25383635                0.00162878               -0.00341778               -0.00340583
               2.00000000                1.00000000               72.00000000                0.01000000               -0.07807535               -0.07474000                0.25580030                0.00523689               -0.00697872                0.02345581
               3.00000000                1.00000000               72.00000000                0.01000000               -0.07851208               -0.07240752                0.25778737                0.00506497               -0.00807023                0.04873725
               4.00000000                1.00000000               72.00000000                0.04306756               -0.07887517               -0.07756819                0.25974814               -0.00094760               -0.00794483                0.00370308
               5.00000000                1.00000000               72.00000000                0.09258246               -0.07921110               -0.07839392                0.26165228               -0.00058118               -0.00732776               -0.00042273
               6.00000000                1.00000000               72.00000000                0.15492730               -0.07951779               -0.07885357                0.26350084               -0.00001619               -0.00612051                0.00032009
               7.00000000                1.00000000               72.00000000                0.23179403               -0.07983642               -0.07933723                0.26528895                0.00030191               -0.00431424                0.00288847
               8.00000000                1.00000000               72.00000000                0.32540503               -0.08022978               -0.07991735                0.26705971                0.00032238               -0.00207295                0.00582360
               9.00000000                1.00000000               72.00000000                0.43858560               -0.08071957               -0.08053860                0.26886548                0.00015323               -0.00015069                0.00809481
              10.00000000                1.00000000               72.00000000                0.75916338               -0.08098584               -0.08111659                0.27065766               -0.00064130                0.00073540                0.00661802
               0.00000000                2.00000000               72.00000000                0.50039597               -0.07635249               -0.07500841                0.25379464                0.00032278                0.00073330               -0.01246300
               1.00000000                2.00000000               72.00000000                0.01000000               -0.07473532               -0.07807794                0.25579800                0.00523631                0.02344681               -0.00696984
               2.00000000                2.00000000               72.00000000                0.01000001               -0.07725758               -0.07727887                0.26004009                0.01728577                0.04237715                0.04240446
               3.00000000                2.00000000               72.00000000                0.01000000               -0.08737485               -0.07084370                0.26444963                0.01514592               -0.02863775                0.10594633
               4.00000000                2.00000000               72.00000000                0.01000000               -0.08699472               -0.06996617                0.26307471                0.01421872               -0.05108138                0.20959932
               5.00000000                2.00000000               72.00000000                0.01000001               -0.08044149               -0.06856369                0.26486490                0.01743124               -0.00462023                0.32507158
               6.00000000                2.00000000               72.00000000                0.02630784               -0.08047128               -0.07090463                0.26678363                0.01402800                0.00250678                0.33102479
               7.00000000                2.00000000               72.00000000                0.05957979               -0.08100907               -0.07570196                0.26886161                0.00980508                0.00550735                0.29137820
               8.00000000                2.00000000               72.00000000                0.10119482               -0.08163537               -0.07961040                0.27108449                0.00562285                0.00661797                0.26313283
               9.00000000                2.00000000               72.00000000                0.15326802               -0.08220846               -0.08254200                0.27326961                0.00205115                0.00472365                0.24626346
              10.00000000                2.00000000               72.00000000                0.59485206               -0.08246799               -0.08422736                0.27507101               -0.00185128                0.00274701                0.24618061
               0.00000000                3.00000000               72.00000000                0.51998265               -0.07693628               -0.07573331                0.25548848                0.00033088                0.00038281               -0.01571005
               1.00000000                3.00000000               72.00000000                0.01000000               -0.07240373               -0.07851337                0.25778163                0.00504564                0.04874639               -0.00807262
               2.00000000                3.00000000               72.00000000                0.01000000               -0.07082892               -0.08740268                0.26447504                0.01512814                0.10593442               -0.02866248
               3.00000000                3.00000000               72.00000000                0.01000000               -0.07660637               -0.07662862                0.27255139                0.02758187                0.15020537                0.15024300
               4.00000000                3.00000000               72.00000000                0.01203697               -0.08303795               -0.07118527                0.28413357                0.03180811                0.19637467                0.35340955
               5.00000000                3.00000000               72.00000000                0.02062973               -0.08873641               -0.07323961                0.29672461                0.02547070                0.09994075                0.40074487
               6.00000000                3.00000000               72.00000000                0.04924278               -0.09098253               -0.07731421                0.30021588                0.01461022               -0.05314252                0.39804580
               7.00000000                3.00000000               72.00000000                0.08357469               -0.09096824               -0.08187278                0.29966764                0.00802282               -0.08400426                0.39239289
               8.00000000                3.00000000               72.00000000                0.12461843               -0.09041986               -0.08622697                0.30021039                0.00471127               -0.05697608                0.38752392
               9.00000000                3.00000000               72.00000000                0.17372733               -0.09006619               -0.09003161                0.30180722                0.00173891               -0.02555359                0.38810783
              10.00000000                3.00000000               72.00000000                0.60407314               -0.09008713               -0.09321809                0.30469595               -0.00273495               -0.00825306                0.40599673
               0.00000000                4.00000000               72.00000000                0.54815695               -0.07747275               -0.07641484                0.25710643                0.00031360                0.00016785               -0.01662751
               1.00000000                4.00000000               72.00000000                0.04306271               -0.07756939               -0.07887713                0.25974770               -0.00097676                0.00367323               -0.00795356
               2.00000000                4.00000000               72.00000000                0.01000000               -0.06999218               -0.08698207                0.26292494                0.01419782                0.20962695               -0.05110626
               3.00000000                4.00000000               72.00000000                0.01203592               -0.07119870               -0.08302737                0.28413549                0.03184846                0.35340873                0.19643479
               4.00000000                4.00000000               72.00000000                0.02061007               -0.08579021               -0.08581818                0.30104278                0.01409731                0.18455737                0.18459696
               5.00000000                4.00000000               72.00000000                0.04914163               -0.09252637               -0.09118908                0.30823753                0.00778989                0.02257150                0.09132482
               6.00000000                4.00000000               72.00000000                0.08326886               -0.09378940               -0.09382028                0.31150386                0.00531318               -0.03009535                0.09816338
               7.00000000                4.00000000               72.00000000                0.12391146               -0.09420308               -0.09447527                0.31433836                0.00398967               -0.03308361                0.14692157
               8.00000000                4.00000000               72.00000000                0.17221276               -0.09455573               -0.09607659                0.31729784                0.00282491               -0.02596491                0.18379714
               9.00000000                4.00000000               72.00000000                0.22963018               -0.09490105               -0.09842179                0.32078144                0.00129311               -0.01316204                0.21195201
              10.00000000                4.00000000               72.00000000                0.63470667               -0.09506943               -0.10160155                0.32502974               -0.00183433               -0.00500650                0.23092780
               0.00000000                5.00000000               72.00000000                0.58517865               -0.07800746               -0.07706945                0.25867507                0.00031190               -0.00000636               -0.01571280
               1.00000000                5.00000000               72.00000000                0.09259802               -0.07839207               -0.07921299                0.26165522               -0.00058565               -0.00045606               -0.00733118
               2.00000000                5.00000000               72.00000000                0.01000001               -0.06855366               -0.08041178                0.26475281                0.01743608                0.32517505               -0.00458755
               3.00000000                5.00000000               72.00000000                0.02063613               -0.07323839               -0.08870302                0.29679449                0.02552032                0.40078230                0.09989465
               4.00000000                5.00000000               72.00000000                0.04913252               -0.09119826               -0.09254169                0.30829090                0.00781225                0.09121498                0.02257182
               5.00000000                5.00000000               72.00000000                0.08332176               -0.09483295               -0.09482881                0.31379429                0.00499489                0.01046246                0.01046660
               6.00000000                5.00000000               72.00000000                0.12401106               -0.09583750               -0.09637779                0.31839755                0.00372289               -0.00491825                0.03214479
               7.00000000                5.00000000               72.00000000                0.17231324               -0.09665752               -0.09787422                0.32262510                0.00274850               -0.01027532                0.05328056
               8.00000000                5.00000000               72.00000000                0.22965278               -0.09747420               -0.09958642                0.32684430                0.00185404               -0.00994610                0.07152210
               9.00000000                5.00000000               72.00000000                0.29783655               -0.09838380               -0.10167601                0.33132915                0.00089508               -0.00579651                0.08563895
              10.00000000                5.00000000               72.00000000                0.67226779               -0.09887476               -0.10419497                0.33630406               -0.00137594               -0.00250282                0.09519157
               0.00000000                6.00000000               72.00000000                0.63174014               -0.07853236               -0.07771681                0.26023053                0.00031615               -0.00011677               -0.01347289
               1.00000000                6.00000000               72.00000000                0.15494487               -0.07885090               -0.07951763                0.26349856               -0.00001160                0.00033272               -0.00611497
               2.00000000                6.00000000               72.00000000                0.02631921               -0.07088814               -0.08047044                0.26675269                0.01404066                0.33100405                0.00255699
               3.00000000                6.00000000               72.00000000                0.04923909               -0.07731487               -0.09097525                0.30022806                0.01459516                0.39801644               -0.05326155
               4.00000000                6.00000000               72.00000000                0.08327441               -0.09383398               -0.09378480                0.31149076                0.00530140                0.09817231               -0.03010170
               5.00000000                6.00000000               72.00000000                0.12400932               -0.09637826               -0.09583848                0.31839463                0.00372463                0.03214020               -0.00491878
               6.00000000                6.00000000               72.00000000                0.17240968               -0.09765181               -0.09765174                0.32389134                0.00265608                0.00981303                0.00981966
               7.00000000                6.00000000               72.00000000                0.22988251               -0.09870664               -0.09937721                0.32881200                0.00186650                0.00055531                0.02066471
               8.00000000                6.00000000               72.00000000                0.29821462               -0.09977694               -0.10114348                0.33359242                0.00121022               -0.00259849                0.02923124
               9.00000000                6.00000000               72.00000000                0.37972681               -0.10096442               -0.10303756                0.33850946                0.00057383               -0.00221691                0.03560193
              10.00000000                6.00000000               72.00000000                0.71747880               -0.10159608               -0.10515299                0.34377571               -0.00101789               -0.00111546                0.03956600
               0.00000000                7.00000000               72.00000000                0.68873780               -0.07904292               -0.07835011                0.26179554                0.00032609               -0.00009784               -0.01050194
               1.00000000                7.00000000               72.00000000                0.23180126               -0.07933717               -0.07983562                0.26528688                0.00029798                0.00290309               -0.00431246
               2.00000000                7.00000000               72.00000000                0.05957184               -0.07570928               -0.08101532                0.26886815                0.00980988                0.29134584                0.00550531
               3.00000000                7.00000000               72.00000000                0.08356488               -0.08187340               -0.09097863                0.29974166                0.00801078                0.39236336               -0.08400944
               4.00000000                7.00000000               72.00000000                0.12390687               -0.09446434               -0.09420394                0.31433920                0.00398521                0.14693529               -0.03309390
               5.00000000                7.00000000               72.00000000                0.17230744               -0.09787106               -0.09666296                0.32264499                0.00274473                0.05329361               -0.01028246
               6.00000000                7.00000000               72.00000000                0.22988339               -0.09937786               -0.09870909                0.32882082                0.00186755                0.02066667                0.00055242
               7.00000000                7.00000000               72.00000000                0.29838167               -0.10054802               -0.10054915                0.33416134                0.00124488                0.00706416                0.00707269
               8.00000000                7.00000000               72.00000000                0.38008916               -0.10172473               -0.10231629                0.33922509                0.00077147                0.00140419                0.01155038
               9.00000000                7.00000000               72.00000000                0.47809215               -0.10303414               -0.10409376                0.34432243                0.00037147               -0.00028017                0.01450042
              10.00000000                7.00000000               72.00000000                0.77190037               -0.10373221               -0.10594133                0.34967234               -0.00083732               -0.00031348                0.01588793
               0.00000000                8.00000000               72.00000000                0.75725834               -0.07954910               -0.07893889                0.26339437                0.00032912                0.00014853               -0.00748781
               1.00000000                8.00000000               72.00000000                0.32544279               -0.07991682               -0.08022925                0.26705856                0.00031882                0.00582699               -0.00207498
               2.00000000                8.00000000               72.00000000                0.10119416               -0.07961656               -0.08162990                0.27105197                0.00562745                0.26309298                0.00660493
               3.00000000                8.00000000               72.00000000                0.12462255               -0.08622627               -0.09042297                0.30021328                0.00472433                0.38748389               -0.05696979
               4.00000000                8.00000000               72.00000000                0.17221219               -0.09606580               -0.09456299                0.31731248                0.00282506                0.18380864               -0.02595487
               5.00000000                8.00000000               72.00000000                0.22965236               -0.09958295               -0.09747855                0.32685133                0.00185126                0.07153097               -0.00994650
               6.00000000                8.00000000               72.00000000                0.29820828               -0.10114286               -0.09977990                0.33359907                0.00121333                0.02924157               -0.00260416
               7.00000000                8.00000000               72.00000000                0.38010679               -0.10231581               -0.10172705                0.33923082                0.00077246                0.01155312                0.00140598
               8.00000000                8.00000000               72.00000000                0.47833465               -0.10350039               -0.10350192                0.34443639                0.00045408                0.00387767                0.00388875
               9.00000000                8.00000000               72.00000000                0.59690270               -0.10483609               -0.10522643                0.34960185                0.00021258                0.00085550                0.00531237
              10.00000000                8.00000000               72.00000000                0.83782034               -0.10555557               -0.10692719                0.35495629               -0.00076337                0.00018689                0.00568508
               0.00000000                9.00000000               72.00000000                0.83865496               -0.08005509               -0.07946691                0.26502682                0.00031586                0.00074918               -0.00440084
               1.00000000                9.00000000               72.00000000                0.43858663               -0.08053645               -0.08071792                0.26885943                0.00015546                0.00809647               -0.00015415
               2.00000000                9.00000000               72.00000000                0.15326518               -0.08254275               -0.08219979                0.27324553                0.00205459                0.24622724                0.00472250
               3.00000000                9.00000000               72.00000000                0.17372018               -0.09003022               -0.09007069                0.30181722                0.00174597                0.38808656               -0.02554789
               4.00000000                9.00000000               72.00000000                0.22963457               -0.09841643               -0.09490798                0.32079584                0.00129064                0.21196247               -0.01315269
               5.00000000                9.00000000               72.00000000                0.29783465               -0.10167371               -0.09838501                0.33133004                0.00089449                0.08563581               -0.00579639
               6.00000000                9.00000000               72.00000000                0.37972165               -0.10303685               -0.10096642                0.33851298                0.00057447                0.03560587               -0.00221825
               7.00000000                9.00000000               72.00000000                0.47808805               -0.10409349               -0.10303716                0.34432951                0.00037093                0.01450724               -0.00029109
               8.00000000                9.00000000               72.00000000                0.59691415               -0.10522462               -0.10483699                0.34959928                0.00021153                0.00530912                0.00085616
               9.00000000                9.00000000               72.00000000                0.74163089               -0.10652329               -0.10652444                0.35477555                0.00009366                0.00146229                0.00146588
              10.00000000                9.00000000               72.00000000                0.91841946               -0.10721794               -0.10820214                0.36011285               -0.00079107                0.00047608                0.00154193
               0.00000000               10.00000000               72.00000000                0.94819142               -0.08060982               -0.07971609                0.26675719               -0.00034650               -0.00051334               -0.00267888
               1.00000000               10.00000000               72.00000000                0.75917829               -0.08111479               -0.08098327                0.27064818               -0.00063632                0.00662082                0.00073118
               2.00000000               10.00000000               72.00000000                0.59485592               -0.08422518               -0.08246055                0.27505834               -0.00185633                0.24614552                0.00275108
               3.00000000               10.00000000               72.00000000                0.60406920               -0.09321510               -0.09009733                0.30471595               -0.00273750                0.40598410               -0.00826087
               4.00000000               10.00000000               72.00000000                0.63470111               -0.10159925               -0.09507595                0.32504104               -0.00183320                0.23093864               -0.00500032
               5.00000000               10.00000000               72.00000000                0.67227290               -0.10419324               -0.09887536                0.33630506               -0.00137435                0.09518289               -0.00250400
               6.00000000               10.00000000               72.00000000                0.71748080               -0.10515250               -0.10159771                0.34377732               -0.00101917                0.03956279               -0.00111629
               7.00000000               10.00000000               72.00000000                0.77191001               -0.10594095               -0.10373545                0.34967692               -0.00083761                0.01589189               -0.00032345
               8.00000000               10.00000000               72.00000000                0.83782721               -0.10692446               -0.10555553                0.35495050               -0.00076299                0.00568832                0.00018322
               9.00000000               10.00000000               72.00000000                0.91841050               -0.10819943               -0.10721775                0.36010737               -0.00079185                0.00154184                0.00047746
              10.00000000               10.00000000               72.00000000                0.98559333               -0.10891444               -0.10891607                0.36543183               -0.00171170                0.00054248                0.00054294
               0.00000000                0.00000000               73.00000000                0.75464852               -0.07564787               -0.07564706                0.25145133                0.00049087               -0.00086897               -0.00086923
               1.00000000                0.00000000               73.00000000                0.50162594               -0.07581089               -0.07616544                0.25302698                0.00023122               -0.00538214               -0.00022201
               2.00000000                0.00000000               73.00000000                0.50065204               -0.07608602               -0.07664251                0.25465852                0.00021281               -0.01255079                0.00077088
               3.00000000                0.00000000               73.00000000                0.52018033               -0.07631808               -0.07712803                0.25622915                0.00019196               -0.01590133                0.00039417
               4.00000000                0.00000000               73.00000000                0.54829977               -0.07659123               -0.07760971                0.25773639                0.00017330               -0.01687329                0.00016093
               5.00000000                0.00000000               73.00000000                0.58524396               -0.07695413               -0.07808174                0.25917977                0.00015962               -0.01597173               -0.00002516
               6.00000000                0.00000000               73.00000000                0.63168398               -0.07743318               -0.07855157                0.26059917                0.00016003               -0.01372238               -0.00014436
               7.00000000                0.00000000               73.00000000                0.68853013               -0.07801320               -0.07900531                0.26199281                0.00018240               -0.01072401               -0.00012635
               8.00000000                0.00000000               73.00000000                0.75682568               -0.07865060               -0.07945696                0.26339831                0.00022429               -0.00767568                0.00013073
               9.00000000                0.00000000               73.00000000                0.83794567               -0.07927824               -0.07989635                0.26483137                0.00026036               -0.00454474                0.00076255
              10.00000000                0.00000000               73.00000000                0.94773851               -0.07957916               -0.08032011                0.26633671               -0.00026484               -0.00281921               -0.00059584
               0.00000000                1.00000000               73.00000000                0.50161908               -0.07616524               -0.07581116                0.25302657                0.00023067               -0.00022035               -0.00538290
               1.00000000                1.00000000               73.00000000                0.01000000               -0.07650128               -0.07650180                0.25461333                0.00001083               -0.00328031               -0.00328151
               2.00000000                1.00000000               73.00000000                0.01000000               -0.07728542               -0.07615032                0.25638084                0.00103112               -0.00664085                0.02467052
               3.00000000                1.00000000               73.00000000                0.01000000               -0.07815130               -0.07509122                0.25818417                0.00033397               -0.00767555                0.05106604
               4.00000000                1.00000000               73.00000000                0.04320235               -0.07891054               -0.07822661                0.25996138               -0.00261303               -0.00758172                0.00395616
               5.00000000                1.00000000               73.00000000                0.09264847               -0.07949335               -0.07859222                0.26165796               -0.00199670               -0.00704251               -0.00037753
               6.00000000                1.00000000               73.00000000                0.15480774               -0.07988098               -0.07884953                0.26328299               -0.00118466               -0.00593282                0.00024921
               7.00000000                1.00000000               73.00000000                0.23145731               -0.08011635               -0.07926898                0.26482774               -0.00057571               -0.00421314                0.00288827
               8.00000000                1.00000000               73.00000000                0.32476017               -0.08029914               -0.07981097                0.26634830               -0.00022727               -0.00199622                0.00595945
               9.00000000                1.00000000               73.00000000                0.43751042               -0.08055495               -0.08036411                0.26790652               -0.00013152               -0.00006820                0.00838318
              10.00000000                1.00000000               73.00000000                0.75851653               -0.08071707               -0.08045662                0.26945770               -0.00079694                0.00082289                0.00680622
               0.00000000                2.00000000               73.00000000                0.50061534               -0.07664430               -0.07608977                0.25466836                0.00021287                0.00077338               -0.01254887
               1.00000000                2.00000000               73.00000000                0.01000000               -0.07615025               -0.07728868                0.25638832                0.00103019                0.02466908               -0.00663809
               2.00000000                2.00000000               73.00000000                0.01000001               -0.07813654               -0.07813809                0.26061004                0.00552106                0.04461545                0.04463797
               3.00000000                2.00000000               73.00000000                0.01000000               -0.08359360               -0.07540988                0.26502797                0.00351864               -0.02946193                0.11081732
               4.00000000                2.00000000               73.00000000                0.01000000               -0.08354085               -0.07554722                0.26274587                0.00191715               -0.05272906                0.21957386
               5.00000000                2.00000000               73.00000000                0.01000001               -0.08060600               -0.07591801                0.26401870                0.00217639               -0.00440972                0.34028087
               6.00000000                2.00000000               73.00000000                0.02626825               -0.08094881               -0.07843151                0.26579327               -0.00041870                0.00284634                0.34689691
               7.00000000                2.00000000               73.00000000                0.05949343               -0.08134263               -0.08150560                0.26766289               -0.00274855                0.00596384                0.30576794
               8.00000000                2.00000000               73.00000000                0.10104122               -0.08160257               -0.08375248                0.26961334               -0.00470548                0.00710779                0.27666514
               9.00000000                2.00000000               73.00000000                0.15303015               -0.08193397               -0.08496922                0.27159274               -0.00618746                0.00508743                0.25953442
              10.00000000                2.00000000               73.00000000                0.59470536               -0.08215106               -0.08093416                0.27319821               -0.00939226                0.00298854                0.25993877
               0.00000000                3.00000000               73.00000000                0.52017233               -0.07713027               -0.07632384                0.25624149                0.00019109                0.00039847               -0.01589839
               1.00000000                3.00000000               73.00000000                0.01000000               -0.07508766               -0.07815670                0.25819497                0.00033683                0.05108003               -0.00766996
               2.00000000                3.00000000               73.00000000                0.01000000               -0.07541939               -0.08358562                0.26502515                0.00353571                0.11080504               -0.02949231
               3.00000000                3.00000000               73.00000000                0.01000000               -0.08047056               -0.08045967                0.27355400                0.00998045                0.15722728                0.15739924
               4.00000000                3.00000000               73.00000000                0.01203929               -0.08631243               -0.07913390                0.28609313                0.00925390                0.20512577                0.36952995
               5.00000000                3.00000000               73.00000000                0.02061897               -0.08971862               -0.08174288                0.29953686                0.00346893                0.10401538                0.41899062
               6.00000000                3.00000000               73.00000000                0.04923608               -0.08938580               -0.08511562                0.30247633               -0.00283328               -0.05592642                0.41646061
               7.00000000                3.00000000               73.00000000                0.08356146               -0.08825533               -0.08851286                0.30115212               -0.00631262               -0.08824365                0.41113301
               8.00000000                3.00000000               73.00000000                0.12463925               -0.08742886               -0.09150852                0.30101289               -0.00863474               -0.05973333                0.40668562
               9.00000000                3.00000000               73.00000000                0.17382163               -0.08821612               -0.09317705                0.30215360               -0.00721647               -0.02666865                0.40805576
              10.00000000                3.00000000               73.00000000                0.60414631               -0.08927334               -0.09229025                0.30478624               -0.00737024               -0.00844001                0.42815858
               0.00000000                4.00000000               73.00000000                0.54828745               -0.07760858               -0.07659627                0.25774256                0.00017281                0.00016375               -0.01687393
               1.00000000                4.00000000               73.00000000                0.04318082               -0.07822205               -0.07891548                0.25996601               -0.00259925                0.00388478               -0.00757961
               2.00000000                4.00000000               73.00000000                0.01000000               -0.07550579               -0.08355245                0.26272275                0.00192147                0.21971748               -0.05279485
               3.00000000                4.00000000               73.00000000                0.01205196               -0.07911986               -0.08632550                0.28616798                0.00928245                0.36959476                0.20533373
               4.00000000                4.00000000               73.00000000                0.02061721               -0.08919616               -0.08916039                0.30430613                0.00039947                0.19247418                0.19264261
               5.00000000                4.00000000               73.00000000                0.04916654               -0.09269397               -0.09237596                0.31139551               -0.00119669                0.02318289                0.09525029
               6.00000000                4.00000000               73.00000000                0.08329924               -0.09323030               -0.09390882                0.31412932               -0.00209443               -0.03195954                0.10231592
               7.00000000                4.00000000               73.00000000                0.12396212               -0.09355488               -0.09512912                0.31639628               -0.00338381               -0.03508838                0.15343885
               8.00000000                4.00000000               73.00000000                0.17227652               -0.09404185               -0.09705305                0.31885976               -0.00465917               -0.02756582                0.19218907
               9.00000000                4.00000000               73.00000000                0.22974831               -0.09428926               -0.09931167                0.32194886               -0.00437004               -0.01400784                0.22197975
              10.00000000                4.00000000               73.00000000                0.63477870               -0.09420327               -0.10548370                0.32592865               -0.00534775               -0.00529876                0.24266476
               0.00000000                5.00000000               73.00000000                0.58525482               -0.07808193               -0.07695596                0.25918517                0.00015813               -0.00002518               -0.01597842
               1.00000000                5.00000000               73.00000000                0.09262225               -0.07859632               -0.07949529                0.26166230               -0.00199983               -0.00047249               -0.00704611
               2.00000000                5.00000000               73.00000000                0.01000001               -0.07587361               -0.08062142                0.26411228                0.00218092                0.34047625               -0.00435097
               3.00000000                5.00000000               73.00000000                0.02064081               -0.08172767               -0.08971255                0.29932384                0.00341814                0.41902477                0.10386512
               4.00000000                5.00000000               73.00000000                0.04916237               -0.09241777               -0.09267634                0.31139373               -0.00121074                0.09502764                0.02318644
               5.00000000                5.00000000               73.00000000                0.08337186               -0.09461516               -0.09460708                0.31660565               -0.00127048                0.01043809                0.01046617
               6.00000000                5.00000000               73.00000000                0.12409165               -0.09574162               -0.09610507                0.32081611               -0.00132384               -0.00568165                0.03311863
               7.00000000                5.00000000               73.00000000                0.17243213               -0.09677805               -0.09759583                0.32462358               -0.00152877               -0.01129805                0.05522326
               8.00000000                5.00000000               73.00000000                0.22981783               -0.09771708               -0.09937491                0.32842242               -0.00168088               -0.01088521                0.07437180
               9.00000000                5.00000000               73.00000000                0.29805071               -0.09831687               -0.10219543                0.33253709               -0.00128960               -0.00635997                0.08929566
              10.00000000                5.00000000               73.00000000                0.67239240               -0.09848608               -0.10748242                0.33722825               -0.00294843               -0.00274850                0.09962251
               0.00000000                6.00000000               73.00000000                0.63170179               -0.07854472               -0.07742938                0.26058553                0.00015843               -0.00014423               -0.01372874
               1.00000000                6.00000000               73.00000000                0.15482568               -0.07884408               -0.07987714                0.26326753               -0.00118311                0.00023792               -0.00593613
               2.00000000                6.00000000               73.00000000                0.02626458               -0.07844892               -0.08093699                0.26573998               -0.00039001                0.34686297                0.00294079
               3.00000000                6.00000000               73.00000000                0.04923461               -0.08511553               -0.08938283                0.30249620               -0.00285057                0.41644471               -0.05610399
               4.00000000                6.00000000               73.00000000                0.08330257               -0.09388807               -0.09322546                0.31411084               -0.00211233                0.10233383               -0.03198729
               5.00000000                6.00000000               73.00000000                0.12409460               -0.09610515               -0.09574262                0.32082213               -0.00132276                0.03312086               -0.00567706
               6.00000000                6.00000000               73.00000000                0.17256341               -0.09759274               -0.09759189                0.32596934               -0.00078767                0.00968332                0.00969220
               7.00000000                6.00000000               73.00000000                0.23010631               -0.09889333               -0.09922558                0.33051635               -0.00047888               -0.00001265                0.02100730
               8.00000000                6.00000000               73.00000000                0.29851178               -0.10005169               -0.10104121                0.33490885               -0.00028564               -0.00322766                0.02997722
               9.00000000                6.00000000               73.00000000                0.38008751               -0.10101508               -0.10348819                0.33946311               -0.00017832               -0.00262139                0.03666669
              10.00000000                6.00000000               73.00000000                0.71767492               -0.10143878               -0.10706160                0.34442773               -0.00160087               -0.00130606                0.04087205
               0.00000000                7.00000000               73.00000000                0.68854118               -0.07899894               -0.07800804                0.26197703                0.00018336               -0.00012658               -0.01072374
               1.00000000                7.00000000               73.00000000                0.23144738               -0.07926349               -0.08011099                0.26481128               -0.00057276                0.00289328               -0.00421173
               2.00000000                7.00000000               73.00000000                0.05948626               -0.08148753               -0.08133817                0.26766815               -0.00274626                0.30580962                0.00596877
               3.00000000                7.00000000               73.00000000                0.08357564               -0.08850782               -0.08827114                0.30119377               -0.00628608                0.41111821               -0.08821990
               4.00000000                7.00000000               73.00000000                0.12395920               -0.09514234               -0.09355825                0.31640104               -0.00338275                0.15339469               -0.03508999
               5.00000000                7.00000000               73.00000000                0.17243704               -0.09759892               -0.09677895                0.32462429               -0.00152947                0.05522712               -0.01130958
               6.00000000                7.00000000               73.00000000                0.23010788               -0.09922533               -0.09889490                0.33052170               -0.00048041                0.02099905               -0.00001309
               7.00000000                7.00000000               73.00000000                0.29871672               -0.10062317               -0.10062461                0.33548774                0.00004260                0.00677603                0.00677994
               8.00000000                7.00000000               73.00000000                0.38054520               -0.10188084               -0.10237757                0.34016869                0.00024038                0.00095702                0.01144582
               9.00000000                7.00000000               73.00000000                0.47865134               -0.10306989               -0.10439904                0.34489402                0.00019031               -0.00059217                0.01450970
              10.00000000                7.00000000               73.00000000                0.77220604               -0.10365556               -0.10685189                0.34992046               -0.00099348               -0.00045814                0.01591912
               0.00000000                8.00000000               73.00000000                0.75683586               -0.07945301               -0.07864778                0.26338921                0.00022489                0.00012782               -0.00767430
               1.00000000                8.00000000               73.00000000                0.32475513               -0.07980834               -0.08029611                0.26633856               -0.00022987                0.00594269               -0.00199364
               2.00000000                8.00000000               73.00000000                0.10104434               -0.08374247               -0.08160478                0.26962034               -0.00470864                0.27666253                0.00710504
               3.00000000                8.00000000               73.00000000                0.12464234               -0.09150193               -0.08743357                0.30104134               -0.00864485                0.40669659               -0.05978490
               4.00000000                8.00000000               73.00000000                0.17228190               -0.09705680               -0.09404739                0.31887383               -0.00466107                0.19217359               -0.02756992
               5.00000000                8.00000000               73.00000000                0.22980850               -0.09937771               -0.09771921                0.32842981               -0.00168104                0.07437080               -0.01089665
               6.00000000                8.00000000               73.00000000                0.29851096               -0.10104193               -0.10005382                0.33491877               -0.00028863                0.02997887               -0.00323305
               7.00000000                8.00000000               73.00000000                0.38055495               -0.10237430               -0.10188036                0.34015952                0.00023693                0.01144312                0.00095774
               8.00000000                8.00000000               73.00000000                0.47892863               -0.10358191               -0.10358348                0.34497089                0.00035607                0.00352491                0.00352390
               9.00000000                8.00000000               73.00000000                0.59763987               -0.10482301               -0.10534724                0.34974826                0.00024567                0.00059923                0.00497910
              10.00000000                8.00000000               73.00000000                0.83821558               -0.10547135               -0.10720344                0.35476368               -0.00073814                0.00008246                0.00531490
               0.00000000                9.00000000               73.00000000                0.83796069               -0.07989397               -0.07927696                0.26482623                0.00026056                0.00076087               -0.00454493
               1.00000000                9.00000000               73.00000000                0.43751772               -0.08036150               -0.08055316                0.26789850               -0.00013490                0.00837712               -0.00006539
               2.00000000                9.00000000               73.00000000                0.15303631               -0.08495901               -0.08193248                0.27158282               -0.00619059                0.25951948                0.00510598
               3.00000000                9.00000000               73.00000000                0.17382166               -0.09317043               -0.08822108                0.30216724               -0.00721841                0.40804788               -0.02668114
               4.00000000                9.00000000               73.00000000                0.22974426               -0.09931434               -0.09429190                0.32195624               -0.00437085                0.22197441               -0.01401373
               5.00000000                9.00000000               73.00000000                0.29805764               -0.10219703               -0.09832061                0.33254512               -0.00128889                0.08929712               -0.00635635
               6.00000000                9.00000000               73.00000000                0.38009056               -0.10348891               -0.10101694                0.33946893               -0.00017737                0.03666856               -0.00262163
               7.00000000                9.00000000               73.00000000                0.47865636               -0.10439686               -0.10306814                0.34488714                0.00018970                0.01450555               -0.00058945
               8.00000000                9.00000000               73.00000000                0.59764227               -0.10534480               -0.10482093                0.34974073                0.00024343                0.00497622                0.00059820
               9.00000000                9.00000000               73.00000000                0.74252516               -0.10647061               -0.10647075                0.35451324                0.00015855                0.00121519                0.00121280
              10.00000000                9.00000000               73.00000000                0.91888372               -0.10708476               -0.10811200                0.35950341               -0.00071570                0.00039407                0.00126167
               0.00000000               10.00000000               73.00000000                0.94775800               -0.08031932               -0.07957847                0.26633463               -0.00026386               -0.00059649               -0.00281920
               1.00000000               10.00000000               73.00000000                0.75853946               -0.08045335               -0.08071561                0.26945155               -0.00079960                0.00680704                0.00082638
               2.00000000               10.00000000               73.00000000                0.59470958               -0.08092060               -0.08214891                0.27318348               -0.00939862                0.25992516                0.00300255
               3.00000000               10.00000000               73.00000000                0.60414492               -0.09228393               -0.08927969                0.30479547               -0.00737018                0.42813784               -0.00843546
               4.00000000               10.00000000               73.00000000                0.63477572               -0.10548880               -0.09420336                0.32593043               -0.00534706                0.24266064               -0.00530038
               5.00000000               10.00000000               73.00000000                0.67239259               -0.10748361               -0.09849012                0.33723345               -0.00294891                0.09962525               -0.00274140
               6.00000000               10.00000000               73.00000000                0.71768131               -0.10706136               -0.10144048                0.34442963               -0.00159766                0.04087128               -0.00130341
               7.00000000               10.00000000               73.00000000                0.77220890               -0.10684955               -0.10365420                0.34991833               -0.00099118                0.01591481               -0.00045431
               8.00000000               10.00000000               73.00000000                0.83822610               -0.10720072               -0.10546842                0.35475698               -0.00073973                0.00530970                0.00008230
               9.00000000               10.00000000               73.00000000                0.91889722               -0.10811066               -0.10708376                0.35949971               -0.00071743                0.00126169                0.00039052
              10.00000000               10.00000000               73.00000000                0.98584269               -0.10869993               -0.10870047                0.36447395               -0.00159323                0.00046128                0.00045982
               0.00000000                0.00000000               74.00000000                0.75495986               -0.07615368               -0.07615482                0.25266729                0.00033416               -0.00084392               -0.00084331
               1.00000000                0.00000000               74.00000000                0.50207154               -0.07676494               -0.07625186                0.25400571               -0.00041524               -0.00530586               -0.00019149
               2.00000000                0.00000000               74.00000000                0.50087025               -0.07720803               -0.07693297                0.25550639                0.00008751               -0.01248810                0.00079783
               3.00000000                0.00000000               74.00000000                0.52042066               -0.07691463               -0.07731526                0.25697702                0.00003362               -0.01589320                0.00039963
               4.00000000                0.00000000               74.00000000                0.54846622               -0.07675871               -0.07774020                0.25839677                0.00001553               -0.01691972                0.00014768
               5.00000000                0.00000000               74.00000000                0.58534245               -0.07681739               -0.07815430                0.25974866               -0.00001213               -0.01606153               -0.00004979
               6.00000000                0.00000000               74.00000000                0.63165025               -0.07712210               -0.07856075                0.26102904               -0.00001423               -0.01383206               -0.00017580
               7.00000000                0.00000000               74.00000000                0.68827039               -0.07766065               -0.07896764                0.26228580                0.00002717               -0.01083003               -0.00015914
               8.00000000                0.00000000               74.00000000                0.75632591               -0.07837209               -0.07937746                0.26353943                0.00011081               -0.00776788                0.00010753
               9.00000000                0.00000000               74.00000000                0.83716525               -0.07912580               -0.07975743                0.26479717                0.00020104               -0.00462513                0.00077214
              10.00000000                0.00000000               74.00000000                0.94726368               -0.07949131               -0.08004953                0.26609082               -0.00014602               -0.00292277               -0.00065593
               0.00000000                1.00000000               74.00000000                0.50206751               -0.07625431               -0.07676671                0.25401434               -0.00041107               -0.00019315               -0.00529441
               1.00000000                1.00000000               74.00000000                0.01000000               -0.07599972               -0.07599936                0.25535293               -0.00174594               -0.00313024               -0.00311504
               2.00000000                1.00000000               74.00000000                0.01000000               -0.07641597               -0.07770043                0.25692875               -0.00356235               -0.00627090                0.02602804
               3.00000000                1.00000000               74.00000000                0.01000000               -0.07775972               -0.07802949                0.25854798               -0.00482876               -0.00724459                0.05364568
               4.00000000                1.00000000               74.00000000                0.04334887               -0.07895195               -0.07891732                0.26012436               -0.00443307               -0.00720734                0.00424438
               5.00000000                1.00000000               74.00000000                0.09262468               -0.07979999               -0.07879797                0.26160875               -0.00356251               -0.00678197               -0.00058689
               6.00000000                1.00000000               74.00000000                0.15465177               -0.08027127               -0.07882957                0.26298099               -0.00250054               -0.00578899                0.00008523
               7.00000000                1.00000000               74.00000000                0.23101164               -0.08042095               -0.07918714                0.26429064               -0.00156674               -0.00414692                0.00281586
               8.00000000                1.00000000               74.00000000                0.32399677               -0.08038364               -0.07970492                0.26558004               -0.00085514               -0.00193919                0.00606997
               9.00000000                1.00000000               74.00000000                0.43632925               -0.08038997               -0.08019715                0.26689766               -0.00046431                0.00000268                0.00869283
              10.00000000                1.00000000               74.00000000                0.75777317               -0.08044073               -0.07976324                0.26821618               -0.00095123                0.00090334                0.00706366
               0.00000000                2.00000000               74.00000000                0.50088811               -0.07694184               -0.07721215                0.25552552                0.00009110                0.00079691               -0.01247867
               1.00000000                2.00000000               74.00000000                0.01000000               -0.07770447               -0.07641966                0.25694638               -0.00356245                0.02601401               -0.00625727
               2.00000000                2.00000000               74.00000000                0.01000001               -0.07914104               -0.07913189                0.26116387               -0.00729196                0.04708729                0.04711541
               3.00000000                2.00000000               74.00000000                0.01000000               -0.07951574               -0.08047899                0.26562629               -0.00902265               -0.03044222                0.11637051
               4.00000000                2.00000000               74.00000000                0.01000000               -0.07982653               -0.08160990                0.26226611               -0.01140031               -0.05501975                0.23108013
               5.00000000                2.00000000               74.00000000                0.01000001               -0.08083315               -0.08396020                0.26325407               -0.01457489               -0.00450798                0.35792023
               6.00000000                2.00000000               74.00000000                0.02622269               -0.08146589               -0.08685159                0.26464389               -0.01635535                0.00316833                0.36484304
               7.00000000                2.00000000               74.00000000                0.05938996               -0.08167266               -0.08807029                0.26622362               -0.01666268                0.00630898                0.32200847
               8.00000000                2.00000000               74.00000000                0.10086311               -0.08153895               -0.08854657                0.26792843               -0.01618715                0.00754363                0.29184967
               9.00000000                2.00000000               74.00000000                0.15274993               -0.08159618               -0.08792017                0.26966126               -0.01533626                0.00542121                0.27435750
              10.00000000                2.00000000               74.00000000                0.59454119               -0.08175773               -0.07760306                0.27106261               -0.01767565                0.00322017                0.27526218
               0.00000000                3.00000000               74.00000000                0.52040030               -0.07732705               -0.07692067                0.25700077                0.00003413                0.00039746               -0.01590254
               1.00000000                3.00000000               74.00000000                0.01000000               -0.07804084               -0.07776551                0.25856983               -0.00481584                0.05364561               -0.00725086
               2.00000000                3.00000000               74.00000000                0.01000000               -0.08045773               -0.07950832                0.26560197               -0.00904410                0.11634914               -0.03049219
               3.00000000                3.00000000               74.00000000                0.01000000               -0.08474793               -0.08478539                0.27470105               -0.00901259                0.16545072                0.16555445
               4.00000000                3.00000000               74.00000000                0.01206484               -0.09014956               -0.08795995                0.28875458               -0.01517575                0.21547354                0.38824725
               5.00000000                3.00000000               74.00000000                0.02064134               -0.09106978               -0.09125788                0.30292010               -0.02072412                0.10845871                0.43992720
               6.00000000                3.00000000               74.00000000                0.04923882               -0.08773360               -0.09394814                0.30528412               -0.02206893               -0.05957426                0.43734025
               7.00000000                3.00000000               74.00000000                0.08356669               -0.08527754               -0.09615634                0.30300932               -0.02207912               -0.09318326                0.43223835
               8.00000000                3.00000000               74.00000000                0.12465896               -0.08407120               -0.09773402                0.30209559               -0.02337086               -0.06302268                0.42812595
               9.00000000                3.00000000               74.00000000                0.17391357               -0.08602779               -0.09712880                0.30270301               -0.01711133               -0.02803875                0.43018294
              10.00000000                3.00000000               74.00000000                0.60422602               -0.08817652               -0.09181732                0.30504608               -0.01248962               -0.00867525                0.45242977
               0.00000000                4.00000000               74.00000000                0.54845206               -0.07775074               -0.07676248                0.25841774                0.00001326                0.00014742               -0.01693343
               1.00000000                4.00000000               74.00000000                0.04331954               -0.07892663               -0.07895563                0.26014359               -0.00441719                0.00418811               -0.00721765
               2.00000000                4.00000000               74.00000000                0.01000000               -0.08162971               -0.07984596                0.26244166               -0.01142175                0.23116812               -0.05499050
               3.00000000                4.00000000               74.00000000                0.01207144               -0.08795588               -0.09011041                0.28854753               -0.01526508                0.38820841                0.21536876
               4.00000000                4.00000000               74.00000000                0.02064759               -0.09310844               -0.09312535                0.30836485               -0.01450335                0.20145274                0.20159957
               5.00000000                4.00000000               74.00000000                0.04919381               -0.09304574               -0.09398200                0.31522014               -0.01092018                0.02348667                0.09926096
               6.00000000                4.00000000               74.00000000                0.08334778               -0.09270716               -0.09418978                0.31730088               -0.01006388               -0.03416778                0.10695172
               7.00000000                4.00000000               74.00000000                0.12401684               -0.09289220               -0.09608427                0.31893692               -0.01135315               -0.03745640                0.16066154
               8.00000000                4.00000000               74.00000000                0.17235811               -0.09347895               -0.09839988                0.32080977               -0.01280154               -0.02943872                0.20144807
               9.00000000                4.00000000               74.00000000                0.22988397               -0.09357333               -0.10060984                0.32341059               -0.01057159               -0.01500000                0.23291976
              10.00000000                4.00000000               74.00000000                0.63487260               -0.09318831               -0.11013939                0.32705505               -0.00927374               -0.00564185                0.25525829
               0.00000000                5.00000000               74.00000000                0.58532323               -0.07815763               -0.07681732                0.25975547               -0.00001436               -0.00004940               -0.01607694
               1.00000000                5.00000000               74.00000000                0.09263840               -0.07880372               -0.07980016                0.26161350               -0.00356355               -0.00052843               -0.00679448
               2.00000000                5.00000000               74.00000000                0.01000001               -0.08402321               -0.08084697                0.26332424               -0.01454383                0.35782230               -0.00448299
               3.00000000                5.00000000               74.00000000                0.02064098               -0.09125677               -0.09104774                0.30277213               -0.02068255                0.43983925                0.10837244
               4.00000000                5.00000000               74.00000000                0.04918881               -0.09391346               -0.09305081                0.31521285               -0.01094464                0.09934411                0.02348826
               5.00000000                5.00000000               74.00000000                0.08342553               -0.09451906               -0.09452794                0.32012009               -0.00798077                0.01043936                0.01044296
               6.00000000                5.00000000               74.00000000                0.12419129               -0.09574343               -0.09595338                0.32380954               -0.00675437               -0.00656672                0.03417911
               7.00000000                5.00000000               74.00000000                0.17259776               -0.09696601               -0.09742816                0.32704746               -0.00616122               -0.01249661                0.05737525
               8.00000000                5.00000000               74.00000000                0.23002384               -0.09800621               -0.09928737                0.33033692               -0.00552406               -0.01198849                0.07747051
               9.00000000                5.00000000               74.00000000                0.29829848               -0.09824474               -0.10291843                0.33400575               -0.00368029               -0.00701924                0.09320657
              10.00000000                5.00000000               74.00000000                0.67253673               -0.09805036               -0.11127238                0.33833294               -0.00469786               -0.00303393                0.10426114
               0.00000000                6.00000000               74.00000000                0.63162295               -0.07856370               -0.07711974                0.26103276               -0.00001576               -0.00017414               -0.01384103
               1.00000000                6.00000000               74.00000000                0.15463491               -0.07883153               -0.08026920                0.26298222               -0.00249883                0.00005659               -0.00579436
               2.00000000                6.00000000               74.00000000                0.02622106               -0.08684474               -0.08145677                0.26464563               -0.01635064                0.36484772                0.00312798
               3.00000000                6.00000000               74.00000000                0.04923602               -0.09394838               -0.08775825                0.30536064               -0.02200476                0.43736838               -0.05945349
               4.00000000                6.00000000               74.00000000                0.08334252               -0.09419199               -0.09271673                0.31733762               -0.01005326                0.10694329               -0.03416733
               5.00000000                6.00000000               74.00000000                0.12420180               -0.09594422               -0.09574358                0.32379753               -0.00675826                0.03419044               -0.00657127
               6.00000000                6.00000000               74.00000000                0.17274512               -0.09762821               -0.09763263                0.32853577               -0.00449047                0.00950091                0.00951345
               7.00000000                6.00000000               74.00000000                0.23038308               -0.09915618               -0.09914474                0.33257985               -0.00301044               -0.00068154                0.02134002
               8.00000000                6.00000000               74.00000000                0.29887477               -0.10037640               -0.10100383                0.33647311               -0.00191760               -0.00396252                0.03071044
               9.00000000                6.00000000               74.00000000                0.38053955               -0.10107198               -0.10404988                0.34057436               -0.00100382               -0.00308133                0.03770928
              10.00000000                6.00000000               74.00000000                0.71793013               -0.10125825               -0.10922212                0.34514584               -0.00223912               -0.00151296                0.04211709
               0.00000000                7.00000000               74.00000000                0.68827987               -0.07896555               -0.07765625                0.26227761                0.00002591               -0.00015558               -0.01082509
               1.00000000                7.00000000               74.00000000                0.23105809               -0.07918459               -0.08041663                0.26427997               -0.00156013                0.00284908               -0.00413870
               2.00000000                7.00000000               74.00000000                0.05938477               -0.08807254               -0.08166917                0.26621947               -0.01665941                0.32202861                0.00635425
               3.00000000                7.00000000               74.00000000                0.08357642               -0.09615401               -0.08527145                0.30296432               -0.02208521                0.43215010               -0.09318173
               4.00000000                7.00000000               74.00000000                0.12401431               -0.09607700               -0.09289227                0.31891973               -0.01134503                0.16061378               -0.03744299
               5.00000000                7.00000000               74.00000000                0.17259407               -0.09742501               -0.09696658                0.32704436               -0.00616161                0.05738332               -0.01250630
               6.00000000                7.00000000               74.00000000                0.23039716               -0.09914106               -0.09915583                0.33256951               -0.00301431                0.02134174               -0.00067795
               7.00000000                7.00000000               74.00000000                0.29912769               -0.10075388               -0.10075475                0.33707531               -0.00124943                0.00639549                0.00640200
               8.00000000                7.00000000               74.00000000                0.38109679               -0.10206514               -0.10247238                0.34124630               -0.00033917                0.00040630                0.01124652
               9.00000000                7.00000000               74.00000000                0.47931377               -0.10309338               -0.10474373                0.34548814               -0.00000988               -0.00095375                0.01439101
              10.00000000                7.00000000               74.00000000                0.77255927               -0.10354471               -0.10784601                0.35009566               -0.00115578               -0.00061617                0.01578399
               0.00000000                8.00000000               74.00000000                0.75633000               -0.07937413               -0.07836778                0.26352846                0.00011052                0.00011063               -0.00776353
               1.00000000                8.00000000               74.00000000                0.32401474               -0.07970215               -0.08037924                0.26556845               -0.00085556                0.00609123               -0.00193488
               2.00000000                8.00000000               74.00000000                0.10086855               -0.08854290               -0.08154230                0.26794488               -0.01618758                0.29185185                0.00752263
               3.00000000                8.00000000               74.00000000                0.12466357               -0.09772941               -0.08407080                0.30209391               -0.02336143                0.42807708               -0.06305124
               4.00000000                8.00000000               74.00000000                0.17236463               -0.09839779               -0.09347880                0.32080451               -0.01279987                0.20143126               -0.02942766
               5.00000000                8.00000000               74.00000000                0.23002686               -0.09928643               -0.09800719                0.33033993               -0.00552486                0.07747278               -0.01198324
               6.00000000                8.00000000               74.00000000                0.29888136               -0.10100133               -0.10037386                0.33646299               -0.00191837                0.03070842               -0.00396802
               7.00000000                8.00000000               74.00000000                0.38110643               -0.10247135               -0.10206271                0.34123767               -0.00033967                0.01124034                0.00040466
               8.00000000                8.00000000               74.00000000                0.47965135               -0.10366813               -0.10366657                0.34552626                0.00025253                0.00305852                0.00305813
               9.00000000                8.00000000               74.00000000                0.59849108               -0.10477412               -0.10545158                0.34979445                0.00028116                0.00027345                0.00451893
              10.00000000                8.00000000               74.00000000                0.83866663               -0.10533250               -0.10745893                0.35437024               -0.00070249               -0.00004693                0.00478834
               0.00000000                9.00000000               74.00000000                0.83716629               -0.07975513               -0.07912334                0.26479202                0.00019987                0.00077329               -0.00462533
               1.00000000                9.00000000               74.00000000                0.43633733               -0.08019460               -0.08038669                0.26688907               -0.00046848                0.00869508                0.00000157
               2.00000000                9.00000000               74.00000000                0.15275862               -0.08791163               -0.08159392                0.26965219               -0.01533975                0.27434677                0.00540411
               3.00000000                9.00000000               74.00000000                0.17391745               -0.09712061               -0.08602843                0.30269234               -0.01710651                0.43016327               -0.02805086
               4.00000000                9.00000000               74.00000000                0.22988713               -0.10061004               -0.09357475                0.32341341               -0.01056840                0.23291818               -0.01499423
               5.00000000                9.00000000               74.00000000                0.29830922               -0.10291922               -0.09824314                0.33400191               -0.00367886                0.09319995               -0.00701782
               6.00000000                9.00000000               74.00000000                0.38053709               -0.10404833               -0.10106908                0.34056648               -0.00100196                0.03770143               -0.00308928
               7.00000000                9.00000000               74.00000000                0.47931180               -0.10474291               -0.10309048                0.34548004               -0.00000975                0.01438742               -0.00095787
               8.00000000                9.00000000               74.00000000                0.59848424               -0.10545278               -0.10477315                0.34979549                0.00028164                0.00452030                0.00027066
               9.00000000                9.00000000               74.00000000                0.74348648               -0.10635994               -0.10635910                0.35404288                0.00022976                0.00088842                0.00088513
              10.00000000                9.00000000               74.00000000                0.91938552               -0.10687389               -0.10793816                0.35857807               -0.00062456                0.00028003                0.00089382
               0.00000000               10.00000000               74.00000000                0.94727042               -0.08004598               -0.07948945                0.26608603               -0.00014649               -0.00065612               -0.00292400
               1.00000000               10.00000000               74.00000000                0.75775864               -0.07975841               -0.08043740                0.26820561               -0.00095250                0.00706150                0.00090213
               2.00000000               10.00000000               74.00000000                0.59454137               -0.07759202               -0.08175082                0.27103992               -0.01767723                0.27524526                0.00321589
               3.00000000               10.00000000               74.00000000                0.60422575               -0.09180864               -0.08817283                0.30502529               -0.01249032                0.45241138               -0.00867622
               4.00000000               10.00000000               74.00000000                0.63487422               -0.11014097               -0.09318842                0.32705614               -0.00927196                0.25525736               -0.00564030
               5.00000000               10.00000000               74.00000000                0.67254053               -0.11127379               -0.09804674                0.33832616               -0.00469610                0.10425173               -0.00303408
               6.00000000               10.00000000               74.00000000                0.71792963               -0.10921988               -0.10125554                0.34514026               -0.00223802                0.04210968               -0.00151749
               7.00000000               10.00000000               74.00000000                0.77256523               -0.10784471               -0.10354210                0.35008994               -0.00115647                0.01578226               -0.00061821
               8.00000000               10.00000000               74.00000000                0.83866381               -0.10746025               -0.10533250                0.35437339               -0.00070296                0.00478819               -0.00005022
               9.00000000               10.00000000               74.00000000                0.91938392               -0.10794000               -0.10687406                0.35858187               -0.00062389                0.00089511                0.00027673
              10.00000000               10.00000000               74.00000000                0.98608980               -0.10837887               -0.10837769                0.36309562               -0.00144104                0.00034721                0.00034650
               0.00000000                0.00000000               75.00000000                0.75529198               -0.07665247               -0.07665392                0.25382357                0.00017319               -0.00081325               -0.00081067
               1.00000000                0.00000000               75.00000000                0.50252538               -0.07773185               -0.07631754                0.25493806               -0.00109374               -0.00514619               -0.00016445
               2.00000000                0.00000000               75.00000000                0.50116428               -0.07834788               -0.07722552                0.25633362               -0.00004855               -0.01223857                0.00079907
               3.00000000                0.00000000               75.00000000                0.52063269               -0.07750525               -0.07750595                0.25773979               -0.00014197               -0.01567042                0.00038768
               4.00000000                0.00000000               75.00000000                0.54863828               -0.07690696               -0.07787421                0.25910186               -0.00016123               -0.01673308                0.00012735
               5.00000000                0.00000000               75.00000000                0.58539890               -0.07666084               -0.07823073                0.26038984               -0.00020010               -0.01593124               -0.00007700
               6.00000000                0.00000000               75.00000000                0.63156091               -0.07680222               -0.07858493                0.26158037               -0.00020307               -0.01374652               -0.00020376
               7.00000000                0.00000000               75.00000000                0.68799861               -0.07731320               -0.07894665                0.26272482               -0.00014254               -0.01076706               -0.00019044
               8.00000000                0.00000000               75.00000000                0.75578173               -0.07811517               -0.07931841                0.26384751               -0.00001512               -0.00773817                0.00008195
               9.00000000                0.00000000               75.00000000                0.83632907               -0.07901412               -0.07963754                0.26494326                0.00013522               -0.00463013                0.00077274
              10.00000000                0.00000000               75.00000000                0.94672771               -0.07945360               -0.07979288                0.26603220                0.00001253               -0.00297585               -0.00069057
               0.00000000                1.00000000               75.00000000                0.50254177               -0.07631738               -0.07773389                0.25494250               -0.00109330               -0.00017278               -0.00514137
               1.00000000                1.00000000               75.00000000                0.01000000               -0.07544681               -0.07544824                0.25604179               -0.00360296               -0.00294401               -0.00292969
               2.00000000                1.00000000               75.00000000                0.01000000               -0.07549020               -0.07940304                0.25743626               -0.00848470               -0.00587314                0.02751971
               3.00000000                1.00000000               75.00000000                0.01000000               -0.07734905               -0.08125733                0.25887405               -0.01039418               -0.00683628                0.05657317
               4.00000000                1.00000000               75.00000000                0.04349327               -0.07899891               -0.07965557                0.26023851               -0.00646026               -0.00687570                0.00433729
               5.00000000                1.00000000               75.00000000                0.09266557               -0.08012687               -0.07900619                0.26149642               -0.00529518               -0.00657347               -0.00064555
               6.00000000                1.00000000               75.00000000                0.15445002               -0.08069126               -0.07880094                0.26262830               -0.00393796               -0.00569098               -0.00011461
               7.00000000                1.00000000               75.00000000                0.23049962               -0.08075278               -0.07910449                0.26370069               -0.00265735               -0.00411154                0.00272798
               8.00000000                1.00000000               75.00000000                0.32312684               -0.08047971               -0.07960475                0.26475607               -0.00155807               -0.00192462                0.00618472
               9.00000000                1.00000000               75.00000000                0.43497301               -0.08021606               -0.08003775                0.26582461               -0.00083441                0.00003101                0.00901519
              10.00000000                1.00000000               75.00000000                0.75689980               -0.08014561               -0.07903864                0.26691194               -0.00108982                0.00095170                0.00739520
               0.00000000                2.00000000               75.00000000                0.50117979               -0.07722339               -0.07834757                0.25633200               -0.00004975                0.00079692               -0.01223242
               1.00000000                2.00000000               75.00000000                0.01000000               -0.07940085               -0.07548997                0.25743414               -0.00848308                0.02751023               -0.00585831
               2.00000000                2.00000000               75.00000000                0.01000001               -0.08033698               -0.08033929                0.26171887               -0.02103067                0.04990109                0.04990397
               3.00000000                2.00000000               75.00000000                0.01000000               -0.07528755               -0.08604975                0.26627994               -0.02238455               -0.03190064                0.12271928
               4.00000000                2.00000000               75.00000000                0.01000000               -0.07590272               -0.08831934                0.26164488               -0.02565612               -0.05789154                0.24454370
               5.00000000                2.00000000               75.00000000                0.01000001               -0.08103319               -0.09297163                0.26226763               -0.03263304               -0.00477507                0.37781747
               6.00000000                2.00000000               75.00000000                0.02616025               -0.08198863               -0.09627420                0.26324407               -0.03369388                0.00305633                0.38528230
               7.00000000                2.00000000               75.00000000                0.05926477               -0.08201293               -0.09553976                0.26459179               -0.03188409                0.00647405                0.34043843
               8.00000000                2.00000000               75.00000000                0.10065361               -0.08142858               -0.09411721                0.26598162               -0.02877976                0.00782428                0.30903562
               9.00000000                2.00000000               75.00000000                0.15241834               -0.08116751               -0.09150963                0.26744139               -0.02536212                0.00565206                0.29110808
              10.00000000                2.00000000               75.00000000                0.59433840               -0.08126685               -0.07438271                0.26866300               -0.02664469                0.00339812                0.29253194
               0.00000000                3.00000000               75.00000000                0.52067283               -0.07749909               -0.07750152                0.25772676               -0.00014175                0.00038335               -0.01566702
               1.00000000                3.00000000               75.00000000                0.01000000               -0.08125552               -0.07734521                0.25885984               -0.01039742                0.05655095               -0.00683039
               2.00000000                3.00000000               75.00000000                0.01000000               -0.08604472               -0.07529442                0.26628213               -0.02239640                0.12271519               -0.03181741
               3.00000000                3.00000000               75.00000000                0.01000000               -0.08960963               -0.08960962                0.27609334               -0.02921299                0.17517571                0.17514425
               4.00000000                3.00000000               75.00000000                0.01210297               -0.09448033               -0.09776378                0.29163664               -0.04145363                0.22696309                0.40967144
               5.00000000                3.00000000               75.00000000                0.02064509               -0.09270542               -0.10188718                0.30688800               -0.04678174                0.11317064                0.46375013
               6.00000000                3.00000000               75.00000000                0.04923819               -0.08611950               -0.10393797                0.30878229               -0.04279258               -0.06355294                0.46126104
               7.00000000                3.00000000               75.00000000                0.08357571               -0.08207081               -0.10494232                0.30527688               -0.03914370               -0.09889234                0.45620003
               8.00000000                3.00000000               75.00000000                0.12469067               -0.08033449               -0.10508034                0.30350780               -0.03933951               -0.06685181                0.45227221
               9.00000000                3.00000000               75.00000000                0.17404039               -0.08344402               -0.10209752                0.30352209               -0.02786468               -0.02967466                0.45496101
              10.00000000                3.00000000               75.00000000                0.60433494               -0.08671365               -0.09204822                0.30554242               -0.01805262               -0.00895441                0.47924279
               0.00000000                4.00000000               75.00000000                0.54865477               -0.07787248               -0.07690457                0.25909934               -0.00015938                0.00012318               -0.01674174
               1.00000000                4.00000000               75.00000000                0.04348583               -0.07965810               -0.07899644                0.26023421               -0.00647350                0.00443138               -0.00688232
               2.00000000                4.00000000               75.00000000                0.01000000               -0.08836209               -0.07589794                0.26167811               -0.02565866                0.24448224               -0.05792531
               3.00000000                4.00000000               75.00000000                0.01209929               -0.09778941               -0.09446375                0.29161917               -0.04139505                0.40963020                0.22705777
               4.00000000                4.00000000               75.00000000                0.02067480               -0.09759141               -0.09761995                0.31301642               -0.03031528                0.21161241                0.21155337
               5.00000000                4.00000000               75.00000000                0.04923113               -0.09362054               -0.09582869                0.31994254               -0.02124033                0.02393431                0.10421411
               6.00000000                4.00000000               75.00000000                0.08340668               -0.09228670               -0.09469421                0.32119056               -0.01845946               -0.03672414                0.11229457
               7.00000000                4.00000000               75.00000000                0.12410712               -0.09223776               -0.09737366                0.32200771               -0.01978503               -0.04017547                0.16879653
               8.00000000                4.00000000               75.00000000                0.17246849               -0.09286340               -0.10021112                0.32320393               -0.02150699               -0.03163550                0.21174736
               9.00000000                4.00000000               75.00000000                0.23007331               -0.09272597               -0.10246260                0.32521550               -0.01725375               -0.01615532                0.24491549
              10.00000000                4.00000000               75.00000000                0.63497626               -0.09198386               -0.11572522                0.32844447               -0.01359795               -0.00603142                0.26880053
               0.00000000                5.00000000               75.00000000                0.58540262               -0.07823135               -0.07666145                0.26039383               -0.00019900               -0.00007813               -0.01594464
               1.00000000                5.00000000               75.00000000                0.09265843               -0.07900556               -0.08012790                0.26149739               -0.00529769               -0.00067146               -0.00658510
               2.00000000                5.00000000               75.00000000                0.01000001               -0.09294285               -0.08103801                0.26223456               -0.03262860                0.37787449               -0.00489602
               3.00000000                5.00000000               75.00000000                0.02065311               -0.10188824               -0.09268891                0.30698355               -0.04672589                0.46383369                0.11326058
               4.00000000                5.00000000               75.00000000                0.04922798               -0.09585372               -0.09364300                0.32001045               -0.02122695                0.10416090                0.02394417
               5.00000000                5.00000000               75.00000000                0.08351561               -0.09461281               -0.09461766                0.32441593               -0.01506156                0.01040371                0.01041565
               6.00000000                5.00000000               75.00000000                0.12433393               -0.09587320               -0.09595552                0.32744004               -0.01248310               -0.00768425                0.03543502
               7.00000000                5.00000000               75.00000000                0.17278664               -0.09725042               -0.09743003                0.33000131               -0.01107069               -0.01393116                0.05976458
               8.00000000                5.00000000               75.00000000                0.23029009               -0.09835446               -0.09938675                0.33265339               -0.00962663               -0.01324710                0.08085287
               9.00000000                5.00000000               75.00000000                0.29864074               -0.09815182               -0.10391303                0.33574948               -0.00625163               -0.00774937                0.09738406
              10.00000000                5.00000000               75.00000000                0.67271682               -0.09753791               -0.11562940                0.33961149               -0.00661775               -0.00334267                0.10907583
               0.00000000                6.00000000               75.00000000                0.63156465               -0.07858836               -0.07680325                0.26159046               -0.00020334               -0.00020508               -0.01375984
               1.00000000                6.00000000               75.00000000                0.15444608               -0.07880674               -0.08069337                0.26263541               -0.00395410               -0.00012157               -0.00570231
               2.00000000                6.00000000               75.00000000                0.02614544               -0.09627121               -0.08199836                0.26329458               -0.03367896                0.38533618                0.00307991
               3.00000000                6.00000000               75.00000000                0.04923589               -0.10393475               -0.08612277                0.30888217               -0.04282050                0.46128004               -0.06360301
               4.00000000                6.00000000               75.00000000                0.08340756               -0.09469475               -0.09230100                0.32124305               -0.01848646                0.11223889               -0.03675483
               5.00000000                6.00000000               75.00000000                0.12434063               -0.09594506               -0.09587357                0.32741305               -0.01249930                0.03540540               -0.00767528
               6.00000000                6.00000000               75.00000000                0.17299862               -0.09778929               -0.09779480                0.33163155               -0.00840969                0.00926374                0.00925819
               7.00000000                6.00000000               75.00000000                0.23074769               -0.09951520               -0.09916924                0.33504878               -0.00569806               -0.00150061                0.02168207
               8.00000000                6.00000000               75.00000000                0.29934884               -0.10076100               -0.10106337                0.33831838               -0.00365072               -0.00482069                0.03145364
               9.00000000                6.00000000               75.00000000                0.38111175               -0.10112615               -0.10474751                0.34183272               -0.00188277               -0.00360850                0.03870162
              10.00000000                6.00000000               75.00000000                0.71822744               -0.10103496               -0.11165077                0.34589406               -0.00293071               -0.00174676                0.04323838
               0.00000000                7.00000000               75.00000000                0.68797843               -0.07894956               -0.07731093                0.26273011               -0.00014473               -0.00018935               -0.01077656
               1.00000000                7.00000000               75.00000000                0.23056815               -0.07910382               -0.08075127                0.26369877               -0.00266485                0.00274084               -0.00411875
               2.00000000                7.00000000               75.00000000                0.05924326               -0.09555740               -0.08199191                0.26449717               -0.03186870                0.34044818                0.00648175
               3.00000000                7.00000000               75.00000000                0.08356588               -0.10494998               -0.08208779                0.30535331               -0.03914124                0.45621185               -0.09894954
               4.00000000                7.00000000               75.00000000                0.12409460               -0.09735309               -0.09224671                0.32205056               -0.01978848                0.16880258               -0.04020636
               5.00000000                7.00000000               75.00000000                0.17279781               -0.09741565               -0.09724941                0.32999043               -0.01107089                0.05977604               -0.01392086
               6.00000000                7.00000000               75.00000000                0.23075222               -0.09916227               -0.09951130                0.33502552               -0.00570228                0.02167292               -0.00150191
               7.00000000                7.00000000               75.00000000                0.29966155               -0.10095290               -0.10095234                0.33893629               -0.00262387                0.00592219                0.00591495
               8.00000000                7.00000000               75.00000000                0.38179983               -0.10227898               -0.10261326                0.34246238               -0.00094955               -0.00026147                0.01092840
               9.00000000                7.00000000               75.00000000                0.48012428               -0.10309891               -0.10513596                0.34609324               -0.00021645               -0.00139216                0.01411605
              10.00000000                7.00000000               75.00000000                0.77297754               -0.10338947               -0.10892331                0.35016408               -0.00132187               -0.00080549                0.01544939
               0.00000000                8.00000000               75.00000000                0.75579830               -0.07931732               -0.07811033                0.26384154               -0.00001534                0.00008434               -0.00773351
               1.00000000                8.00000000               75.00000000                0.32315570               -0.07960059               -0.08047449                0.26474314               -0.00155126                0.00619831               -0.00192101
               2.00000000                8.00000000               75.00000000                0.10064741               -0.09412098               -0.08141216                0.26593595               -0.02878126                0.30904838                0.00781291
               3.00000000                8.00000000               75.00000000                0.12470250               -0.10508011               -0.08033881                0.30351615               -0.03932690                0.45226597               -0.06687192
               4.00000000                8.00000000               75.00000000                0.17247897               -0.10020093               -0.09286370                0.32319861               -0.02149388                0.21173572               -0.03161826
               5.00000000                8.00000000               75.00000000                0.23028641               -0.09938235               -0.09835296                0.33264767               -0.00961966                0.08084845               -0.01325579
               6.00000000                8.00000000               75.00000000                0.29934348               -0.10106095               -0.10075855                0.33830980               -0.00365058                0.03144410               -0.00481946
               7.00000000                8.00000000               75.00000000                0.38179844               -0.10261380               -0.10227686                0.34245972               -0.00095013                0.01093208               -0.00026427
               8.00000000                8.00000000               75.00000000                0.48053344               -0.10375143               -0.10374967                0.34607636                0.00014681                0.00246308                0.00245594
               9.00000000                8.00000000               75.00000000                0.59949120               -0.10467929               -0.10553563                0.34971069                0.00032285               -0.00012854                0.00390309
              10.00000000                8.00000000               75.00000000                0.83916989               -0.10512641               -0.10768297                0.35372746               -0.00065073               -0.00020390                0.00408122
               0.00000000                9.00000000               75.00000000                0.83632500               -0.07963746               -0.07901171                0.26494193                0.00013666                0.00077219               -0.00462562
               1.00000000                9.00000000               75.00000000                0.43495642               -0.08003655               -0.08021262                0.26581847               -0.00083112                0.00901164                0.00003279
               2.00000000                9.00000000               75.00000000                0.15242559               -0.09150739               -0.08116775                0.26743363               -0.02536810                0.29109857                0.00564046
               3.00000000                9.00000000               75.00000000                0.17403760               -0.10209174               -0.08344035                0.30351277               -0.02786473                0.45495846               -0.02969598
               4.00000000                9.00000000               75.00000000                0.23007430               -0.10245662               -0.09272351                0.32520747               -0.01725307                0.24491306               -0.01615425
               5.00000000                9.00000000               75.00000000                0.29864073               -0.10391064               -0.09815075                0.33574482               -0.00625048                0.09737669               -0.00775528
               6.00000000                9.00000000               75.00000000                0.38111526               -0.10474568               -0.10112582                0.34182913               -0.00188264                0.03870029               -0.00360597
               7.00000000                9.00000000               75.00000000                0.48012079               -0.10513628               -0.10309817                0.34609208               -0.00021508                0.01411787               -0.00138749
               8.00000000                9.00000000               75.00000000                0.59949160               -0.10553772               -0.10467983                0.34971566                0.00032435                0.00390664               -0.00012854
               9.00000000                9.00000000               75.00000000                0.74455498               -0.10617245               -0.10617184                0.35330228                0.00030628                0.00047160                0.00047181
              10.00000000                9.00000000               75.00000000                0.91988310               -0.10656302               -0.10765836                0.35726208               -0.00051192                0.00013576                0.00042635
               0.00000000               10.00000000               75.00000000                0.94672835               -0.07979458               -0.07945361                0.26603820                0.00001441               -0.00069137               -0.00297811
               1.00000000               10.00000000               75.00000000                0.75691462               -0.07903922               -0.08014438                0.26691284               -0.00108889                0.00738493                0.00094740
               2.00000000               10.00000000               75.00000000                0.59433376               -0.07437825               -0.08126925                0.26865987               -0.02665005                0.29250824                0.00339151
               3.00000000               10.00000000               75.00000000                0.60433281               -0.09204084               -0.08671189                0.30553425               -0.01805599                0.47924009               -0.00896913
               4.00000000               10.00000000               75.00000000                0.63498435               -0.11571989               -0.09198297                0.32844283               -0.01360179                0.26880701               -0.00603712
               5.00000000               10.00000000               75.00000000                0.67271622               -0.11562566               -0.09753799                0.33960921               -0.00661829                0.10907459               -0.00334487
               6.00000000               10.00000000               75.00000000                0.71822134               -0.11164798               -0.10103465                0.34589022               -0.00293055                0.04323972               -0.00174526
               7.00000000               10.00000000               75.00000000                0.77297120               -0.10892326               -0.10338901                0.35016269               -0.00132164                0.01544960               -0.00080293
               8.00000000               10.00000000               75.00000000                0.83916961               -0.10768572               -0.10512869                0.35373553               -0.00065000                0.00408223               -0.00020127
               9.00000000               10.00000000               75.00000000                0.91989873               -0.10766048               -0.10656393                0.35726707               -0.00051045                0.00042538                0.00013817
              10.00000000               10.00000000               75.00000000                0.98631392               -0.10792067               -0.10791966                0.36119977               -0.00124942                0.00020140                0.00020298
               0.00000000                0.00000000               76.00000000                0.75563094               -0.07712940               -0.07712891                0.25489409                0.00000802               -0.00076571               -0.00076323
               1.00000000                0.00000000               76.00000000                0.50301546               -0.07868139               -0.07635212                0.25579070               -0.00178994               -0.00490471               -0.00014249
               2.00000000                0.00000000               76.00000000                0.50146430               -0.07946627               -0.07749345                0.25709764               -0.00019687               -0.01176690                0.00077125
               3.00000000                0.00000000               76.00000000                0.52091360               -0.07806929               -0.07767690                0.25848206               -0.00032895               -0.01514781                0.00035605
               4.00000000                0.00000000               76.00000000                0.54884055               -0.07703662               -0.07800543                0.25985022               -0.00035106               -0.01624239                0.00009417
               5.00000000                0.00000000               76.00000000                0.58551768               -0.07649702               -0.07830578                0.26111141               -0.00040184               -0.01552671               -0.00010952
               6.00000000                0.00000000               76.00000000                0.63145378               -0.07648904               -0.07862086                0.26226960               -0.00040420               -0.01344147               -0.00023792
               7.00000000                0.00000000               76.00000000                0.68768667               -0.07698307               -0.07894128                0.26332882               -0.00032676               -0.01053430               -0.00022325
               8.00000000                0.00000000               76.00000000                0.75517079               -0.07788845               -0.07927470                0.26433285               -0.00014843               -0.00756651                0.00005397
               9.00000000                0.00000000               76.00000000                0.83537553               -0.07895395               -0.07954193                0.26529901                0.00006976               -0.00454058                0.00077007
              10.00000000                0.00000000               76.00000000                0.94611832               -0.07947927               -0.07956178                0.26620548                0.00021670               -0.00297589               -0.00067295
               0.00000000                1.00000000               76.00000000                0.50305692               -0.07635126               -0.07867914                0.25578497               -0.00179122               -0.00015037               -0.00489837
               1.00000000                1.00000000               76.00000000                0.01000000               -0.07485817               -0.07485751                0.25664851               -0.00550630               -0.00273818               -0.00272441
               2.00000000                1.00000000               76.00000000                0.01000000               -0.07453483               -0.08125158                0.25785927               -0.01365005               -0.00546455                0.02921292
               3.00000000                1.00000000               76.00000000                0.01000000               -0.07693476               -0.08475415                0.25912055               -0.01628390               -0.00644576                0.05989737
               4.00000000                1.00000000               76.00000000                0.04365396               -0.07905998               -0.08043809                0.26028930               -0.00870868               -0.00660669                0.00446928
               5.00000000                1.00000000               76.00000000                0.09264774               -0.08047420               -0.07920474                0.26131008               -0.00718568               -0.00644755               -0.00098194
               6.00000000                1.00000000               76.00000000                0.15420844               -0.08113459               -0.07876000                0.26221873               -0.00550785               -0.00568252               -0.00042832
               7.00000000                1.00000000               76.00000000                0.22995992               -0.08110082               -0.07901146                0.26304601               -0.00384135               -0.00415821                0.00263713
               8.00000000                1.00000000               76.00000000                0.32208808               -0.08057697               -0.07950756                0.26385883               -0.00231392               -0.00197308                0.00629456
               9.00000000                1.00000000               76.00000000                0.43338406               -0.08003317               -0.07989658                0.26469761               -0.00123371                0.00000894                0.00937214
              10.00000000                1.00000000               76.00000000                0.75594319               -0.07983823               -0.07830116                0.26557275               -0.00121179                0.00095166                0.00785778
               0.00000000                2.00000000               76.00000000                0.50148400               -0.07748923               -0.07946006                0.25708115               -0.00019854                0.00077106               -0.01177163
               1.00000000                2.00000000               76.00000000                0.01000000               -0.08124970               -0.07453017                0.25784453               -0.01365064                0.02920282               -0.00546352
               2.00000000                2.00000000               76.00000000                0.01000001               -0.08176825               -0.08177953                0.26228983               -0.03547737                0.05311006                0.05313273
               3.00000000                2.00000000               76.00000000                0.01000000               -0.07105262               -0.09214838                0.26699416               -0.03629222               -0.03367044                0.13020949
               4.00000000                2.00000000               76.00000000                0.01000000               -0.07186051               -0.09572267                0.26093036               -0.04056996               -0.06183258                0.26001523
               5.00000000                2.00000000               76.00000000                0.01000001               -0.08119409               -0.10278985                0.26090585               -0.05182507               -0.00558356                0.40107089
               6.00000000                2.00000000               76.00000000                0.02609911               -0.08249170               -0.10667643                0.26155375               -0.05228784                0.00284898                0.40889340
               7.00000000                2.00000000               76.00000000                0.05911775               -0.08229784               -0.10398677                0.26256294               -0.04832051                0.00644649                0.36159419
               8.00000000                2.00000000               76.00000000                0.10038426               -0.08123774               -0.10061375                0.26371970               -0.04245739                0.00790507                0.32870315
               9.00000000                2.00000000               76.00000000                0.15204521               -0.08065587               -0.09591032                0.26497090               -0.03623489                0.00579017                0.31021132
              10.00000000                2.00000000               76.00000000                0.59410407               -0.08069461               -0.07150416                0.26605032               -0.03620242                0.00354278                0.31215537
               0.00000000                3.00000000               76.00000000                0.52090338               -0.07767191               -0.07806057                0.25846298               -0.00033027                0.00035716               -0.01515800
               1.00000000                3.00000000               76.00000000                0.01000000               -0.08474578               -0.07692689                0.25910154               -0.01629947                0.05991132               -0.00645532
               2.00000000                3.00000000               76.00000000                0.01000000               -0.09216042               -0.07105947                0.26701338               -0.03627984                0.13020991               -0.03367510
               3.00000000                3.00000000               76.00000000                0.01000000               -0.09505015               -0.09503810                0.27784252               -0.05030818                0.18644513                0.18653507
               4.00000000                3.00000000               76.00000000                0.01213217               -0.09943127               -0.10862175                0.29509782               -0.06893405                0.24054864                0.43477626
               5.00000000                3.00000000               76.00000000                0.02067079               -0.09473716               -0.11373758                0.31212194               -0.07425973                0.11876605                0.49180143
               6.00000000                3.00000000               76.00000000                0.04923974               -0.08457057               -0.11521110                0.31319367               -0.06490962               -0.06848383                0.48898193
               7.00000000                3.00000000               76.00000000                0.08357297               -0.07868326               -0.11507218                0.30828216               -0.05744086               -0.10564939                0.48368199
               8.00000000                3.00000000               76.00000000                0.12474683               -0.07621888               -0.11377905                0.30540702               -0.05647300               -0.07136656                0.47975330
               9.00000000                3.00000000               76.00000000                0.17419660               -0.08037776               -0.10836131                0.30468331               -0.03939825               -0.03166291                0.48288737
              10.00000000                3.00000000               76.00000000                0.60446331               -0.08475399               -0.09333092                0.30633954               -0.02400104               -0.00930660                0.50897868
               0.00000000                4.00000000               76.00000000                0.54885790               -0.07799880               -0.07703050                0.25983233               -0.00035055                0.00009418               -0.01624352
               1.00000000                4.00000000               76.00000000                0.04364224               -0.08043077               -0.07905410                0.26027016               -0.00872529                0.00445224               -0.00660804
               2.00000000                4.00000000               76.00000000                0.01000000               -0.09567768               -0.07185597                0.26078938               -0.04058133                0.26009964               -0.06180464
               3.00000000                4.00000000               76.00000000                0.01213800               -0.10860826               -0.09943487                0.29521924               -0.06894893                0.43481202                0.24051261
               4.00000000                4.00000000               76.00000000                0.02071856               -0.10272354               -0.10269030                0.31891618               -0.04682614                0.22326399                0.22337960
               5.00000000                4.00000000               76.00000000                0.04928788               -0.09451211               -0.09819629                0.32568178               -0.03188631                0.02435500                0.10970990
               6.00000000                4.00000000               76.00000000                0.08347302               -0.09203627               -0.09562121                0.32604028               -0.02709944               -0.03983149                0.11835811
               7.00000000                4.00000000               76.00000000                0.12419680               -0.09164331               -0.09914860                0.32583378               -0.02853259               -0.04339456                0.17805344
               8.00000000                4.00000000               76.00000000                0.17262025               -0.09219896               -0.10261071                0.32613714               -0.03062254               -0.03417143                0.22326451
               9.00000000                4.00000000               76.00000000                0.23029177               -0.09172383               -0.10502919                0.32743573               -0.02433323               -0.01751474                0.25809438
              10.00000000                4.00000000               76.00000000                0.63513430               -0.09056485               -0.12240649                0.33016660               -0.01832934               -0.00650818                0.28335299
               0.00000000                5.00000000               76.00000000                0.58548737               -0.07830530               -0.07649590                0.26111188               -0.00040090               -0.00010951               -0.01553338
               1.00000000                5.00000000               76.00000000                0.09266815               -0.07920677               -0.08047363                0.26130814               -0.00720428               -0.00095468               -0.00645454
               2.00000000                5.00000000               76.00000000                0.01000001               -0.10280472               -0.08118554                0.26087594               -0.05182979                0.40106838               -0.00554899
               3.00000000                5.00000000               76.00000000                0.02067610               -0.11372947               -0.09473662                0.31198367               -0.07432037                0.49177992                0.11875465
               4.00000000                5.00000000               76.00000000                0.04930281               -0.09818002               -0.09448683                0.32560471               -0.03190926                0.10970428                0.02438407
               5.00000000                5.00000000               76.00000000                0.08363968               -0.09492043               -0.09491336                0.32947840               -0.02238888                0.01026866                0.01032162
               6.00000000                5.00000000               76.00000000                0.12452243               -0.09617879               -0.09617618                0.33179094               -0.01842585               -0.00898273                0.03682930
               7.00000000                5.00000000               76.00000000                0.17305002               -0.09766471               -0.09765470                0.33358499               -0.01616406               -0.01559127                0.06248348
               8.00000000                5.00000000               76.00000000                0.23063708               -0.09876313               -0.09973823                0.33541755               -0.01392012               -0.01473649                0.08456601
               9.00000000                5.00000000               76.00000000                0.29905261               -0.09803404               -0.10524132                0.33781105               -0.00897793               -0.00861696                0.10185717
              10.00000000                5.00000000               76.00000000                0.67294995               -0.09695223               -0.12059511                0.34110382               -0.00870603               -0.00371190                0.11407166
               0.00000000                6.00000000               76.00000000                0.63145798               -0.07862019               -0.07648996                0.26227311               -0.00040504               -0.00023716               -0.01344804
               1.00000000                6.00000000               76.00000000                0.15422135               -0.07875758               -0.08113639                0.26221787               -0.00551550               -0.00040572               -0.00569115
               2.00000000                6.00000000               76.00000000                0.02607823               -0.10668562               -0.08248034                0.26148416               -0.05228589                0.40901521                0.00278270
               3.00000000                6.00000000               76.00000000                0.04925068               -0.11520851               -0.08458651                0.31322046               -0.06484991                0.48901016               -0.06841273
               4.00000000                6.00000000               76.00000000                0.08348312               -0.09560695               -0.09201687                0.32595671               -0.02709664                0.11823656               -0.03986385
               5.00000000                6.00000000               76.00000000                0.12451210               -0.09618026               -0.09617444                0.33179451               -0.01843049                0.03679399               -0.00898825
               6.00000000                6.00000000               76.00000000                0.17330990               -0.09811630               -0.09811108                0.33531726               -0.01249471                0.00896066                0.00893500
               7.00000000                6.00000000               76.00000000                0.23119861               -0.09999138               -0.09933347                0.33798678               -0.00849649               -0.00245294                0.02199272
               8.00000000                6.00000000               76.00000000                0.29994132               -0.10121039               -0.10125246                0.34047123               -0.00545094               -0.00582256                0.03215677
               9.00000000                6.00000000               76.00000000                0.38182452               -0.10117566               -0.10560056                0.34324679               -0.00280886               -0.00422095                0.03963406
              10.00000000                6.00000000               76.00000000                0.71858127               -0.10076806               -0.11434790                0.34667001               -0.00367209               -0.00202031                0.04422723
               0.00000000                7.00000000               76.00000000                0.68766486               -0.07894177               -0.07698279                0.26333392               -0.00032738               -0.00022586               -0.01053956
               1.00000000                7.00000000               76.00000000                0.22995058               -0.07901029               -0.08110144                0.26304611               -0.00384443                0.00258379               -0.00416463
               2.00000000                7.00000000               76.00000000                0.05910909               -0.10394811               -0.08229177                0.26254275               -0.04833279                0.36170163                0.00641607
               3.00000000                7.00000000               76.00000000                0.08358263               -0.11506099               -0.07868811                0.30832036               -0.05741178                0.48377349               -0.10574405
               4.00000000                7.00000000               76.00000000                0.12419190               -0.09918391               -0.09164820                0.32588119               -0.02851810                0.17795677               -0.04343424
               5.00000000                7.00000000               76.00000000                0.17304373               -0.09766387               -0.09766441                0.33358022               -0.01616797                0.06244244               -0.01557454
               6.00000000                7.00000000               76.00000000                0.23119252               -0.09933404               -0.09999198                0.33798963               -0.00849593                0.02200306               -0.00245015
               7.00000000                7.00000000               76.00000000                0.30033862               -0.10123400               -0.10123401                0.34109114               -0.00404726                0.00532154                0.00530700
               8.00000000                7.00000000               76.00000000                0.38263908               -0.10252427               -0.10281266                0.34382326               -0.00157180               -0.00106523                0.01046331
               9.00000000                7.00000000               76.00000000                0.48109936               -0.10308371               -0.10557697                0.34669865               -0.00042670               -0.00189643                0.01366149
              10.00000000                7.00000000               76.00000000                0.77347863               -0.10318333               -0.11007037                0.35008747               -0.00148931               -0.00101558                0.01488356
               0.00000000                8.00000000               76.00000000                0.75517342               -0.07927386               -0.07788641                0.26433406               -0.00014904                0.00005460               -0.00756758
               1.00000000                8.00000000               76.00000000                0.32213462               -0.07950365               -0.08057497                0.26385239               -0.00231252                0.00628599               -0.00197259
               2.00000000                8.00000000               76.00000000                0.10039616               -0.10059869               -0.08122899                0.26367507               -0.04245959                0.32872840                0.00795439
               3.00000000                8.00000000               76.00000000                0.12474863               -0.11377681               -0.07620194                0.30538811               -0.05650837                0.47978062               -0.07146867
               4.00000000                8.00000000               76.00000000                0.17262275               -0.10262036               -0.09220350                0.32615193               -0.03062520                0.22325010               -0.03420398
               5.00000000                8.00000000               76.00000000                0.23063764               -0.09973853               -0.09876732                0.33542741               -0.01391498                0.08457275               -0.01472265
               6.00000000                8.00000000               76.00000000                0.29994484               -0.10125327               -0.10121338                0.34047985               -0.00544946                0.03215730               -0.00580792
               7.00000000                8.00000000               76.00000000                0.38263895               -0.10281300               -0.10252587                0.34382840               -0.00157161                0.01046332               -0.00106758
               8.00000000                8.00000000               76.00000000                0.48159348               -0.10383331               -0.10383451                0.34661999                0.00004588                0.00171360                0.00171324
               9.00000000                8.00000000               76.00000000                0.60064973               -0.10453147               -0.10559139                0.34946749                0.00037395               -0.00061307                0.00311114
              10.00000000                8.00000000               76.00000000                0.83974042               -0.10484180               -0.10785725                0.35277812               -0.00057860               -0.00038877                0.00316081
               0.00000000                9.00000000               76.00000000                0.83537225               -0.07954089               -0.07895307                0.26530021                0.00007184                0.00077228               -0.00453482
               1.00000000                9.00000000               76.00000000                0.43338005               -0.07989413               -0.08003105                0.26469312               -0.00122994                0.00937763                0.00001462
               2.00000000                9.00000000               76.00000000                0.15204929               -0.09590549               -0.08064968                0.26495547               -0.03623828                0.31020527                0.00580164
               3.00000000                9.00000000               76.00000000                0.17420099               -0.10835773               -0.08037069                0.30468307               -0.03941431                0.48287301               -0.03168880
               4.00000000                9.00000000               76.00000000                0.23029818               -0.10502649               -0.09172169                0.32742328               -0.02433699                0.25809709               -0.01750656
               5.00000000                9.00000000               76.00000000                0.29905947               -0.10524021               -0.09803655                0.33781321               -0.00897559                0.10185739               -0.00861360
               6.00000000                9.00000000               76.00000000                0.38181476               -0.10560300               -0.10117777                0.34325345               -0.00280637                0.03962982               -0.00422605
               7.00000000                9.00000000               76.00000000                0.48109187               -0.10557837               -0.10308549                0.34670500               -0.00042671                0.01366384               -0.00190011
               8.00000000                9.00000000               76.00000000                0.60066516               -0.10559044               -0.10453153                0.34946546                0.00037288                0.00311436               -0.00061146
               9.00000000                9.00000000               76.00000000                0.74570316               -0.10589287               -0.10589336                0.35223682                0.00039224               -0.00004780               -0.00004526
              10.00000000                9.00000000               76.00000000                0.92041155               -0.10613489               -0.10725003                0.35548005               -0.00037207               -0.00004419               -0.00015999
               0.00000000               10.00000000               76.00000000                0.94611575               -0.07956605               -0.07948018                0.26621733                0.00022078               -0.00067285               -0.00297007
               1.00000000               10.00000000               76.00000000                0.75592386               -0.07830457               -0.07983767                0.26558068               -0.00120894                0.00785844                0.00095561
               2.00000000               10.00000000               76.00000000                0.59411695               -0.07149684               -0.08069295                0.26605650               -0.03621047                0.31214002                0.00353725
               3.00000000               10.00000000               76.00000000                0.60445777               -0.09332010               -0.08475504                0.30635136               -0.02400550                0.50895397               -0.00931826
               4.00000000               10.00000000               76.00000000                0.63513354               -0.12240350               -0.09056099                0.33015622               -0.01833029                0.28335490               -0.00649929
               5.00000000               10.00000000               76.00000000                0.67294645               -0.12059517               -0.09695173                0.34109786               -0.00870764                0.11406204               -0.00371194
               6.00000000               10.00000000               76.00000000                0.71859587               -0.11435082               -0.10076897                0.34667266               -0.00367124                0.04422106               -0.00202980
               7.00000000               10.00000000               76.00000000                0.77347941               -0.11007253               -0.10318499                0.35009447               -0.00148861                0.01489039               -0.00102096
               8.00000000               10.00000000               76.00000000                0.83974278               -0.10785624               -0.10484048                0.35277487               -0.00057877                0.00316657               -0.00038649
               9.00000000               10.00000000               76.00000000                0.92040826               -0.10724855               -0.10613423                0.35547684               -0.00037323               -0.00016219               -0.00004043
              10.00000000               10.00000000               76.00000000                0.98651823               -0.10730098               -0.10730177                0.35868932               -0.00101093                0.00001738                0.00002036
               0.00000000                0.00000000               77.00000000                0.75596499               -0.07757335               -0.07757000                0.25586666               -0.00015599               -0.00071064               -0.00070374
               1.00000000                0.00000000               77.00000000                0.50349277               -0.07958258               -0.07636360                0.25655688               -0.00247838               -0.00456955               -0.00012556
               2.00000000                0.00000000               77.00000000                0.50179871               -0.08052369               -0.07774556                0.25780849               -0.00035431               -0.01103755                0.00071503
               3.00000000                0.00000000               77.00000000                0.52117450               -0.07858462               -0.07783660                0.25921441               -0.00053201               -0.01428435                0.00030716
               4.00000000                0.00000000               77.00000000                0.54908343               -0.07714354               -0.07812132                0.26063070               -0.00055456               -0.01539658                0.00005361
               5.00000000                0.00000000               77.00000000                0.58555015               -0.07633921               -0.07837960                0.26193531               -0.00061432               -0.01479694               -0.00013846
               6.00000000                0.00000000               77.00000000                0.63138215               -0.07619897               -0.07865682                0.26309164               -0.00061592               -0.01285392               -0.00026723
               7.00000000                0.00000000               77.00000000                0.68729322               -0.07668587               -0.07894772                0.26410522               -0.00051549               -0.01009250               -0.00025707
               8.00000000                0.00000000               77.00000000                0.75448705               -0.07770847               -0.07925753                0.26502902               -0.00028498               -0.00723841                0.00002797
               9.00000000                0.00000000               77.00000000                0.83424462               -0.07896395               -0.07948680                0.26591134                0.00000534               -0.00434036                0.00077003
              10.00000000                0.00000000               77.00000000                0.94547006               -0.07958978               -0.07938603                0.26668710                0.00047586               -0.00290619               -0.00058828
               0.00000000                1.00000000               77.00000000                0.50356223               -0.07636129               -0.07957607                0.25654054               -0.00248277               -0.00013093               -0.00456568
               1.00000000                1.00000000               77.00000000                0.01000000               -0.07426245               -0.07426050                0.25717569               -0.00739389               -0.00251522               -0.00251095
               2.00000000                1.00000000               77.00000000                0.01000000               -0.07359671               -0.08325246                0.25820983               -0.01892603               -0.00507177                0.03114056
               3.00000000                1.00000000               77.00000000                0.01000000               -0.07654261               -0.08849166                0.25929261               -0.02237146               -0.00612584                0.06375453
               4.00000000                1.00000000               77.00000000                0.04384875               -0.07913922               -0.08122074                0.26025398               -0.01111967               -0.00645060                0.00447993
               5.00000000                1.00000000               77.00000000                0.09265810               -0.08083645               -0.07938819                0.26105623               -0.00918386               -0.00644439               -0.00131729
               6.00000000                1.00000000               77.00000000                0.15389914               -0.08158522               -0.07869799                0.26172925               -0.00716324               -0.00577810               -0.00080878
               7.00000000                1.00000000               77.00000000                0.22924850               -0.08144922               -0.07891465                0.26231928               -0.00509990               -0.00430218                0.00242830
               8.00000000                1.00000000               77.00000000                0.32088687               -0.08067082               -0.07942608                0.26290742               -0.00313309               -0.00210310                0.00641488
               9.00000000                1.00000000               77.00000000                0.43156508               -0.07984569               -0.07979028                0.26354306               -0.00167675               -0.00007306                0.00981368
              10.00000000                1.00000000               77.00000000                0.75480384               -0.07952761               -0.07758146                0.26424818               -0.00130800                0.00089547                0.00851382
               0.00000000                2.00000000               77.00000000                0.50178394               -0.07773834               -0.08051579                0.25778717               -0.00035718                0.00071692               -0.01103292
               1.00000000                2.00000000               77.00000000                0.01000000               -0.08324435               -0.07359034                0.25818956               -0.01893564                0.03113965               -0.00506816
               2.00000000                2.00000000               77.00000000                0.01000001               -0.08349358               -0.08348227                0.26282280               -0.05028525                0.05684065                0.05685077
               3.00000000                2.00000000               77.00000000                0.01000000               -0.06695898               -0.09875976                0.26782255               -0.05027889               -0.03595724                0.13909805
               4.00000000                2.00000000               77.00000000                0.01000000               -0.06778512               -0.10361586                0.25969312               -0.05578782               -0.06675650                0.27834719
               5.00000000                2.00000000               77.00000000                0.01000001               -0.08130336               -0.11355310                0.25929400               -0.07186602               -0.00680355                0.42822407
               6.00000000                2.00000000               77.00000000                0.02600763               -0.08295374               -0.11824447                0.25956774               -0.07191927                0.00212904                0.43636218
               7.00000000                2.00000000               77.00000000                0.05894539               -0.08252788               -0.11350050                0.26023881               -0.06586682                0.00613617                0.38617931
               8.00000000                2.00000000               77.00000000                0.10008777               -0.08096696               -0.10816738                0.26119396               -0.05713850                0.00786964                0.35141307
               9.00000000                2.00000000               77.00000000                0.15162331               -0.08003350               -0.10130090                0.26223921               -0.04788501                0.00582573                0.33215748
              10.00000000                2.00000000               77.00000000                0.59385096               -0.07999902               -0.06922713                0.26320271               -0.04623005                0.00362431                0.33460471
               0.00000000                3.00000000               77.00000000                0.52122120               -0.07783430               -0.07857913                0.25920567               -0.00053091                0.00030860               -0.01428372
               1.00000000                3.00000000               77.00000000                0.01000000               -0.08848966               -0.07653737                0.25928487               -0.02236761                0.06376475               -0.00612803
               2.00000000                3.00000000               77.00000000                0.01000000               -0.09874050               -0.06694123                0.26777319               -0.05031300                0.13909066               -0.03599779
               3.00000000                3.00000000               77.00000000                0.01000000               -0.10109551               -0.10112560                0.27994094               -0.07168728                0.20001631                0.20005886
               4.00000000                3.00000000               77.00000000                0.01216905               -0.10512644               -0.12052442                0.29986380               -0.09731484                0.25642760                0.46446861
               5.00000000                3.00000000               77.00000000                0.02070556               -0.09727112               -0.12686955                0.31830485               -0.10312575                0.12501904                0.52439817
               6.00000000                3.00000000               77.00000000                0.04925868               -0.08320652               -0.12790806                0.31868772               -0.08800883               -0.07427791                0.52131894
               7.00000000                3.00000000               77.00000000                0.08360732               -0.07517693               -0.12671382                0.31208549               -0.07661641               -0.11357125                0.51552536
               8.00000000                3.00000000               77.00000000                0.12481195               -0.07170725               -0.12408309                0.30792668               -0.07459402               -0.07678331                0.51125473
               9.00000000                3.00000000               77.00000000                0.17442007               -0.07675484               -0.11622711                0.30632422               -0.05159335               -0.03408506                0.51452851
              10.00000000                3.00000000               77.00000000                0.60461368               -0.08218040               -0.09604327                0.30755918               -0.03026443               -0.00975677                0.54209003
               0.00000000                4.00000000               77.00000000                0.54908200               -0.07811970               -0.07713763                0.26061727               -0.00055391                0.00005328               -0.01539973
               1.00000000                4.00000000               77.00000000                0.04382023               -0.08122460               -0.07913413                0.26024025               -0.01111448                0.00444943               -0.00645622
               2.00000000                4.00000000               77.00000000                0.01000000               -0.10363846               -0.06778375                0.25981908               -0.05582452                0.27841989               -0.06681213
               3.00000000                4.00000000               77.00000000                0.01217358               -0.12051764               -0.10512417                0.29972568               -0.09737488                0.46444732                0.25633763
               4.00000000                4.00000000               77.00000000                0.02076429               -0.10855777               -0.10856779                0.32633944               -0.06371534                0.23678371                0.23682026
               5.00000000                4.00000000               77.00000000                0.04936491               -0.09576385               -0.10107257                0.33259600               -0.04270354                0.02476606                0.11601086
               6.00000000                4.00000000               77.00000000                0.08358268               -0.09198881               -0.09696559                0.33183723               -0.03578094               -0.04341793                0.12526917
               7.00000000                4.00000000               77.00000000                0.12432338               -0.09113226               -0.10157876                0.33056899               -0.03738042               -0.04723178                0.18847503
               8.00000000                4.00000000               77.00000000                0.17282069               -0.09148870               -0.10579318                0.32975837               -0.03998215               -0.03721395                0.23613914
               9.00000000                4.00000000               77.00000000                0.23059731               -0.09054648               -0.10851048                0.33016544               -0.03167972               -0.01909136                0.27261430
              10.00000000                4.00000000               77.00000000                0.63531747               -0.08890246               -0.13037326                0.33229293               -0.02342134               -0.00704666                0.29900433
               0.00000000                5.00000000               77.00000000                0.58559204               -0.07838027               -0.07633306                0.26192478               -0.00061347               -0.00014229               -0.01480142
               1.00000000                5.00000000               77.00000000                0.09264417               -0.07938765               -0.08083074                0.26104488               -0.00918224               -0.00136578               -0.00645247
               2.00000000                5.00000000               77.00000000                0.01000001               -0.11358034               -0.08129594                0.25927152               -0.07188349                0.42816083               -0.00681833
               3.00000000                5.00000000               77.00000000                0.02070131               -0.12688095               -0.09724792                0.31822489               -0.10309026                0.52441036                0.12504816
               4.00000000                5.00000000               77.00000000                0.04936045               -0.10105474               -0.09575250                0.33257016               -0.04267971                0.11607951                0.02473163
               5.00000000                5.00000000               77.00000000                0.08378641               -0.09553962               -0.09554074                0.33563571               -0.02979176                0.01027438                0.01021848
               6.00000000                5.00000000               77.00000000                0.12475497               -0.09671251               -0.09671853                0.33706677               -0.02443046               -0.01044439                0.03834703
               7.00000000                5.00000000               77.00000000                0.17340168               -0.09821759               -0.09821399                0.33784386               -0.02134744               -0.01753841                0.06545895
               8.00000000                5.00000000               77.00000000                0.23105995               -0.09923963               -0.10043209                0.33871620               -0.01830964               -0.01646589                0.08862997
               9.00000000                5.00000000               77.00000000                0.29960859               -0.09789259               -0.10699683                0.34024758               -0.01179380               -0.00957168                0.10661921
              10.00000000                5.00000000               77.00000000                0.67324471               -0.09628207               -0.12624446                0.34281956               -0.01093770               -0.00409686                0.11918416
               0.00000000                6.00000000               77.00000000                0.63136743               -0.07865898               -0.07619512                0.26308706               -0.00061529               -0.00027169               -0.01286635
               1.00000000                6.00000000               77.00000000                0.15385882               -0.07869575               -0.08158200                0.26172309               -0.00715510               -0.00087847               -0.00579238
               2.00000000                6.00000000               77.00000000                0.02600144               -0.11823376               -0.08295681                0.25957300               -0.07194017                0.43645083                0.00217103
               3.00000000                6.00000000               77.00000000                0.04926290               -0.12791230               -0.08317820                0.31852803               -0.08801391                0.52133031               -0.07414742
               4.00000000                6.00000000               77.00000000                0.08357227               -0.09697970               -0.09199255                0.33184548               -0.03574497                0.12518807               -0.04334361
               5.00000000                6.00000000               77.00000000                0.12475411               -0.09672333               -0.09671552                0.33708612               -0.02441869                0.03839643               -0.01044640
               6.00000000                6.00000000               77.00000000                0.17371117               -0.09865910               -0.09865736                0.33975067               -0.01660569                0.00856979                0.00856495
               7.00000000                6.00000000               77.00000000                0.23178397               -0.10060508               -0.09968599                0.34144157               -0.01131878               -0.00358185                0.02225365
               8.00000000                6.00000000               77.00000000                0.30069975               -0.10172739               -0.10160779                0.34295786               -0.00728479               -0.00700321                0.03283884
               9.00000000                6.00000000               77.00000000                0.38269719               -0.10122328               -0.10664769                0.34484636               -0.00375558               -0.00492615                0.04046438
              10.00000000                6.00000000               77.00000000                0.71904921               -0.10046060               -0.11733469                0.34748008               -0.00444659               -0.00232715                0.04498270
               0.00000000                7.00000000               77.00000000                0.68727716               -0.07894967               -0.07668639                0.26410898               -0.00051535               -0.00025768               -0.01010276
               1.00000000                7.00000000               77.00000000                0.22927059               -0.07891807               -0.08145076                0.26232278               -0.00510416                0.00242763               -0.00431459
               2.00000000                7.00000000               77.00000000                0.05892990               -0.11352491               -0.08254246                0.26029270               -0.06587095                0.38623903                0.00617364
               3.00000000                7.00000000               77.00000000                0.08360923               -0.12670474               -0.07515232                0.31203206               -0.07661609                0.51554065               -0.11365205
               4.00000000                7.00000000               77.00000000                0.12434335               -0.10154969               -0.09113177                0.33053311               -0.03737584                0.18841864               -0.04717787
               5.00000000                7.00000000               77.00000000                0.17338953               -0.09822280               -0.09822219                0.33786873               -0.02134222                0.06543115               -0.01753311
               6.00000000                7.00000000               77.00000000                0.23178028               -0.09969417               -0.10060729                0.34146121               -0.01131443                0.02225523               -0.00358371
               7.00000000                7.00000000               77.00000000                0.30115109               -0.10162655               -0.10162580                0.34360721               -0.00546644                0.00453834                0.00453340
               8.00000000                7.00000000               77.00000000                0.38370079               -0.10281070               -0.10308445                0.34534892               -0.00219293               -0.00201434                0.00983025
               9.00000000                7.00000000               77.00000000                0.48229665               -0.10304054               -0.10607074                0.34728483               -0.00063817               -0.00249588                0.01299807
              10.00000000                7.00000000               77.00000000                0.77407791               -0.10291679               -0.11127780                0.34983165               -0.00164828               -0.00127431                0.01403981
               0.00000000                8.00000000               77.00000000                0.75443853               -0.07926248               -0.07771347                0.26504654               -0.00028513                0.00002763               -0.00723876
               1.00000000                8.00000000               77.00000000                0.32087328               -0.07943006               -0.08067583                0.26292075               -0.00313827                0.00639310               -0.00210525
               2.00000000                8.00000000               77.00000000                0.10010946               -0.10815895               -0.08096638                0.26118048               -0.05712765                0.35141543                0.00785784
               3.00000000                8.00000000               77.00000000                0.12481239               -0.12407451               -0.07170381                0.30789196               -0.07457158                0.51128492               -0.07682847
               4.00000000                8.00000000               77.00000000                0.17282205               -0.10579717               -0.09148974                0.32977140               -0.04000261                0.23615611               -0.03725083
               5.00000000                8.00000000               77.00000000                0.23107376               -0.10043748               -0.09924117                0.33872014               -0.01831693                0.08862147               -0.01647167
               6.00000000                8.00000000               77.00000000                0.30069733               -0.10161232               -0.10173003                0.34296963               -0.00728106                0.03282897               -0.00700257
               7.00000000                8.00000000               77.00000000                0.38369259               -0.10308600               -0.10281263                0.34535557               -0.00219116                0.00983013               -0.00201440
               8.00000000                8.00000000               77.00000000                0.48289263               -0.10391498               -0.10391594                0.34713463               -0.00003895                0.00079719                0.00079174
               9.00000000                8.00000000               77.00000000                0.60203305               -0.10431507               -0.10560331                0.34900671                0.00043445               -0.00119794                0.00211041
              10.00000000                8.00000000               77.00000000                0.84039481               -0.10445696               -0.10795479                0.35144394               -0.00048339               -0.00061205                0.00200755
               0.00000000                9.00000000               77.00000000                0.83425255               -0.07949107               -0.07896919                0.26592486                0.00000499                0.00076904               -0.00433232
               1.00000000                9.00000000               77.00000000                0.43154648               -0.07979331               -0.07984993                0.26355273               -0.00167265                0.00980350               -0.00006500
               2.00000000                9.00000000               77.00000000                0.15159921               -0.10131073               -0.08002943                0.26223544               -0.04787522                0.33215976                0.00584321
               3.00000000                9.00000000               77.00000000                0.17441334               -0.11623038               -0.07676774                0.30635924               -0.05162246                0.51454826               -0.03408367
               4.00000000                9.00000000               77.00000000                0.23058981               -0.10849902               -0.09055161                0.33017106               -0.03170129                0.27262093               -0.01911011
               5.00000000                9.00000000               77.00000000                0.29960498               -0.10698997               -0.09789374                0.34024694               -0.01179855                0.10662900               -0.00958883
               6.00000000                9.00000000               77.00000000                0.38269297               -0.10664834               -0.10122567                0.34485450               -0.00375473                0.04046854               -0.00492768
               7.00000000                9.00000000               77.00000000                0.48228912               -0.10607298               -0.10304416                0.34729683               -0.00063758                0.01299568               -0.00249069
               8.00000000                9.00000000               77.00000000                0.60202794               -0.10560317               -0.10431657                0.34900833                0.00043360                0.00211033               -0.00120106
               9.00000000                9.00000000               77.00000000                0.74698683               -0.10550196               -0.10550284                0.35077911                0.00048525               -0.00067790               -0.00068281
              10.00000000                9.00000000               77.00000000                0.92092162               -0.10556362               -0.10668072                0.35313286               -0.00020670               -0.00025540               -0.00087379
               0.00000000               10.00000000               77.00000000                0.94546608               -0.07938728               -0.07959366                0.26669000                0.00047553               -0.00059038               -0.00289271
               1.00000000               10.00000000               77.00000000                0.75481294               -0.07758573               -0.07953040                0.26425062               -0.00130188                0.00851295                0.00090865
               2.00000000               10.00000000               77.00000000                0.59385540               -0.06925154               -0.07999906                0.26321604               -0.04623292                0.33460765                0.00363914
               3.00000000               10.00000000               77.00000000                0.60461502               -0.09604852               -0.08220200                0.30761841               -0.03029294                0.54209050               -0.00976279
               4.00000000               10.00000000               77.00000000                0.63532039               -0.13034767               -0.08890890                0.33228771               -0.02342671                0.29899617               -0.00705160
               5.00000000               10.00000000               77.00000000                0.67324702               -0.12623239               -0.09628451                0.34282006               -0.01093815                0.11919296               -0.00411052
               6.00000000               10.00000000               77.00000000                0.71904241               -0.11733472               -0.10046338                0.34748896               -0.00444725                0.04499812               -0.00233035
               7.00000000               10.00000000               77.00000000                0.77408252               -0.11128087               -0.10292136                0.34984515               -0.00164783                0.01403927               -0.00126995
               8.00000000               10.00000000               77.00000000                0.84040634               -0.10795506               -0.10445842                0.35144595               -0.00048274                0.00200256               -0.00061464
               9.00000000               10.00000000               77.00000000                0.92092266               -0.10667953               -0.10556404                0.35313157               -0.00020678               -0.00087139               -0.00026072
              10.00000000               10.00000000               77.00000000                0.98669795               -0.10648879               -0.10648965                0.35544786               -0.00071798               -0.00019891               -0.00020227
               0.00000000                0.00000000               78.00000000                0.75625110               -0.07797776               -0.07797610                0.25673828               -0.00031124               -0.00063369               -0.00063692
               1.00000000                0.00000000               78.00000000                0.50400404               -0.08039759               -0.07636909                0.25723062               -0.00313433               -0.00411670               -0.00012688
               2.00000000                0.00000000               78.00000000                0.50210712               -0.08146410               -0.07798199                0.25846577               -0.00052266               -0.00998890                0.00061392
               3.00000000                0.00000000               78.00000000                0.52150550               -0.07902645               -0.07798504                0.25994482               -0.00074229               -0.01301137                0.00023310
               4.00000000                0.00000000               78.00000000                0.54927730               -0.07723311               -0.07824185                0.26147810               -0.00076215               -0.01412343                0.00000256
               5.00000000                0.00000000               78.00000000                0.58564115               -0.07620861               -0.07847201                0.26289077               -0.00083189               -0.01368655               -0.00017325
               6.00000000                0.00000000               78.00000000                0.63121255               -0.07595958               -0.07871416                0.26408124               -0.00083280               -0.01197954               -0.00029327
               7.00000000                0.00000000               78.00000000                0.68684129               -0.07645109               -0.07898053                0.26508669               -0.00070897               -0.00942492               -0.00028351
               8.00000000                0.00000000               78.00000000                0.75366270               -0.07759899               -0.07927347                0.26596642               -0.00042589               -0.00672398                0.00000868
               9.00000000                0.00000000               78.00000000                0.83300779               -0.07905496               -0.07947342                0.26679764               -0.00005813               -0.00399703                0.00076796
              10.00000000                0.00000000               78.00000000                0.94469282               -0.07978807               -0.07926196                0.26747615                0.00078825               -0.00271604               -0.00044011
               0.00000000                1.00000000               78.00000000                0.50401029               -0.07636877               -0.08039525                0.25722641               -0.00313499               -0.00011404               -0.00411070
               1.00000000                1.00000000               78.00000000                0.01000000               -0.07370206               -0.07370180                0.25763516               -0.00917896               -0.00227718               -0.00228385
               2.00000000                1.00000000               78.00000000                0.01000000               -0.07272776               -0.08540272                0.25848510               -0.02415312               -0.00471300                0.03331256
               3.00000000                1.00000000               78.00000000                0.01000000               -0.07620356               -0.09246453                0.25939326               -0.02843582               -0.00591385                0.06825310
               4.00000000                1.00000000               78.00000000                0.04401673               -0.07924878               -0.08201197                0.26015806               -0.01360353               -0.00644556                0.00420716
               5.00000000                1.00000000               78.00000000                0.09258983               -0.08120700               -0.07955796                0.26075290               -0.01121646               -0.00660583               -0.00193549
               6.00000000                1.00000000               78.00000000                0.15349991               -0.08202830               -0.07862376                0.26118378               -0.00884236               -0.00604134               -0.00130334
               7.00000000                1.00000000               78.00000000                0.22841731               -0.08178775               -0.07883006                0.26154703               -0.00640947               -0.00457546                0.00224203
               8.00000000                1.00000000               78.00000000                0.31948900               -0.08075758               -0.07937502                0.26192415               -0.00400447               -0.00232817                0.00659302
               9.00000000                1.00000000               78.00000000                0.42939611               -0.07965282               -0.07973242                0.26237595               -0.00214671               -0.00021920                0.01034836
              10.00000000                1.00000000               78.00000000                0.75353020               -0.07921276               -0.07690084                0.26294325               -0.00136735                0.00079862                0.00937852
               0.00000000                2.00000000               78.00000000                0.50211481               -0.07798162               -0.08146448                0.25846532               -0.00052352                0.00061522               -0.00997878
               1.00000000                2.00000000               78.00000000                0.01000000               -0.08539824               -0.07272886                0.25848461               -0.02415871                0.03331246               -0.00471388
               2.00000000                2.00000000               78.00000000                0.01000001               -0.08551332               -0.08553577                0.26323536               -0.06503794                0.06114663                0.06111649
               3.00000000                2.00000000               78.00000000                0.01000000               -0.06315607               -0.10579749                0.26863003               -0.06388375               -0.03902722                0.14961467
               4.00000000                2.00000000               78.00000000                0.01000000               -0.06384925               -0.11208657                0.25842465               -0.07085212               -0.07323294                0.30030810
               5.00000000                2.00000000               78.00000000                0.01000001               -0.08136278               -0.12528119                0.25747561               -0.09241238               -0.00844991                0.46010560
               6.00000000                2.00000000               78.00000000                0.02592087               -0.08336946               -0.13095158                0.25736719               -0.09237251                0.00117682                0.46859027
               7.00000000                2.00000000               78.00000000                0.05874306               -0.08270124               -0.12431496                0.25773362               -0.08431554                0.00555719                0.41484352
               8.00000000                2.00000000               78.00000000                0.09977914               -0.08058964               -0.11695915                0.25840448               -0.07267122                0.00755877                0.37779800
               9.00000000                2.00000000               78.00000000                0.15114828               -0.07928560               -0.10792441                0.25928915               -0.06018172                0.00569503                0.35752877
              10.00000000                2.00000000               78.00000000                0.59356859               -0.07918291               -0.06794809                0.26020819               -0.05655292                0.00361367                0.36042001
               0.00000000                3.00000000               78.00000000                0.52149233               -0.07798621               -0.07902884                0.25994993               -0.00074423                0.00023509               -0.01301139
               1.00000000                3.00000000               78.00000000                0.01000000               -0.09246435               -0.07620589                0.25939890               -0.02845489                0.06822455               -0.00591745
               2.00000000                3.00000000               78.00000000                0.01000000               -0.10577036               -0.06315269                0.26862653               -0.06390414                0.14961698               -0.03892611
               3.00000000                3.00000000               78.00000000                0.01000000               -0.10780176               -0.10780888                0.28228405               -0.09272502                0.21640655                0.21633385
               4.00000000                3.00000000               78.00000000                0.01221672               -0.11171660               -0.13351853                0.30610801               -0.12602436                0.27510622                0.49989542
               5.00000000                3.00000000               78.00000000                0.02074642               -0.10047483               -0.14137175                0.32611590               -0.13267579                0.13215048                0.56294897
               6.00000000                3.00000000               78.00000000                0.04931387               -0.08205235               -0.14220168                0.32516467               -0.11182934               -0.08105116                0.55903991
               7.00000000                3.00000000               78.00000000                0.08366581               -0.07153643               -0.14011707                0.31678728               -0.09645825               -0.12291175                0.55239964
               8.00000000                3.00000000               78.00000000                0.12493788               -0.06681722               -0.13627209                0.31120448               -0.09334473               -0.08314657                0.54738654
               9.00000000                3.00000000               78.00000000                0.17470178               -0.07250989               -0.12608646                0.30865563               -0.06432784               -0.03702977                0.55052058
              10.00000000                3.00000000               78.00000000                0.60482975               -0.07887526               -0.10071097                0.30942982               -0.03680022               -0.01035551                0.57911113
               0.00000000                4.00000000               78.00000000                0.54931254               -0.07823379               -0.07722819                0.26146092               -0.00076639                0.00000402               -0.01412634
               1.00000000                4.00000000               78.00000000                0.04403045               -0.08200080               -0.07924438                0.26014118               -0.01359766                0.00432874               -0.00645206
               2.00000000                4.00000000               78.00000000                0.01000000               -0.11209631               -0.06380313                0.25826986               -0.07084537                0.30027033               -0.07320782
               3.00000000                4.00000000               78.00000000                0.01221748               -0.13354045               -0.11166250                0.30584891               -0.12603166                0.49977162                0.27508069
               4.00000000                4.00000000               78.00000000                0.02083905               -0.11532132               -0.11531969                0.33555428               -0.08060857                0.25238475                0.25237732
               5.00000000                4.00000000               78.00000000                0.04946504               -0.09753303               -0.10459258                0.34099086               -0.05330323                0.02484265                0.12326815
               6.00000000                4.00000000               78.00000000                0.08371985               -0.09222621               -0.09898898                0.33883302               -0.04418115               -0.04763498                0.13304007
               7.00000000                4.00000000               78.00000000                0.12452771               -0.09072900               -0.10472606                0.33618152               -0.04604969               -0.05165276                0.20020488
               8.00000000                4.00000000               78.00000000                0.17308876               -0.09073130               -0.10994361                0.33413812               -0.04936034               -0.04080782                0.25049867
               9.00000000                4.00000000               78.00000000                0.23099655               -0.08917093               -0.11312713                0.33348930               -0.03920226               -0.02096402                0.28855165
              10.00000000                4.00000000               78.00000000                0.63557338               -0.08696435               -0.13979963                0.33487329               -0.02887292               -0.00768739                0.31572478
               0.00000000                5.00000000               78.00000000                0.58568200               -0.07845636               -0.07619615                0.26285073               -0.00083308               -0.00017443               -0.01368910
               1.00000000                5.00000000               78.00000000                0.09259958               -0.07954232               -0.08119462                0.26071354               -0.01119349               -0.00191703               -0.00661117
               2.00000000                5.00000000               78.00000000                0.01000001               -0.12527993               -0.08135042                0.25746651               -0.09239083                0.46003645               -0.00856155
               3.00000000                5.00000000               78.00000000                0.02073840               -0.14138910               -0.10044532                0.32622127               -0.13270679                0.56299708                0.13219081
               4.00000000                5.00000000               78.00000000                0.04947517               -0.10461005               -0.09754813                0.34102699               -0.05330376                0.12335074                0.02486656
               5.00000000                5.00000000               78.00000000                0.08397086               -0.09661241               -0.09661202                0.34318145               -0.03698605                0.01001460                0.01003969
               6.00000000                5.00000000               78.00000000                0.12508197               -0.09753244               -0.09766823                0.34335481               -0.03028648               -0.01223510                0.04008492
               7.00000000                5.00000000               78.00000000                0.17382034               -0.09894153               -0.09919148                0.34291689               -0.02644096               -0.01985137                0.06869612
               8.00000000                5.00000000               78.00000000                0.23161820               -0.09979477               -0.10159083                0.34263993               -0.02269560               -0.01848149                0.09300554
               9.00000000                5.00000000               78.00000000                0.30029241               -0.09771821               -0.10926011                0.34309464               -0.01466460               -0.01070923                0.11165832
              10.00000000                5.00000000               78.00000000                0.67361571               -0.09551640               -0.13259669                0.34476916               -0.01330239               -0.00457161                0.12436894
               0.00000000                6.00000000               78.00000000                0.63123347               -0.07870032               -0.07594979                0.26404870               -0.00082931               -0.00029414               -0.01198115
               1.00000000                6.00000000               78.00000000                0.15350158               -0.07861544               -0.08201887                0.26115322               -0.00884297               -0.00126718               -0.00604575
               2.00000000                6.00000000               78.00000000                0.02591810               -0.13098085               -0.08338586                0.25742931               -0.09236841                0.46855580                0.00114671
               3.00000000                6.00000000               78.00000000                0.04930064               -0.14220557               -0.08207130                0.32519073               -0.11184220                0.55906328               -0.08092883
               4.00000000                6.00000000               78.00000000                0.08372946               -0.09896914               -0.09223067                0.33886895               -0.04419956                0.13308840               -0.04768223
               5.00000000                6.00000000               78.00000000                0.12507244               -0.09767763               -0.09754054                0.34338473               -0.03026715                0.04004692               -0.01223623
               6.00000000                6.00000000               78.00000000                0.17422295               -0.09947009               -0.09946896                0.34498612               -0.02062247                0.00801314                0.00800730
               7.00000000                6.00000000               78.00000000                0.23251675               -0.10138289               -0.10028674                0.34549151               -0.01409473               -0.00496843                0.02246468
               8.00000000                6.00000000               78.00000000                0.30162185               -0.10232560               -0.10219102                0.34584580               -0.00909009               -0.00837331                0.03342270
               9.00000000                6.00000000               78.00000000                0.38379868               -0.10126362               -0.10791400                0.34663159               -0.00469208               -0.00572218                0.04114682
              10.00000000                6.00000000               78.00000000                0.71961703               -0.10009865               -0.12059629                0.34828326               -0.00524078               -0.00267026                0.04548885
               0.00000000                7.00000000               78.00000000                0.68683524               -0.07897665               -0.07645232                0.26508026               -0.00070433               -0.00028479               -0.00942040
               1.00000000                7.00000000               78.00000000                0.22843482               -0.07882669               -0.08178948                0.26154151               -0.00641885                0.00224369               -0.00457584
               2.00000000                7.00000000               78.00000000                0.05874385               -0.12431129               -0.08270647                0.25773410               -0.08432669                0.41490867                0.00550293
               3.00000000                7.00000000               78.00000000                0.08367100               -0.14012838               -0.07154293                0.31679186               -0.09644168                0.55244243               -0.12290058
               4.00000000                7.00000000               78.00000000                0.12453909               -0.10473449               -0.09071351                0.33614533               -0.04606018                0.20015865               -0.05169640
               5.00000000                7.00000000               78.00000000                0.17382710               -0.09918754               -0.09893816                0.34290607               -0.02643739                0.06869444               -0.01985942
               6.00000000                7.00000000               78.00000000                0.23250763               -0.10029115               -0.10138312                0.34550280               -0.01408548                0.02245783               -0.00496871
               7.00000000                7.00000000               78.00000000                0.30220108               -0.10214589               -0.10214269                0.34648590               -0.00685451                0.00358008                0.00357830
               8.00000000                7.00000000               78.00000000                0.38499890               -0.10313386               -0.10343885                0.34701691               -0.00278239               -0.00316974                0.00899231
               9.00000000                7.00000000               78.00000000                0.48373454               -0.10296011               -0.10661623                0.34782029               -0.00082540               -0.00319127                0.01206364
              10.00000000                7.00000000               78.00000000                0.77480648               -0.10257899               -0.11252167                0.34934381               -0.00178346               -0.00155528                0.01285286
               0.00000000                8.00000000               78.00000000                0.75365854               -0.07927927               -0.07760786                0.26598319               -0.00042433                0.00000179               -0.00672045
               1.00000000                8.00000000               78.00000000                0.31944812               -0.07938044               -0.08076642                0.26194142               -0.00400710                0.00656420               -0.00232674
               2.00000000                8.00000000               78.00000000                0.09978680               -0.11696617               -0.08059534                0.25842655               -0.07266495                0.37779118                0.00755839
               3.00000000                8.00000000               78.00000000                0.12494455               -0.13627444               -0.06681385                0.31119913               -0.09333054                0.54741561               -0.08318921
               4.00000000                8.00000000               78.00000000                0.17309601               -0.10993993               -0.09072164                0.33412322               -0.04935861                0.25050808               -0.04081185
               5.00000000                8.00000000               78.00000000                0.23163066               -0.10158786               -0.09978630                0.34260994               -0.02270191                0.09300199               -0.01849519
               6.00000000                8.00000000               78.00000000                0.30163786               -0.10219241               -0.10232303                0.34584007               -0.00909059                0.03342567               -0.00837536
               7.00000000                8.00000000               78.00000000                0.38499085               -0.10344350               -0.10313514                0.34702718               -0.00277978                0.00898741               -0.00316919
               8.00000000                8.00000000               78.00000000                0.48445755               -0.10398394               -0.10398293                0.34756780               -0.00009538               -0.00033360               -0.00033171
               9.00000000                8.00000000               78.00000000                0.60364161               -0.10401327               -0.10555650                0.34827004                0.00051076               -0.00189811                0.00087547
              10.00000000                8.00000000               78.00000000                0.84113405               -0.10395486               -0.10794922                0.34965239               -0.00035670               -0.00087419                0.00057180
               0.00000000                9.00000000               78.00000000                0.83302811               -0.07947550               -0.07906013                0.26680569               -0.00006074                0.00076501               -0.00399935
               1.00000000                9.00000000               78.00000000                0.42942018               -0.07973344               -0.07965804                0.26238426               -0.00214502                0.01034496               -0.00021915
               2.00000000                9.00000000               78.00000000                0.15113776               -0.10791396               -0.07929209                0.25930051               -0.06016426                0.35755785                0.00572834
               3.00000000                9.00000000               78.00000000                0.17470577               -0.12608838               -0.07252394                0.30869136               -0.06429499                0.55054225               -0.03698208
               4.00000000                9.00000000               78.00000000                0.23098428               -0.11314279               -0.08917434                0.33351097               -0.03919709                0.28853935               -0.02097876
               5.00000000                9.00000000               78.00000000                0.30029754               -0.10926247               -0.09771604                0.34309056               -0.01466986                0.11166320               -0.01070918
               6.00000000                9.00000000               78.00000000                0.38378939               -0.10791402               -0.10126304                0.34663290               -0.00469814                0.04115270               -0.00573064
               7.00000000                9.00000000               78.00000000                0.48373842               -0.10661841               -0.10296249                0.34782791               -0.00082700                0.01206284               -0.00319138
               8.00000000                9.00000000               78.00000000                0.60364135               -0.10555798               -0.10401567                0.34827579                0.00051238                0.00087134               -0.00189704
               9.00000000                9.00000000               78.00000000                0.74837040               -0.10497531               -0.10497569                0.34884772                0.00058708               -0.00144405               -0.00144325
              10.00000000                9.00000000               78.00000000                0.92145896               -0.10482300               -0.10591942                0.35012640               -0.00001018               -0.00052148               -0.00173271
               0.00000000               10.00000000               78.00000000                0.94471676               -0.07925700               -0.07978864                0.26746784                0.00078454               -0.00043439               -0.00272104
               1.00000000               10.00000000               78.00000000                0.75350039               -0.07689629               -0.07921352                0.26293559               -0.00136644                0.00939504                0.00079662
               2.00000000               10.00000000               78.00000000                0.59357492               -0.06793982               -0.07918657                0.26020622               -0.05654511                0.36047588                0.00363839
               3.00000000               10.00000000               78.00000000                0.60484192               -0.10071762               -0.07889586                0.30948558               -0.03678921                0.57912537               -0.01031525
               4.00000000               10.00000000               78.00000000                0.63556798               -0.13981479               -0.08697396                0.33490498               -0.02886346                0.31570122               -0.00769489
               5.00000000               10.00000000               78.00000000                0.67361811               -0.13259744               -0.09551862                0.34478076               -0.01330273                0.12437828               -0.00456918
               6.00000000               10.00000000               78.00000000                0.71961850               -0.12059623               -0.10010039                0.34829356               -0.00524483                0.04549254               -0.00267646
               7.00000000               10.00000000               78.00000000                0.77479980               -0.11252416               -0.10258126                0.34934979               -0.00178608                0.01285641               -0.00155432
               8.00000000               10.00000000               78.00000000                0.84113955               -0.10795092               -0.10395802                0.34965828               -0.00035535                0.00056820               -0.00087177
               9.00000000               10.00000000               78.00000000                0.92144415               -0.10592034               -0.10482432                0.35012980               -0.00000845               -0.00173488               -0.00052178
              10.00000000               10.00000000               78.00000000                0.98682930               -0.10545119               -0.10545074                0.35136483               -0.00036580               -0.00047606               -0.00047614
               0.00000000                0.00000000               79.00000000                0.75662894               -0.07830501               -0.07830888                0.25745253               -0.00045738               -0.00055280               -0.00055330
               1.00000000                0.00000000               79.00000000                0.50455387               -0.08106442               -0.07634987                0.25775375               -0.00371051               -0.00353040               -0.00013207
               2.00000000                0.00000000               79.00000000                0.50246548               -0.08223145               -0.07817493                0.25903880               -0.00068906               -0.00857380                0.00045234
               3.00000000                0.00000000               79.00000000                0.52183525               -0.07938639               -0.07811337                0.26067681               -0.00095315               -0.01125287                0.00012824
               4.00000000                0.00000000               79.00000000                0.54959048               -0.07731513               -0.07834119                0.26237073               -0.00097524               -0.01234817               -0.00006381
               5.00000000                0.00000000               79.00000000                0.58576965               -0.07612362               -0.07854181                0.26392439               -0.00104647               -0.01215115               -0.00021011
               6.00000000                0.00000000               79.00000000                0.63107407               -0.07580293               -0.07876981                0.26521926               -0.00103933               -0.01077113               -0.00031275
               7.00000000                0.00000000               79.00000000                0.68634230               -0.07631416               -0.07902943                0.26626854               -0.00089484               -0.00851663               -0.00030316
               8.00000000                0.00000000               79.00000000                0.75267793               -0.07758831               -0.07932539                0.26715803               -0.00056254               -0.00603321               -0.00000395
               9.00000000                0.00000000               79.00000000                0.83157396               -0.07924185               -0.07950829                0.26797193               -0.00012046               -0.00352411                0.00077871
              10.00000000                0.00000000               79.00000000                0.94378589               -0.08008023               -0.07919029                0.26856997                0.00114841               -0.00243091               -0.00018057
               0.00000000                1.00000000               79.00000000                0.50454332               -0.07635383               -0.08106907                0.25777145               -0.00370297               -0.00013008               -0.00352697
               1.00000000                1.00000000               79.00000000                0.01000000               -0.07320947               -0.07321030                0.25795584               -0.01073881               -0.00204286               -0.00204249
               2.00000000                1.00000000               79.00000000                0.01000000               -0.07200718               -0.08772147                0.25865020               -0.02914453               -0.00443154                0.03568833
               3.00000000                1.00000000               79.00000000                0.01000000               -0.07597329               -0.09668980                0.25942062               -0.03429996               -0.00584450                0.07340602
               4.00000000                1.00000000               79.00000000                0.04424398               -0.07940085               -0.08276470                0.25997410               -0.01610879               -0.00663061                0.00397830
               5.00000000                1.00000000               79.00000000                0.09256826               -0.08156541               -0.07967852                0.26034217               -0.01321927               -0.00698110               -0.00251225
               6.00000000                1.00000000               79.00000000                0.15305518               -0.08244106               -0.07852608                0.26056253               -0.01051398               -0.00649569               -0.00178596
               7.00000000                1.00000000               79.00000000                0.22743170               -0.08210268               -0.07875331                0.26072670               -0.00774534               -0.00500889                0.00207133
               8.00000000                1.00000000               79.00000000                0.31784442               -0.08083541               -0.07936972                0.26093206               -0.00491416               -0.00268109                0.00683550
               9.00000000                1.00000000               79.00000000                0.42693020               -0.07945974               -0.07974098                0.26122673               -0.00263684               -0.00045287                0.01106025
              10.00000000                1.00000000               79.00000000                0.75200207               -0.07889837               -0.07628133                0.26167552               -0.00137708                0.00062476                0.01060079
               0.00000000                2.00000000               79.00000000                0.50248265               -0.07818403               -0.08223466                0.25905639               -0.00068562                0.00045220               -0.00855934
               1.00000000                2.00000000               79.00000000                0.01000000               -0.08772365               -0.07201141                0.25866966               -0.02914153                0.03568703               -0.00442114
               2.00000000                2.00000000               79.00000000                0.01000001               -0.08795131               -0.08795787                0.26345820               -0.07930708                0.06595546                0.06597691
               3.00000000                2.00000000               79.00000000                0.01000000               -0.05990581               -0.11332172                0.26935301               -0.07652754               -0.04268494                0.16180925
               4.00000000                2.00000000               79.00000000                0.01000000               -0.06018138               -0.12111500                0.25692193               -0.08509410               -0.08108157                0.32693811
               5.00000000                2.00000000               79.00000000                0.01000001               -0.08131870               -0.13797678                0.25540812               -0.11284956               -0.01085587                0.49795475
               6.00000000                2.00000000               79.00000000                0.02583454               -0.08369340               -0.14507512                0.25492117               -0.11317376               -0.00040387                0.50617127
               7.00000000                2.00000000               79.00000000                0.05853720               -0.08277255               -0.13654508                0.25498291               -0.10341826                0.00456284                0.44840253
               8.00000000                2.00000000               79.00000000                0.09942063               -0.08009372               -0.12728224                0.25539679               -0.08888394                0.00701579                0.40855864
               9.00000000                2.00000000               79.00000000                0.15064113               -0.07840893               -0.11603354                0.25618782               -0.07296031                0.00546291                0.38700558
              10.00000000                2.00000000               79.00000000                0.59326821               -0.07823562               -0.06803446                0.25713204               -0.06693625                0.00355276                0.39028702
               0.00000000                3.00000000               79.00000000                0.52186215               -0.07811716               -0.07938640                0.26068013               -0.00095424                0.00012681               -0.01125571
               1.00000000                3.00000000               79.00000000                0.01000000               -0.09669232               -0.07597401                0.25942366               -0.03430093                0.07340965               -0.00585056
               2.00000000                3.00000000               79.00000000                0.01000000               -0.11331117               -0.05990995                0.26934491               -0.07653944                0.16180684               -0.04282467
               3.00000000                3.00000000               79.00000000                0.01000000               -0.11513872               -0.11511430                0.28483657               -0.11277508                0.23640782                0.23629561
               4.00000000                3.00000000               79.00000000                0.01230977               -0.11908284               -0.14767673                0.31354158               -0.15410392                0.29738493                0.54158521
               5.00000000                3.00000000               79.00000000                0.02079764               -0.10437848               -0.15741064                0.33601041               -0.16242327                0.13969177                0.60815157
               6.00000000                3.00000000               79.00000000                0.04936275               -0.08135538               -0.15831364                0.33325393               -0.13584265               -0.08920414                0.60316085
               7.00000000                3.00000000               79.00000000                0.08376802               -0.06795380               -0.15557536                0.32271410               -0.11647260               -0.13356389                0.59521119
               8.00000000                3.00000000               79.00000000                0.12514693               -0.06157805               -0.15071677                0.31551509               -0.11241519               -0.09058889                0.58894433
               9.00000000                3.00000000               79.00000000                0.17512871               -0.06756574               -0.13835906                0.31188563               -0.07722856               -0.04050085                0.59145771
              10.00000000                3.00000000               79.00000000                0.60512896               -0.07468609               -0.10788056                0.31213388               -0.04338378               -0.01107325                0.62044800
               0.00000000                4.00000000               79.00000000                0.54954790               -0.07834531               -0.07731271                0.26237591               -0.00097727               -0.00005955               -0.01237412
               1.00000000                4.00000000               79.00000000                0.04420429               -0.08276972               -0.07939846                0.25997964               -0.01610984                0.00380549               -0.00665883
               2.00000000                4.00000000               79.00000000                0.01000000               -0.12115026               -0.06018875                0.25689795               -0.08506519                0.32674896               -0.08115111
               3.00000000                4.00000000               79.00000000                0.01229654               -0.14768069               -0.11904645                0.31340509               -0.15411412                0.54184025                0.29747341
               4.00000000                4.00000000               79.00000000                0.02094401               -0.12297351               -0.12301202                0.34629180               -0.09713018                0.26992930                0.26969370
               5.00000000                4.00000000               79.00000000                0.04960986               -0.09993409               -0.10893407                0.35107871               -0.06346640                0.02458227                0.13132936
               6.00000000                4.00000000               79.00000000                0.08392721               -0.09286013               -0.10168327                0.34726329               -0.05204928               -0.05267635                0.14201697
               7.00000000                4.00000000               79.00000000                0.12480461               -0.09048313               -0.10883128                0.34289245               -0.05424227               -0.05690436                0.21335373
               8.00000000                4.00000000               79.00000000                0.17346252               -0.08991850               -0.11520404                0.33936468               -0.05844645               -0.04497969                0.26641152
               9.00000000                4.00000000               79.00000000                0.23151986               -0.08756830               -0.11914510                0.33751298               -0.04663522               -0.02313525                0.30591521
              10.00000000                4.00000000               79.00000000                0.63589625               -0.08472174               -0.15095340                0.33802098               -0.03457462               -0.00843658                0.33343386
               0.00000000                5.00000000               79.00000000                0.58576216               -0.07853713               -0.07612006                0.26391138               -0.00104877               -0.00020222               -0.01216109
               1.00000000                5.00000000               79.00000000                0.09256349               -0.07967656               -0.08156205                0.26032992               -0.01322986               -0.00254221               -0.00699283
               2.00000000                5.00000000               79.00000000                0.01000001               -0.13799021               -0.08130952                0.25536806               -0.11281472                0.49800108               -0.01070754
               3.00000000                5.00000000               79.00000000                0.02079557               -0.15742607               -0.10441435                0.33637650               -0.16237029                0.60822474                0.13992065
               4.00000000                5.00000000               79.00000000                0.04961055               -0.10892497               -0.09993471                0.35100272               -0.06349502                0.13130845                0.02456462
               5.00000000                5.00000000               79.00000000                0.08424466               -0.09816260               -0.09817220                0.35208534               -0.04379835                0.00969045                0.00967788
               6.00000000                5.00000000               79.00000000                0.12547986               -0.09871065               -0.09910659                0.35081085               -0.03579219               -0.01447569                0.04186722
               7.00000000                5.00000000               79.00000000                0.17440001               -0.09987296               -0.10068242                0.34889592               -0.03126967               -0.02256599                0.07222240
               8.00000000                5.00000000               79.00000000                0.23236060               -0.10041092               -0.10328886                0.34717845               -0.02693516               -0.02085153                0.09769549
               9.00000000                5.00000000               79.00000000                0.30119900               -0.09748830               -0.11213906                0.34636319               -0.01750551               -0.01201367                0.11690993
              10.00000000                5.00000000               79.00000000                0.67410468               -0.09464233               -0.13972139                0.34697312               -0.01576108               -0.00509510                0.12951254
               0.00000000                6.00000000               79.00000000                0.63102800               -0.07876634               -0.07580180                0.26521175               -0.00103900               -0.00030601               -0.01075976
               1.00000000                6.00000000               79.00000000                0.15305886               -0.07852007               -0.08244004                0.26055528               -0.01051067               -0.00177242               -0.00648656
               2.00000000                6.00000000               79.00000000                0.02582989               -0.14506826               -0.08366940                0.25484493               -0.11318247                0.50630132               -0.00037876
               3.00000000                6.00000000               79.00000000                0.04936455               -0.15833176               -0.08138789                0.33342380               -0.13582151                0.60322853               -0.08922515
               4.00000000                6.00000000               79.00000000                0.08392289               -0.10169755               -0.09284863                0.34723615               -0.05203165                0.14193040               -0.05265162
               5.00000000                6.00000000               79.00000000                0.12549575               -0.09909831               -0.09870429                0.35078985               -0.03580431                0.04188400               -0.01449171
               6.00000000                6.00000000               79.00000000                0.17489272               -0.10059934               -0.10059963                0.35111557               -0.02443526                0.00725491                0.00728317
               7.00000000                6.00000000               79.00000000                0.23344920               -0.10234754               -0.10118550                0.35019916               -0.01670379               -0.00663053                0.02250745
               8.00000000                6.00000000               79.00000000                0.30279531               -0.10299457               -0.10304002                0.34912263               -0.01078538               -0.01000769                0.03384038
               9.00000000                6.00000000               79.00000000                0.38514366               -0.10128225               -0.10942630                0.34857880               -0.00559402               -0.00667077                0.04159936
              10.00000000                6.00000000               79.00000000                0.72032247               -0.09967410               -0.12412330                0.34905180               -0.00604409               -0.00307562                0.04561596
               0.00000000                7.00000000               79.00000000                0.68636009               -0.07902437               -0.07631330                0.26626082               -0.00089526               -0.00030034               -0.00849633
               1.00000000                7.00000000               79.00000000                0.22744044               -0.07874804               -0.08210187                0.26072032               -0.00773209                0.00207217               -0.00499278
               2.00000000                7.00000000               79.00000000                0.05854419               -0.13654008               -0.08277458                0.25498087               -0.10342888                0.44846403                0.00454659
               3.00000000                7.00000000               79.00000000                0.08378039               -0.15559205               -0.06794129                0.32273826               -0.11649500                0.59517929               -0.13370041
               4.00000000                7.00000000               79.00000000                0.12480942               -0.10885092               -0.09048133                0.34289635               -0.05422558                0.21329580               -0.05689500
               5.00000000                7.00000000               79.00000000                0.17439228               -0.10067887               -0.09986472                0.34888013               -0.03127971                0.07223668               -0.02261509
               6.00000000                7.00000000               79.00000000                0.23345867               -0.10117915               -0.10234188                0.35018225               -0.01671449                0.02251980               -0.00664120
               7.00000000                7.00000000               79.00000000                0.30349883               -0.10279864               -0.10279910                0.34970585               -0.00813749                0.00233767                0.00234725
               8.00000000                7.00000000               79.00000000                0.38658682               -0.10349081               -0.10389322                0.34882017               -0.00329460               -0.00454429                0.00785615
               9.00000000                7.00000000               79.00000000                0.48549865               -0.10283338               -0.10721095                0.34826477               -0.00097756               -0.00400171                0.01080882
              10.00000000                7.00000000               79.00000000                0.77567504               -0.10215565               -0.11377203                0.34854745               -0.00188992               -0.00188045                0.01128333
               0.00000000                8.00000000               79.00000000                0.75271846               -0.07931662               -0.07758427                0.26713747               -0.00056211               -0.00000916               -0.00602693
               1.00000000                8.00000000               79.00000000                0.31779040               -0.07936673               -0.08083195                0.26091778               -0.00491471                0.00682237               -0.00267819
               2.00000000                8.00000000               79.00000000                0.09942099               -0.12729713               -0.08010885                0.25545169               -0.08888934                0.40855144                0.00701085
               3.00000000                8.00000000               79.00000000                0.12514633               -0.15073068               -0.06156808                0.31550795               -0.11241825                0.58894888               -0.09063540
               4.00000000                8.00000000               79.00000000                0.17346791               -0.11520644               -0.08991621                0.33935901               -0.05842502                0.26640449               -0.04498033
               5.00000000                8.00000000               79.00000000                0.23235067               -0.10328948               -0.10040599                0.34716922               -0.02693064                0.09769443               -0.02085687
               6.00000000                8.00000000               79.00000000                0.30281185               -0.10303562               -0.10298790                0.34910331               -0.01079533                0.03386653               -0.01002175
               7.00000000                8.00000000               79.00000000                0.38659710               -0.10388949               -0.10348654                0.34880680               -0.00330146                0.00786356               -0.00454280
               8.00000000                8.00000000               79.00000000                0.48633637               -0.10403197               -0.10403134                0.34788283               -0.00010658               -0.00169921               -0.00169454
               9.00000000                8.00000000               79.00000000                0.60552049               -0.10361239               -0.10543564                0.34720306                0.00061696               -0.00271648               -0.00063195
              10.00000000                8.00000000               79.00000000                0.84200271               -0.10331861               -0.10780868                0.34732412               -0.00018810               -0.00117552               -0.00116368
               0.00000000                9.00000000               79.00000000                0.83156032               -0.07950516               -0.07923916                0.26796352               -0.00011955                0.00077593               -0.00353343
               1.00000000                9.00000000               79.00000000                0.42693534               -0.07974098               -0.07945791                0.26122047               -0.00264881                0.01105478               -0.00046301
               2.00000000                9.00000000               79.00000000                0.15063305               -0.11603719               -0.07841243                0.25619512               -0.07296193                0.38703933                0.00546569
               3.00000000                9.00000000               79.00000000                0.17514042               -0.13836053               -0.06756273                0.31187829               -0.07720416                0.59146187               -0.04045287
               4.00000000                9.00000000               79.00000000                0.23152334               -0.11915266               -0.08756277                0.33750688               -0.04661041                0.30587712               -0.02313074
               5.00000000                9.00000000               79.00000000                0.30117762               -0.11215087               -0.09748944                0.34637684               -0.01749806                0.11690474               -0.01200528
               6.00000000                9.00000000               79.00000000                0.38515468               -0.10942820               -0.10128036                0.34857609               -0.00559872                0.04161534               -0.00666496
               7.00000000                9.00000000               79.00000000                0.48550792               -0.10720798               -0.10282893                0.34825305               -0.00098311                0.01081103               -0.00400416
               8.00000000                9.00000000               79.00000000                0.60552049               -0.10543459               -0.10360946                0.34719821                0.00061440               -0.00063691               -0.00271796
               9.00000000                9.00000000               79.00000000                0.74988742               -0.10429098               -0.10429019                0.34636923                0.00070425               -0.00234508               -0.00234460
              10.00000000                9.00000000               79.00000000                0.92197043               -0.10389227               -0.10493934                0.34637864                0.00022483               -0.00083010               -0.00274246
               0.00000000               10.00000000               79.00000000                0.94382675               -0.07919331               -0.08008023                0.26857863                0.00115003               -0.00017675               -0.00244210
               1.00000000               10.00000000               79.00000000                0.75200310               -0.07628139               -0.07889868                0.26168075               -0.00138609                0.01060171                0.00061419
               2.00000000               10.00000000               79.00000000                0.59328446               -0.06803564               -0.07823124                0.25711241               -0.06693236                0.39034436                0.00355842
               3.00000000               10.00000000               79.00000000                0.60512573               -0.10787959               -0.07468330                0.31213705               -0.04336648                0.62046118               -0.01102970
               4.00000000               10.00000000               79.00000000                0.63589871               -0.15096020               -0.08471558                0.33802260               -0.03455956                0.33338461               -0.00842620
               5.00000000               10.00000000               79.00000000                0.67410770               -0.13973740               -0.09464697                0.34700051               -0.01575948                0.12950689               -0.00508983
               6.00000000               10.00000000               79.00000000                0.72032981               -0.12412741               -0.09967545                0.34905993               -0.00604371                0.04562535               -0.00306685
               7.00000000               10.00000000               79.00000000                0.77568352               -0.11376966               -0.10215203                0.34854106               -0.00189120                0.01127795               -0.00188006
               8.00000000               10.00000000               79.00000000                0.84200530               -0.10780804               -0.10331538                0.34732016               -0.00019075               -0.00116995               -0.00117768
               9.00000000               10.00000000               79.00000000                0.92196597               -0.10493979               -0.10389103                0.34637754                0.00022332               -0.00274285               -0.00083050
              10.00000000               10.00000000               79.00000000                0.98690432               -0.10415973               -0.10415933                0.34633908                0.00005067               -0.00079533               -0.00079560
               0.00000000                0.00000000               80.00000000                0.75692016               -0.07854907               -0.07854829                0.25800514               -0.00058953               -0.00045010               -0.00044159
               1.00000000                0.00000000               80.00000000                0.50502368               -0.08153737               -0.07632598                0.25814785               -0.00415021               -0.00278040               -0.00014030
               2.00000000                0.00000000               80.00000000                0.50289474               -0.08275444               -0.07831149                0.25952078               -0.00084355               -0.00669514                0.00023454
               3.00000000                0.00000000               80.00000000                0.52221559               -0.07963071               -0.07820900                0.26138589               -0.00115319               -0.00893702               -0.00001223
               4.00000000                0.00000000               80.00000000                0.54985858               -0.07740611               -0.07841993                0.26332302               -0.00117757               -0.01004370               -0.00013267
               5.00000000                0.00000000               80.00000000                0.58586958               -0.07613580               -0.07860600                0.26508102               -0.00124537               -0.01014432               -0.00022994
               6.00000000                0.00000000               80.00000000                0.63086596               -0.07578209               -0.07883251                0.26652512               -0.00122945               -0.00920490               -0.00031242
               7.00000000                0.00000000               80.00000000                0.68573397               -0.07631173               -0.07909401                0.26764799               -0.00106350               -0.00734911               -0.00029968
               8.00000000                0.00000000               80.00000000                0.75156977               -0.07769370               -0.07941236                0.26858495               -0.00068683               -0.00514339               -0.00000205
               9.00000000                0.00000000               80.00000000                0.82989800               -0.07953195               -0.07959890                0.26942656               -0.00017599               -0.00291908                0.00080012
              10.00000000                0.00000000               80.00000000                0.94279762               -0.08047337               -0.07919932                0.27000462                0.00155556               -0.00205044                0.00019707
               0.00000000                1.00000000               80.00000000                0.50509825               -0.07632564               -0.08153548                0.25814481               -0.00414961               -0.00015622               -0.00277327
               1.00000000                1.00000000               80.00000000                0.01000000               -0.07284718               -0.07284724                0.25813263               -0.01191945               -0.00179926               -0.00178287
               2.00000000                1.00000000               80.00000000                0.01000000               -0.07152598               -0.09026783                0.25869974               -0.03368454               -0.00420269                0.03822837
               3.00000000                1.00000000               80.00000000                0.01000000               -0.07589413               -0.10127870                0.25934624               -0.03975024               -0.00595637                0.07926222
               4.00000000                1.00000000               80.00000000                0.04444883               -0.07960838               -0.08346754                0.25971505               -0.01851758               -0.00708787                0.00345104
               5.00000000                1.00000000               80.00000000                0.09247637               -0.08191188               -0.07974759                0.25987209               -0.01509972               -0.00761072               -0.00333280
               6.00000000                1.00000000               80.00000000                0.15252533               -0.08280667               -0.07840870                0.25989675               -0.01207876               -0.00716872               -0.00231961
               7.00000000                1.00000000               80.00000000                0.22626262               -0.08236985               -0.07869890                0.25988102               -0.00903321               -0.00560734                0.00198493
               8.00000000                1.00000000               80.00000000                0.31583360               -0.08089002               -0.07942986                0.25995805               -0.00583970               -0.00315449                0.00720239
               9.00000000                1.00000000               80.00000000                0.42400132               -0.07927087               -0.07985190                0.26014225               -0.00316038               -0.00078767                0.01197701
              10.00000000                1.00000000               80.00000000                0.75022434               -0.07860008               -0.07577830                0.26053008               -0.00135107                0.00035092                0.01221282
               0.00000000                2.00000000               80.00000000                0.50289774               -0.07831272               -0.08274815                0.25951681               -0.00084517                0.00023145               -0.00670050
               1.00000000                2.00000000               80.00000000                0.01000000               -0.09027408               -0.07152111                0.25869566               -0.03367751                0.03822339               -0.00420308
               2.00000000                2.00000000               80.00000000                0.01000001               -0.09095271               -0.09093158                0.26354378               -0.09271248                0.07114069                0.07112095
               3.00000000                2.00000000               80.00000000                0.01000000               -0.05739958               -0.12139503                0.26972605               -0.08751737               -0.04738196                0.17574405
               4.00000000                2.00000000               80.00000000                0.01000000               -0.05691587               -0.13101535                0.25532227               -0.09792190               -0.09073924                0.35875701
               5.00000000                2.00000000               80.00000000                0.01000001               -0.08115174               -0.15175460                0.25310868               -0.13263394               -0.01378943                0.54308473
               6.00000000                2.00000000               80.00000000                0.02574450               -0.08386298               -0.16058750                0.25223197               -0.13392774               -0.00230109                0.55064182
               7.00000000                2.00000000               80.00000000                0.05833838               -0.08272310               -0.15040133                0.25209337               -0.12285891                0.00325722                0.48779366
               8.00000000                2.00000000               80.00000000                0.09906373               -0.07949746               -0.13933115                0.25237966               -0.10556666                0.00620957                0.44454752
               9.00000000                2.00000000               80.00000000                0.15012347               -0.07741559               -0.12596450                0.25310282               -0.08604025                0.00508758                0.42129788
              10.00000000                2.00000000               80.00000000                0.59296876               -0.07715741               -0.07005407                0.25410761               -0.07710832                0.00340347                0.42483925
               0.00000000                3.00000000               80.00000000                0.52226390               -0.07820446               -0.07962236                0.26136811               -0.00115124               -0.00001474               -0.00894367
               1.00000000                3.00000000               80.00000000                0.01000000               -0.10127217               -0.07588542                0.25932910               -0.03973433                0.07922568               -0.00596657
               2.00000000                3.00000000               80.00000000                0.01000000               -0.12143858               -0.05740956                0.26973150               -0.08747952                0.17574748               -0.04727636
               3.00000000                3.00000000               80.00000000                0.01000000               -0.12325892               -0.12320151                0.28701555               -0.13126802                0.26043324                0.26025406
               4.00000000                3.00000000               80.00000000                0.01241636               -0.12729587               -0.16310181                0.32174589               -0.18072011                0.32438093                0.59097668
               5.00000000                3.00000000               80.00000000                0.02090209               -0.10893558               -0.17512064                0.34793005               -0.19117040                0.14862842                0.66132417
               6.00000000                3.00000000               80.00000000                0.04947347               -0.08118265               -0.17646281                0.34346441               -0.15940742               -0.09914203                0.65497973
               7.00000000                3.00000000               80.00000000                0.08394212               -0.06446594               -0.17339586                0.33023027               -0.13626281               -0.14609921                0.64481518
               8.00000000                3.00000000               80.00000000                0.12547919               -0.05602423               -0.16779343                0.32111260               -0.13138949               -0.09922635                0.63665018
               9.00000000                3.00000000               80.00000000                0.17573343               -0.06183296               -0.15351812                0.31623663               -0.09013306               -0.04463370                0.63796396
              10.00000000                3.00000000               80.00000000                0.60553581               -0.06944400               -0.11819656                0.31588016               -0.04992002               -0.01199684                0.66655580
               0.00000000                4.00000000               80.00000000                0.54982678               -0.07842786               -0.07740575                0.26333248               -0.00117217               -0.00013669               -0.01005334
               1.00000000                4.00000000               80.00000000                0.04444919               -0.08347614               -0.07960797                0.25972509               -0.01853430                0.00354807               -0.00709945
               2.00000000                4.00000000               80.00000000                0.01000000               -0.13095353               -0.05693757                0.25536395               -0.09789210                0.35859198               -0.09069682
               3.00000000                4.00000000               80.00000000                0.01240956               -0.16309034               -0.12737733                0.32201787               -0.18063708                0.59098872                0.32465109
               4.00000000                4.00000000               80.00000000                0.02108846               -0.13149016               -0.13141772                0.35889998               -0.11219333                0.29003142                0.28979989
               5.00000000                4.00000000               80.00000000                0.04982101               -0.10300666               -0.11416149                0.36300147               -0.07264478                0.02415270                0.13998019
               6.00000000                4.00000000               80.00000000                0.08421780               -0.09393129               -0.10536576                0.35718563               -0.05893586               -0.05866352                0.15178585
               7.00000000                4.00000000               80.00000000                0.12518452               -0.09043914               -0.11408799                0.35090173               -0.06156777               -0.06306690                0.22789272
               8.00000000                4.00000000               80.00000000                0.17396821               -0.08906503               -0.12187464                0.34562013               -0.06687480               -0.04985965                0.28379281
               9.00000000                4.00000000               80.00000000                0.23225728               -0.08570240               -0.12680569                0.34228177               -0.05374813               -0.02562773                0.32458003
              10.00000000                4.00000000               80.00000000                0.63633915               -0.08212152               -0.16396724                0.34172016               -0.04044231               -0.00928108                0.35190612
               0.00000000                5.00000000               80.00000000                0.58583857               -0.07862071               -0.07614415                0.26511033               -0.00124520               -0.00022891               -0.01014941
               1.00000000                5.00000000               80.00000000                0.09246186               -0.07975981               -0.08192053                0.25990166               -0.01510558               -0.00334469               -0.00761746
               2.00000000                5.00000000               80.00000000                0.01000001               -0.15170906               -0.08115373                0.25311615               -0.13267714                0.54338926               -0.01390675
               3.00000000                5.00000000               80.00000000                0.02092387               -0.17511248               -0.10900091                0.34781379               -0.19117617                0.66123901                0.14890955
               4.00000000                5.00000000               80.00000000                0.04981299               -0.11420573               -0.10299025                0.36300941               -0.07261870                0.13970224                0.02416662
               5.00000000                5.00000000               80.00000000                0.08461889               -0.10033988               -0.10033354                0.36249121               -0.04990152                0.00904150                0.00898064
               6.00000000                5.00000000               80.00000000                0.12604398               -0.10028705               -0.10114771                0.35953649               -0.04073177               -0.01721618                0.04366635
               7.00000000                5.00000000               80.00000000                0.17516015               -0.10101502               -0.10279256                0.35580796               -0.03565779               -0.02588646                0.07591260
               8.00000000                5.00000000               80.00000000                0.23330347               -0.10108493               -0.10565582                0.35240080               -0.03084715               -0.02365959                0.10259587
               9.00000000                5.00000000               80.00000000                0.30232432               -0.09718626               -0.11573145                0.35007117               -0.02019371               -0.01352003                0.12226130
              10.00000000                5.00000000               80.00000000                0.67472446               -0.09363265               -0.14762985                0.34939679               -0.01825271               -0.00569028                0.13445595
               0.00000000                6.00000000               80.00000000                0.63084341               -0.07884284               -0.07579021                0.26654935               -0.00123161               -0.00031190               -0.00919487
               1.00000000                6.00000000               80.00000000                0.15249916               -0.07841695               -0.08281533                0.25992150               -0.01208198               -0.00235705               -0.00716054
               2.00000000                6.00000000               80.00000000                0.02575202               -0.16054293               -0.08386700                0.25225775               -0.13393497                0.55076593               -0.00229309
               3.00000000                6.00000000               80.00000000                0.04948321               -0.17646728               -0.08114350                0.34344395               -0.15946994                0.65495391               -0.09933838
               4.00000000                6.00000000               80.00000000                0.08421803               -0.10541951               -0.09393419                0.35721235               -0.05892988                0.15165143               -0.05863303
               5.00000000                6.00000000               80.00000000                0.12604625               -0.10114501               -0.10027936                0.35950349               -0.04074742                0.04365354               -0.01722268
               6.00000000                6.00000000               80.00000000                0.17578362               -0.10210263               -0.10210537                0.35818103               -0.02784404                0.00620278                0.00617024
               7.00000000                6.00000000               80.00000000                0.23465055               -0.10349729               -0.10241528                0.35551554               -0.01904070               -0.00871632                0.02229520
               8.00000000                6.00000000               80.00000000                0.30428877               -0.10371452               -0.10418352                0.35273288               -0.01230562               -0.01196642                0.03403639
               9.00000000                6.00000000               80.00000000                0.38685107               -0.10125884               -0.11120357                0.35063482               -0.00640275               -0.00775667                0.04175303
              10.00000000                6.00000000               80.00000000                0.72119927               -0.09916871               -0.12788870                0.34972216               -0.00681684               -0.00352017                0.04528632
               0.00000000                7.00000000               80.00000000                0.68571385               -0.07909982               -0.07631250                0.26765962               -0.00106784               -0.00029775               -0.00735219
               1.00000000                7.00000000               80.00000000                0.22630238               -0.07870327               -0.08237105                0.25989212               -0.00902905                0.00198493               -0.00560948
               2.00000000                7.00000000               80.00000000                0.05831588               -0.15043777               -0.08271718                0.25206555               -0.12284562                0.48787116                0.00330354
               3.00000000                7.00000000               80.00000000                0.08396153               -0.17340746               -0.06445584                0.33025738               -0.13630997                0.64476415               -0.14624409
               4.00000000                7.00000000               80.00000000                0.12519277               -0.11406442               -0.09044760                0.35090371               -0.06156347                0.22781535               -0.06309059
               5.00000000                7.00000000               80.00000000                0.17516168               -0.10278943               -0.10101169                0.35579940               -0.03566113                0.07590624               -0.02588150
               6.00000000                7.00000000               80.00000000                0.23464134               -0.10241110               -0.10349375                0.35549402               -0.01904768                0.02230301               -0.00872742
               7.00000000                7.00000000               80.00000000                0.30512009               -0.10360685               -0.10360657                0.35328067               -0.00923234                0.00077913                0.00075539
               8.00000000                7.00000000               80.00000000                0.38857253               -0.10386140               -0.10443475                0.35066345               -0.00369357               -0.00619034                0.00637996
               9.00000000                7.00000000               80.00000000                0.48762137               -0.10262536               -0.10783463                0.34851038               -0.00107466               -0.00496287                0.00916443
              10.00000000                7.00000000               80.00000000                0.77670205               -0.10161556               -0.11498540                0.34735110               -0.00194977               -0.00226127                0.00924463
               0.00000000                8.00000000               80.00000000                0.75156404               -0.07940636               -0.07768702                0.26856705               -0.00068890                0.00000604               -0.00514306
               1.00000000                8.00000000               80.00000000                0.31583039               -0.07942566               -0.08088365                0.25994257               -0.00583572                0.00723648               -0.00315659
               2.00000000                8.00000000               80.00000000                0.09906610               -0.13935226               -0.07949459                0.25238493               -0.10556323                0.44453720                0.00621012
               3.00000000                8.00000000               80.00000000                0.12545833               -0.16781281               -0.05602467                0.32113265               -0.13135869                0.63665242               -0.09929853
               4.00000000                8.00000000               80.00000000                0.17397479               -0.12187067               -0.08907075                0.34563590               -0.06686125                0.28381778               -0.04987743
               5.00000000                8.00000000               80.00000000                0.23329894               -0.10565444               -0.10108535                0.35240524               -0.03083721                0.10259166               -0.02365338
               6.00000000                8.00000000               80.00000000                0.30429507               -0.10418195               -0.10371201                0.35272448               -0.01230774                0.03404183               -0.01195665
               7.00000000                8.00000000               80.00000000                0.38856222               -0.10443358               -0.10385867                0.35065568               -0.00369660                0.00639202               -0.00619629
               8.00000000                8.00000000               80.00000000                0.48857722               -0.10404339               -0.10404264                0.34799968               -0.00003874               -0.00334266               -0.00335433
               9.00000000                8.00000000               80.00000000                0.60770490               -0.10308396               -0.10521545                0.34571026                0.00075382               -0.00367965               -0.00244350
              10.00000000                8.00000000               80.00000000                0.84296484               -0.10251799               -0.10749669                0.34436137                0.00001826               -0.00152720               -0.00322684
               0.00000000                9.00000000               80.00000000                0.82991728               -0.07959669               -0.07952728                0.26941820               -0.00017476                0.00080289               -0.00290628
               1.00000000                9.00000000               80.00000000                0.42402263               -0.07985002               -0.07926645                0.26013431               -0.00316705                0.01198492               -0.00078119
               2.00000000                9.00000000               80.00000000                0.15012155               -0.12597574               -0.07741324                0.25309581               -0.08604531                0.42132285                0.00505769
               3.00000000                9.00000000               80.00000000                0.17574539               -0.15353450               -0.06182613                0.31622810               -0.09011622                0.63795687               -0.04457615
               4.00000000                9.00000000               80.00000000                0.23225562               -0.12680844               -0.08569447                0.34226856               -0.05373309                0.32456903               -0.02564540
               5.00000000                9.00000000               80.00000000                0.30234693               -0.11573227               -0.09718553                0.35007343               -0.02018328                0.12226695               -0.01349861
               6.00000000                9.00000000               80.00000000                0.38684178               -0.11120639               -0.10125688                0.35063087               -0.00640086                0.04174174               -0.00774777
               7.00000000                9.00000000               80.00000000                0.48762366               -0.10783495               -0.10262293                0.34850500               -0.00107563                0.00916406               -0.00495835
               8.00000000                9.00000000               80.00000000                0.60769540               -0.10521577               -0.10308268                0.34570926                0.00075315               -0.00243807               -0.00368176
               9.00000000                9.00000000               80.00000000                0.75152870               -0.10342275               -0.10342216                0.34325624                0.00083332               -0.00338988               -0.00339362
              10.00000000                9.00000000               80.00000000                0.92248060               -0.10273962               -0.10370517                0.34178094                0.00049424               -0.00118670               -0.00390693
               0.00000000               10.00000000               80.00000000                0.94280903               -0.07920345               -0.08047297                0.27001431                0.00155823                0.00019317               -0.00203642
               1.00000000               10.00000000               80.00000000                0.75024010               -0.07577941               -0.07859926                0.26053619               -0.00135454                0.01220286                0.00035814
               2.00000000               10.00000000               80.00000000                0.59296936               -0.07006126               -0.07715008                0.25409137               -0.07710950                0.42488410                0.00337687
               3.00000000               10.00000000               80.00000000                0.60553668               -0.11820860               -0.06943610                0.31586857               -0.04990586                0.66654924               -0.01194421
               4.00000000               10.00000000               80.00000000                0.63634083               -0.16397265               -0.08210741                0.34169765               -0.04042841                0.35187365               -0.00929398
               5.00000000               10.00000000               80.00000000                0.67472616               -0.14763479               -0.09363039                0.34940194               -0.01824998                0.13446027               -0.00567320
               6.00000000               10.00000000               80.00000000                0.72120915               -0.12789302               -0.09916592                0.34972005               -0.00681509                0.04526355               -0.00351538
               7.00000000               10.00000000               80.00000000                0.77672011               -0.11498649               -0.10161312                0.34734849               -0.00195072                0.00923776               -0.00226082
               8.00000000               10.00000000               80.00000000                0.84296117               -0.10749757               -0.10251687                0.34436208                0.00001708               -0.00322842               -0.00152854
               9.00000000               10.00000000               80.00000000                0.92247102               -0.10370611               -0.10273919                0.34178160                0.00049377               -0.00390786               -0.00119007
              10.00000000               10.00000000               80.00000000                0.98693943               -0.10257836               -0.10257786                0.34025318                0.00053797               -0.00117062               -0.00117096
               0.00000000                0.00000000               81.00000000                0.75719170               -0.07869893               -0.07869561                0.25840860               -0.00069326               -0.00032413               -0.00032549
               1.00000000                0.00000000               81.00000000                0.50550236               -0.08175672               -0.07633079                0.25841607               -0.00440404               -0.00186197               -0.00019039
               2.00000000                0.00000000               81.00000000                0.50331590               -0.08294682               -0.07840712                0.25993254               -0.00098948               -0.00433569               -0.00005465
               3.00000000                0.00000000               81.00000000                0.52267073               -0.07972671               -0.07825841                0.26205394               -0.00133176               -0.00597383               -0.00018592
               4.00000000                0.00000000               81.00000000                0.55013644               -0.07753544               -0.07849176                0.26436761               -0.00134725               -0.00709876               -0.00021150
               5.00000000                0.00000000               81.00000000                0.58600932               -0.07630969               -0.07868160                0.26640655               -0.00141639               -0.00763665               -0.00023735
               6.00000000                0.00000000               81.00000000                0.63061947               -0.07596356               -0.07890779                0.26801856               -0.00138782               -0.00729570               -0.00028485
               7.00000000                0.00000000               81.00000000                0.68502435               -0.07649575               -0.07918906                0.26924396               -0.00120416               -0.00597176               -0.00026475
               8.00000000                0.00000000               81.00000000                0.75027270               -0.07793917               -0.07953449                0.27022142               -0.00079210               -0.00411052                0.00003681
               9.00000000                0.00000000               81.00000000                0.82790723               -0.07992741               -0.07974936                0.27113450               -0.00021733               -0.00219643                0.00086191
              10.00000000                0.00000000               81.00000000                0.94158569               -0.08096365               -0.07930222                0.27177308                0.00199838               -0.00156147                0.00071689
               0.00000000                1.00000000               81.00000000                0.50554900               -0.07632609               -0.08174998                0.25839874               -0.00441165               -0.00018322               -0.00185899
               1.00000000                1.00000000               81.00000000                0.01000000               -0.07269999               -0.07269950                0.25820314               -0.01256180               -0.00154920               -0.00155255
               2.00000000                1.00000000               81.00000000                0.01000000               -0.07138323               -0.09327856                0.25865090               -0.03767515               -0.00408558                0.04096829
               3.00000000                1.00000000               81.00000000                0.01000000               -0.07601338               -0.10644156                0.25915275               -0.04459307               -0.00627049                0.08559448
               4.00000000                1.00000000               81.00000000                0.04475278               -0.07988937               -0.08408526                0.25941769               -0.02070544               -0.00780498                0.00308695
               5.00000000                1.00000000               81.00000000                0.09240686               -0.08224241               -0.07976569                0.25940489               -0.01669803               -0.00852924               -0.00409305
               6.00000000                1.00000000               81.00000000                0.15191188               -0.08310498               -0.07828833                0.25924052               -0.01343834               -0.00809989               -0.00281861
               7.00000000                1.00000000               81.00000000                0.22491295               -0.08257056               -0.07869670                0.25908028               -0.01021463               -0.00640733                0.00203509
               8.00000000                1.00000000               81.00000000                0.31350362               -0.08091052               -0.07958810                0.25904849               -0.00674228               -0.00377412                0.00784680
               9.00000000                1.00000000               81.00000000                0.42061268               -0.07909271               -0.08010402                0.25919009               -0.00370402               -0.00122157                0.01326235
              10.00000000                1.00000000               81.00000000                0.74823208               -0.07833581               -0.07544639                0.25960182               -0.00129537               -0.00001458                0.01436009
               0.00000000                2.00000000               81.00000000                0.50334857               -0.07839085               -0.08293888                0.25990381               -0.00099321               -0.00005344               -0.00433665
               1.00000000                2.00000000               81.00000000                0.01000000               -0.09328193               -0.07137664                0.25861987               -0.03767008                0.04096819               -0.00409166
               2.00000000                2.00000000               81.00000000                0.01000001               -0.09473663               -0.09471989                0.26469401               -0.10498640                0.07629160                0.07630413
               3.00000000                2.00000000               81.00000000                0.01000000               -0.05572477               -0.13034847                0.26953536               -0.09600806               -0.05338866                0.18995629
               4.00000000                2.00000000               81.00000000                0.01000000               -0.05409795               -0.14159543                0.25334320               -0.10813819               -0.10168733                0.39639900
               5.00000000                2.00000000               81.00000000                0.01000001               -0.08082533               -0.16681480                0.25074457               -0.15099551               -0.01763821                0.59664568
               6.00000000                2.00000000               81.00000000                0.02569973               -0.08386990               -0.17758989                0.24950291               -0.15405905               -0.00478418                0.60303373
               7.00000000                2.00000000               81.00000000                0.05813060               -0.08251862               -0.16611218                0.24918539               -0.14221057                0.00167348                0.53411027
               8.00000000                2.00000000               81.00000000                0.09871196               -0.07878758               -0.15347197                0.24951020               -0.12240688                0.00523351                0.48660058
               9.00000000                2.00000000               81.00000000                0.14964902               -0.07632887               -0.13806073                0.25026437               -0.09915198                0.00457967                0.46116511
              10.00000000                2.00000000               81.00000000                0.59267657               -0.07598410               -0.07455829                0.25139247               -0.08673365                0.00314255                0.46477306
               0.00000000                3.00000000               81.00000000                0.52269678               -0.07825352               -0.07972151                0.26204011               -0.00133006               -0.00018383               -0.00597611
               1.00000000                3.00000000               81.00000000                0.01000000               -0.10644051               -0.07600729                0.25914040               -0.04458429                0.08561721               -0.00627480
               2.00000000                3.00000000               81.00000000                0.01000000               -0.13038819               -0.05570058                0.26958129               -0.09595318                0.18994947               -0.05352472
               3.00000000                3.00000000               81.00000000                0.01000000               -0.13179864               -0.13178597                0.28600479               -0.14671978                0.28868595                0.28874238
               4.00000000                3.00000000               81.00000000                0.01256735               -0.13610369               -0.17974906                0.32963773               -0.20452204                0.35794302                0.64890053
               5.00000000                3.00000000               81.00000000                0.02106528               -0.11438128               -0.19462551                0.36169430               -0.21815715                0.15975590                0.72327164
               6.00000000                3.00000000               81.00000000                0.04967113               -0.08171843               -0.19689050                0.35559879               -0.18166467               -0.11060284                0.71512410
               7.00000000                3.00000000               81.00000000                0.08424832               -0.06118743               -0.19389363                0.33962156               -0.15537068               -0.16055903                0.70211762
               8.00000000                3.00000000               81.00000000                0.12598446               -0.05022294               -0.18788615                0.32830524               -0.14974237               -0.10921698                0.69118076
               9.00000000                3.00000000               81.00000000                0.17661968               -0.05526316               -0.17205041                0.32200542               -0.10258110               -0.04939408                0.69047573
              10.00000000                3.00000000               81.00000000                0.60610484               -0.06302201               -0.13233663                0.32094942               -0.05613918               -0.01310965                0.71764458
               0.00000000                4.00000000               81.00000000                0.55018425               -0.07847997               -0.07753214                0.26434283               -0.00134612               -0.00021470               -0.00709540
               1.00000000                4.00000000               81.00000000                0.04471067               -0.08407046               -0.07988563                0.25939479               -0.02067979                0.00295134               -0.00780439
               2.00000000                4.00000000               81.00000000                0.01000000               -0.14153611               -0.05409592                0.25326611               -0.10813308                0.39648194               -0.10173806
               3.00000000                4.00000000               81.00000000                0.01256895               -0.17976691               -0.13613682                0.32991322               -0.20460252                0.64893992                0.35780908
               4.00000000                4.00000000               81.00000000                0.02130625               -0.14087395               -0.14081193                0.37291781               -0.12539659                0.31318598                0.31326985
               5.00000000                4.00000000               81.00000000                0.05011615               -0.10691966               -0.12027037                0.37697940               -0.08054862                0.02336516                0.14928060
               6.00000000                4.00000000               81.00000000                0.08460274               -0.09558555               -0.11026952                0.36901675               -0.06444580               -0.06575570                0.16227166
               7.00000000                4.00000000               81.00000000                0.12571869               -0.09066407               -0.12068002                0.36035662               -0.06761627               -0.07026096                0.24358290
               8.00000000                4.00000000               81.00000000                0.17470813               -0.08815278               -0.13007825                0.35292202               -0.07426001               -0.05556185                0.30251130
               9.00000000                4.00000000               81.00000000                0.23323396               -0.08352747               -0.13636077                0.34783114               -0.06026216               -0.02856012                0.34434468
              10.00000000                4.00000000               81.00000000                0.63692230               -0.07912038               -0.17903307                0.34599971               -0.04634605               -0.01030003                0.37081908
               0.00000000                5.00000000               81.00000000                0.58597934               -0.07867954               -0.07631195                0.26641115               -0.00141230               -0.00024215               -0.00763639
               1.00000000                5.00000000               81.00000000                0.09237403               -0.07976767               -0.08224489                0.25941165               -0.01669385               -0.00413464               -0.00853016
               2.00000000                5.00000000               81.00000000                0.01000001               -0.16690848               -0.08086356                0.25088213               -0.15101858                0.59656158               -0.01750096
               3.00000000                5.00000000               81.00000000                0.02106275               -0.19463476               -0.11438254                0.36145945               -0.21832628                0.72330517                0.15978426
               4.00000000                5.00000000               81.00000000                0.05011275               -0.12018369               -0.10692278                0.37702611               -0.08055662                0.14936354                0.02337534
               5.00000000                5.00000000               81.00000000                0.08512593               -0.10321990               -0.10322201                0.37475126               -0.05504288                0.00790044                0.00788679
               6.00000000                5.00000000               81.00000000                0.12679968               -0.10233027               -0.10389198                0.36962804               -0.04485133               -0.02065685                0.04529914
               7.00000000                5.00000000               81.00000000                0.17616366               -0.10238203               -0.10563628                0.36374148               -0.03932807               -0.02986349                0.07958239
               8.00000000                5.00000000               81.00000000                0.23455084               -0.10178499               -0.10880445                0.35829090               -0.03423367               -0.02696430                0.10750768
               9.00000000                5.00000000               81.00000000                0.30379996               -0.09677720               -0.12012747                0.35418199               -0.02263706               -0.01527505                0.12756518
              10.00000000                5.00000000               81.00000000                0.67553285               -0.09246874               -0.15631729                0.35200344               -0.02073262               -0.00637163                0.13905298
               0.00000000                6.00000000               81.00000000                0.63062470               -0.07891015               -0.07596984                0.26803249               -0.00138716               -0.00028689               -0.00728992
               1.00000000                6.00000000               81.00000000                0.15190909               -0.07829795               -0.08311228                0.25925617               -0.01345017               -0.00279651               -0.00809748
               2.00000000                6.00000000               81.00000000                0.02567375               -0.17768031               -0.08389596                0.24957026               -0.15405257                0.60313485               -0.00477321
               3.00000000                6.00000000               81.00000000                0.04968856               -0.19689586               -0.08172527                0.35553732               -0.18162195                0.71505646               -0.11043911
               4.00000000                6.00000000               81.00000000                0.08461555               -0.11018760               -0.09557746                0.36893952               -0.06445609                0.16217236               -0.06574554
               5.00000000                6.00000000               81.00000000                0.12680283               -0.10388994               -0.10232434                0.36961806               -0.04484681                0.04528959               -0.02067325
               6.00000000                6.00000000               81.00000000                0.17692884               -0.10402170               -0.10401748                0.36621964               -0.03065189                0.00460727                0.00459225
               7.00000000                6.00000000               81.00000000                0.23618013               -0.10484307               -0.10402533                0.36145146               -0.02094456               -0.01131032                0.02168773
               8.00000000                6.00000000               81.00000000                0.30614653               -0.10447047               -0.10567720                0.35665526               -0.01353607               -0.01430579                0.03380704
               9.00000000                6.00000000               81.00000000                0.38894982               -0.10116438               -0.11326556                0.35272558               -0.00707470               -0.00902945                0.04143652
              10.00000000                6.00000000               81.00000000                0.72230240               -0.09855209               -0.13184866                0.35019269               -0.00753740               -0.00402591                0.04435601
               0.00000000                7.00000000               81.00000000                0.68500780               -0.07919279               -0.07650236                0.26925675               -0.00120394               -0.00026806               -0.00597345
               1.00000000                7.00000000               81.00000000                0.22489856               -0.07870151               -0.08257779                0.25909362               -0.01022753                0.00199903               -0.00641073
               2.00000000                7.00000000               81.00000000                0.05811205               -0.16617020               -0.08251661                0.24919200               -0.14220408                0.53419666                0.00165629
               3.00000000                7.00000000               81.00000000                0.08425082               -0.19390908               -0.06120831                0.33962442               -0.15525472                0.70220102               -0.16065573
               4.00000000                7.00000000               81.00000000                0.12573419               -0.12063248               -0.09066255                0.36031579               -0.06759768                0.24349254               -0.07026480
               5.00000000                7.00000000               81.00000000                0.17615000               -0.10563031               -0.10238092                0.36373353               -0.03932842                0.07958255               -0.02987813
               6.00000000                7.00000000               81.00000000                0.23617090               -0.10402891               -0.10484313                0.36145718               -0.02094538                0.02170963               -0.01132620
               7.00000000                7.00000000               81.00000000                0.30711949               -0.10456968               -0.10456729                0.35716239               -0.01005464               -0.00127325               -0.00128830
               8.00000000                7.00000000               81.00000000                0.39093941               -0.10423094               -0.10507461                0.35250950               -0.00392177               -0.00820249                0.00445471
               9.00000000                7.00000000               81.00000000                0.49015605               -0.10231808               -0.10847924                0.34849791               -0.00108411               -0.00606852                0.00706346
              10.00000000                7.00000000               81.00000000                0.77794809               -0.10093947               -0.11611923                0.34567244               -0.00194494               -0.00268068                0.00669289
               0.00000000                8.00000000               81.00000000                0.75022644               -0.07954190               -0.07794566                0.27024247               -0.00079255                0.00004129               -0.00411677
               1.00000000                8.00000000               81.00000000                0.31350183               -0.07959120               -0.08091694                0.25906591               -0.00674118                0.00784807               -0.00378285
               2.00000000                8.00000000               81.00000000                0.09871671               -0.15346390               -0.07877654                0.24947153               -0.12240773                0.48661057                0.00525009
               3.00000000                8.00000000               81.00000000                0.12597905               -0.18789427               -0.05022786                0.32832943               -0.14968188                0.69121997               -0.10928188
               4.00000000                8.00000000               81.00000000                0.17470457               -0.13009984               -0.08815585                0.35293522               -0.07423669                0.30250192               -0.05556437
               5.00000000                8.00000000               81.00000000                0.23453206               -0.10881131               -0.10179006                0.35830369               -0.03423473                0.10749094               -0.02695893
               6.00000000                8.00000000               81.00000000                0.30614469               -0.10567920               -0.10447308                0.35666416               -0.01353561                0.03382598               -0.01430363
               7.00000000                8.00000000               81.00000000                0.39094224               -0.10507689               -0.10423114                0.35251347               -0.00391933                0.00447062               -0.00820627
               8.00000000                8.00000000               81.00000000                0.49125748               -0.10399687               -0.10399622                0.34783228                0.00013059               -0.00531094               -0.00531507
               9.00000000                8.00000000               81.00000000                0.61024933               -0.10239952               -0.10486934                0.34369220                0.00094294               -0.00478412               -0.00456237
              10.00000000                8.00000000               81.00000000                0.84407875               -0.10152485               -0.10697120                0.34066498                0.00028173               -0.00192134               -0.00563049
               0.00000000                9.00000000               81.00000000                0.82792714               -0.07975048               -0.07992941                0.27113799               -0.00021825                0.00086188               -0.00219051
               1.00000000                9.00000000               81.00000000                0.42056353               -0.08010546               -0.07909491                0.25919461               -0.00369227                0.01325522               -0.00122177
               2.00000000                9.00000000               81.00000000                0.14964376               -0.13806916               -0.07632901                0.25027120               -0.09915074                0.46119184                0.00455445
               3.00000000                9.00000000               81.00000000                0.17662882               -0.17206675               -0.05525486                0.32199325               -0.10260050                0.69049785               -0.04937396
               4.00000000                9.00000000               81.00000000                0.23321625               -0.13637462               -0.08352834                0.34785596               -0.06025653                0.34433167               -0.02858540
               5.00000000                9.00000000               81.00000000                0.30379557               -0.12013007               -0.09678160                0.35418863               -0.02264182                0.12756945               -0.01526608
               6.00000000                9.00000000               81.00000000                0.38894418               -0.11326351               -0.10116654                0.35272984               -0.00707135                0.04144513               -0.00901889
               7.00000000                9.00000000               81.00000000                0.49015370               -0.10848138               -0.10232191                0.34850870               -0.00108088                0.00706833               -0.00606926
               8.00000000                9.00000000               81.00000000                0.61023575               -0.10487134               -0.10240236                0.34369975                0.00094380               -0.00456165               -0.00478695
               9.00000000                9.00000000               81.00000000                0.75328528               -0.10233845               -0.10233902                0.33940361                0.00098703               -0.00459086               -0.00459182
              10.00000000                9.00000000               81.00000000                0.92295225               -0.10133649               -0.10218384                0.33624706                0.00080519               -0.00160204               -0.00523302
               0.00000000               10.00000000               81.00000000                0.94159145               -0.07929791               -0.08096180                0.27175945                0.00199636                0.00070908               -0.00155024
               1.00000000               10.00000000               81.00000000                0.74819518               -0.07544845               -0.07833499                0.25959481               -0.00128945                0.01433968               -0.00001102
               2.00000000               10.00000000               81.00000000                0.59266887               -0.07458010               -0.07599289                0.25142477               -0.08672981                0.46481833                0.00311098
               3.00000000               10.00000000               81.00000000                0.60610206               -0.13235360               -0.06301124                0.32092147               -0.05615279                0.71766967               -0.01308264
               4.00000000               10.00000000               81.00000000                0.63692270               -0.17904177               -0.07912287                0.34602577               -0.04634158                0.37079258               -0.01032493
               5.00000000               10.00000000               81.00000000                0.67554192               -0.15632093               -0.09247072                0.35200580               -0.02073668                0.13906195               -0.00637061
               6.00000000               10.00000000               81.00000000                0.72228673               -0.13184363               -0.09855322                0.35019512               -0.00753603                0.04435523               -0.00402322
               7.00000000               10.00000000               81.00000000                0.77794277               -0.11612202               -0.10094526                0.34568648               -0.00194456                0.00668748               -0.00268207
               8.00000000               10.00000000               81.00000000                0.84408647               -0.10697405               -0.10152957                0.34067612                0.00028381               -0.00563435               -0.00192442
               9.00000000               10.00000000               81.00000000                0.92294716               -0.10218459               -0.10133815                0.33625138                0.00080702               -0.00523376               -0.00160330
              10.00000000               10.00000000               81.00000000                0.98687659               -0.10068216               -0.10068209                0.33304138                0.00109049               -0.00160833               -0.00160781
               0.00000000                0.00000000               82.00000000                0.75746026               -0.07870132               -0.07870482                0.25860131               -0.00076459               -0.00016673               -0.00017557
               1.00000000                0.00000000               82.00000000                0.50607129               -0.08162034               -0.07634287                0.25846605               -0.00440760               -0.00071118               -0.00025412
               2.00000000                0.00000000               82.00000000                0.50379648               -0.08272076               -0.07839723                0.26020367               -0.00110685               -0.00139763               -0.00043380
               3.00000000                0.00000000               82.00000000                0.52314379               -0.07968074               -0.07826666                0.26272588               -0.00146716               -0.00228793               -0.00039344
               4.00000000                0.00000000               82.00000000                0.55057111               -0.07774350               -0.07851570                0.26545869               -0.00147655               -0.00345784               -0.00029781
               5.00000000                0.00000000               82.00000000                0.58609553               -0.07670882               -0.07873814                0.26786056               -0.00152695               -0.00463018               -0.00022822
               6.00000000                0.00000000               82.00000000                0.63030989               -0.07643197               -0.07899915                0.26970770               -0.00148751               -0.00507913               -0.00022199
               7.00000000                0.00000000               82.00000000                0.68413526               -0.07693670               -0.07931546                0.27104218               -0.00129767               -0.00444112               -0.00019009
               8.00000000                0.00000000               82.00000000                0.74869011               -0.07836545               -0.07970717                0.27206275               -0.00086507               -0.00299805                0.00012937
               9.00000000                0.00000000               82.00000000                0.82552608               -0.08043976               -0.07997636                0.27306836               -0.00023934               -0.00139208                0.00097660
              10.00000000                0.00000000               82.00000000                0.94016950               -0.08154806               -0.07951710                0.27383259                0.00245566               -0.00097605                0.00137827
               0.00000000                1.00000000               82.00000000                0.50602040               -0.07634752               -0.08162479                0.25848312               -0.00439919               -0.00023909               -0.00072085
               1.00000000                1.00000000               82.00000000                0.01000000               -0.07283118               -0.07283181                0.25808877               -0.01245787               -0.00128591               -0.00130650
               2.00000000                1.00000000               82.00000000                0.01000001               -0.07170424               -0.09697256                0.25842716               -0.04100411               -0.00409024                0.04506201
               3.00000000                1.00000000               82.00000000                0.01000000               -0.07641727               -0.11338029                0.25888645               -0.04917125               -0.00681021                0.09226188
               4.00000000                1.00000000               82.00000000                0.04503701               -0.08025651               -0.08456133                0.25905058               -0.02243108               -0.00880279                0.00223526
               5.00000000                1.00000000               82.00000000                0.09227789               -0.08252966               -0.07969486                0.25893504               -0.01783633               -0.00976544               -0.00496570
               6.00000000                1.00000000               82.00000000                0.15118067               -0.08331494               -0.07818348                0.25866080               -0.01446176               -0.00930501               -0.00321131
               7.00000000                1.00000000               82.00000000                0.22328566               -0.08269309               -0.07878160                0.25840181               -0.01122294               -0.00741028                0.00230380
               8.00000000                1.00000000               82.00000000                0.31078256               -0.08090346               -0.07989187                0.25831273               -0.00760331               -0.00453665                0.00886937
               9.00000000                1.00000000               82.00000000                0.41659128               -0.07894967               -0.08055804                0.25848535               -0.00425352               -0.00174407                0.01502503
              10.00000000                1.00000000               82.00000000                0.74580598               -0.07813596               -0.07536633                0.25900589               -0.00120692               -0.00046734                0.01714090
               0.00000000                2.00000000               82.00000000                0.50381026               -0.07840875               -0.08272422                0.26022172               -0.00110341               -0.00043119               -0.00139991
               1.00000000                2.00000000               82.00000000                0.01000001               -0.09698082               -0.07170917                0.25844764               -0.04099479                0.04507155               -0.00410024
               2.00000000                2.00000000               82.00000000                0.01000001               -0.10012850               -0.10010458                0.27059443               -0.11771848                0.08284665                0.08282436
               3.00000000                2.00000000               82.00000000                0.01000000               -0.05493723               -0.14068592                0.27022200               -0.10131139               -0.06053634                0.20522893
               4.00000000                2.00000000               82.00000000                0.01000000               -0.05119233               -0.15331591                0.25118266               -0.11349261               -0.11394336                0.43903220
               5.00000000                2.00000000               82.00000000                0.01000001               -0.08031730               -0.18339225                0.24847576               -0.16691529               -0.02170308                0.65968866
               6.00000000                2.00000000               82.00000000                0.02565317               -0.08370150               -0.19647432                0.24691832               -0.17284323               -0.00753738                0.66459861
               7.00000000                2.00000000               82.00000000                0.05798333               -0.08217168               -0.18390798                0.24657595               -0.16099328               -0.00006143                0.58841372
               8.00000000                2.00000000               82.00000000                0.09844092               -0.07797942               -0.16992377                0.24702374               -0.13903563                0.00419314                0.53566654
               9.00000000                2.00000000               82.00000000                0.14927138               -0.07517363               -0.15269135                0.24797917               -0.11197027                0.00398970                0.50735310
              10.00000000                2.00000000               82.00000000                0.59244046               -0.07474910               -0.08223235                0.24933850               -0.09543054                0.00277257                0.51070843
               0.00000000                3.00000000               82.00000000                0.52313014               -0.07826916               -0.07967877                0.26272744               -0.00147047               -0.00039003               -0.00229628
               1.00000000                3.00000000               82.00000000                0.01000000               -0.11339120               -0.07641609                0.25888843               -0.04913774                0.09227829               -0.00681770
               2.00000000                3.00000000               82.00000000                0.01000000               -0.14068724               -0.05493349                0.27020395               -0.10131186                0.20525870               -0.06054520
               3.00000000                3.00000000               82.00000000                0.01000000               -0.13952867               -0.13953443                0.27992806               -0.15750734                0.31703251                0.31706721
               4.00000000                3.00000000               82.00000000                0.01279258               -0.14479325               -0.19780249                0.32654807               -0.22408204                0.39966106                0.71657237
               5.00000000                3.00000000               82.00000000                0.02130988               -0.12073882               -0.21611242                0.37677945               -0.24220371                0.17711822                0.79575278
               6.00000000                3.00000000               82.00000000                0.04999915               -0.08330191               -0.21983613                0.37042009               -0.20172933               -0.12343380                0.78494687
               7.00000000                3.00000000               82.00000000                0.08473339               -0.05833100               -0.21738166                0.35111722               -0.17283507               -0.17694305                0.76796836
               8.00000000                3.00000000               82.00000000                0.12675291               -0.04424871               -0.21139058                0.33742367               -0.16686373               -0.12057543                0.75306271
               9.00000000                3.00000000               82.00000000                0.17788969               -0.04784502               -0.19442001                0.32951668               -0.11426394               -0.05488060                0.74935747
              10.00000000                3.00000000               82.00000000                0.60690462               -0.05533806               -0.15094955                0.32761254               -0.06187038               -0.01449967                0.77385676
               0.00000000                4.00000000               82.00000000                0.55054512               -0.07851243               -0.07773940                0.26544735               -0.00147719               -0.00029146               -0.00345957
               1.00000000                4.00000000               82.00000000                0.04499937               -0.08457092               -0.08025164                0.25904161               -0.02242145                0.00226683               -0.00880516
               2.00000000                4.00000000               82.00000000                0.01000000               -0.15336150               -0.05123900                0.25150102               -0.11349110                0.43911868               -0.11391536
               3.00000000                4.00000000               82.00000000                0.01279753               -0.19780734               -0.14480957                0.32647778               -0.22403485                0.71645201                0.39969144
               4.00000000                4.00000000               82.00000000                0.02163293               -0.15072537               -0.15075500                0.38718231               -0.13619135                0.34414445                0.34423829
               5.00000000                4.00000000               82.00000000                0.05055992               -0.11173299               -0.12725080                0.39349702               -0.08677907                0.02306925                0.15949380
               6.00000000                4.00000000               82.00000000                0.08520275               -0.09792473               -0.11631562                0.38269634               -0.06822818               -0.07420351                0.17325247
               7.00000000                4.00000000               82.00000000                0.12649133               -0.09113188               -0.12880182                0.37126155               -0.07197537               -0.07889482                0.26010540
               8.00000000                4.00000000               82.00000000                0.17570166               -0.08713255               -0.14010219                0.36128505               -0.08018733               -0.06225177                0.32211044
               9.00000000                4.00000000               82.00000000                0.23456537               -0.08101191               -0.14802112                0.35418370               -0.06583356               -0.03188821                0.36477377
              10.00000000                4.00000000               82.00000000                0.63772487               -0.07570937               -0.19618043                0.35086874               -0.05206874               -0.01142985                0.38968589
               0.00000000                5.00000000               82.00000000                0.58605990               -0.07873639               -0.07670811                0.26786015               -0.00152525               -0.00022477               -0.00460910
               1.00000000                5.00000000               82.00000000                0.09230308               -0.07970636               -0.08252969                0.25893692               -0.01785959               -0.00484999               -0.00974765
               2.00000000                5.00000000               82.00000000                0.01000001               -0.18335278               -0.08032929                0.24854144               -0.16692130                0.65975259               -0.02170845
               3.00000000                5.00000000               82.00000000                0.02131342               -0.21610656               -0.12075146                0.37685943               -0.24215028                0.79568251                0.17708563
               4.00000000                5.00000000               82.00000000                0.05055324               -0.12730566               -0.11173322                0.39356349               -0.08675496                0.15943711                0.02302568
               5.00000000                5.00000000               82.00000000                0.08585021               -0.10694294               -0.10693489                0.38890677               -0.05893916                0.00603146                0.00601289
               6.00000000                5.00000000               82.00000000                0.12782009               -0.10488637               -0.10745827                0.38117787               -0.04781785               -0.02512727                0.04631467
               7.00000000                5.00000000               82.00000000                0.17749548               -0.10396657               -0.10933755                0.37269321               -0.04205224               -0.03479125                0.08292888
               8.00000000                5.00000000               82.00000000                0.23616369               -0.10247066               -0.11282837                0.36479450               -0.03689786               -0.03093314                0.11224397
               9.00000000                5.00000000               82.00000000                0.30570424               -0.09620611               -0.12539979                0.35858461               -0.02470687               -0.01729684                0.13260125
              10.00000000                5.00000000               82.00000000                0.67656977               -0.09108973               -0.16574586                0.35464697               -0.02311525               -0.00711269                0.14306019
               0.00000000                6.00000000               82.00000000                0.63031723               -0.07899999               -0.07643328                0.26971291               -0.00148789               -0.00022123               -0.00506652
               1.00000000                6.00000000               82.00000000                0.15118591               -0.07818221               -0.08331707                0.25866781               -0.01446621               -0.00319650               -0.00929592
               2.00000000                6.00000000               82.00000000                0.02564970               -0.19649918               -0.08367840                0.24688076               -0.17283868                0.66466791               -0.00762686
               3.00000000                6.00000000               82.00000000                0.05000369               -0.21985764               -0.08329725                0.37029710               -0.20174566                0.78500954               -0.12342601
               4.00000000                6.00000000               82.00000000                0.08519684               -0.11630630               -0.09792941                0.38268694               -0.06821533                0.17318404               -0.07423424
               5.00000000                6.00000000               82.00000000                0.12781325               -0.10745449               -0.10488985                0.38119132               -0.04781528                0.04637603               -0.02514181
               6.00000000                6.00000000               82.00000000                0.17843000               -0.10640373               -0.10640675                0.37530943               -0.03266184                0.00227297                0.00223136
               7.00000000                6.00000000               82.00000000                0.23815321               -0.10636940               -0.10606568                0.36796859               -0.02225275               -0.01462206                0.02045371
               8.00000000                6.00000000               82.00000000                0.30847504               -0.10521977               -0.10754369                0.36080115               -0.01434271               -0.01715453                0.03305469
               9.00000000                6.00000000               82.00000000                0.39153858               -0.10096164               -0.11561615                0.35475497               -0.00752878               -0.01052275                0.04055104
              10.00000000                6.00000000               82.00000000                0.72361841               -0.09779279               -0.13594919                0.35035942               -0.00817117               -0.00460079                0.04271687
               0.00000000                7.00000000               82.00000000                0.68411996               -0.07931570               -0.07694164                0.27104569               -0.00129515               -0.00019031               -0.00443704
               1.00000000                7.00000000               82.00000000                0.22328164               -0.07877977               -0.08269810                0.25840763               -0.01122158                0.00229998               -0.00741037
               2.00000000                7.00000000               82.00000000                0.05798701               -0.18390161               -0.08217506                0.24659463               -0.16101157                0.58848658               -0.00008726
               3.00000000                7.00000000               82.00000000                0.08473219               -0.21739920               -0.05832841                0.35107463               -0.17280736                0.76799736               -0.17698995
               4.00000000                7.00000000               82.00000000                0.12648923               -0.12882236               -0.09114236                0.37127438               -0.07194512                0.26003545               -0.07882910
               5.00000000                7.00000000               82.00000000                0.17749450               -0.10933748               -0.10397157                0.37269889               -0.04204896                0.08296263               -0.03477111
               6.00000000                7.00000000               82.00000000                0.23813034               -0.10606696               -0.10637465                0.36799518               -0.02225207                0.02047130               -0.01463286
               7.00000000                7.00000000               82.00000000                0.30965616               -0.10566428               -0.10566582                0.36120525               -0.01048646               -0.00391898               -0.00393953
               8.00000000                7.00000000               82.00000000                0.39384465               -0.10456305               -0.10580101                0.35423328               -0.00389879               -0.01065109                0.00197719
               9.00000000                7.00000000               82.00000000                0.49316526               -0.10188437               -0.10912725                0.34813110               -0.00096668               -0.00739182                0.00441813
              10.00000000                7.00000000               82.00000000                0.77940882               -0.10010654               -0.11713152                0.34342440               -0.00185681               -0.00317622                0.00356152
               0.00000000                8.00000000               82.00000000                0.74865440               -0.07971665               -0.07837569                0.27209190               -0.00086387                0.00012529               -0.00299738
               1.00000000                8.00000000               82.00000000                0.31074396               -0.07990125               -0.08091426                0.25834291               -0.00760503                0.00885006               -0.00453728
               2.00000000                8.00000000               82.00000000                0.09844660               -0.16992606               -0.07799405                0.24705042               -0.13904051                0.53566278                0.00419841
               3.00000000                8.00000000               82.00000000                0.12674277               -0.21139542               -0.04424847                0.33744775               -0.16686505                0.75310217               -0.12064396
               4.00000000                8.00000000               82.00000000                0.17570379               -0.14011361               -0.08714291                0.36130995               -0.08016829                0.32211604               -0.06220965
               5.00000000                8.00000000               82.00000000                0.23615322               -0.11283682               -0.10247711                0.36481339               -0.03689552                0.11223404               -0.03091802
               6.00000000                8.00000000               82.00000000                0.30847443               -0.10754756               -0.10522203                0.36081077               -0.01434693                0.03305321               -0.01715142
               7.00000000                8.00000000               82.00000000                0.39384283               -0.10579898               -0.10456442                0.35423064               -0.00390177                0.00198529               -0.01065514
               8.00000000                8.00000000               82.00000000                0.49437559               -0.10386403               -0.10386549                0.34726839                0.00044133               -0.00768414               -0.00769286
               9.00000000                8.00000000               82.00000000                0.61312818               -0.10153637               -0.10437215                0.34105807                0.00120357               -0.00606947               -0.00705332
              10.00000000                8.00000000               82.00000000                0.84529532               -0.10031854               -0.10619689                0.33615354                0.00061283               -0.00237391               -0.00838899
               0.00000000                9.00000000               82.00000000                0.82553558               -0.07997967               -0.08044639                0.27308230               -0.00024225                0.00097917               -0.00139644
               1.00000000                9.00000000               82.00000000                0.41661023               -0.08056161               -0.07895698                0.25850174               -0.00424935                0.01503268               -0.00174597
               2.00000000                9.00000000               82.00000000                0.14927668               -0.15269712               -0.07518194                0.24799959               -0.11195845                0.50735366                0.00401878
               3.00000000                9.00000000               82.00000000                0.17788781               -0.19443013               -0.04784501                0.32951033               -0.11425407                0.74937107               -0.05487332
               4.00000000                9.00000000               82.00000000                0.23456202               -0.14803491               -0.08102264                0.35422904               -0.06581980                0.36479115               -0.03190176
               5.00000000                9.00000000               82.00000000                0.30570602               -0.12541307               -0.09621674                0.35861496               -0.02470509                0.13259702               -0.01728679
               6.00000000                9.00000000               82.00000000                0.39152479               -0.11562225               -0.10096673                0.35477460               -0.00752968                0.04054388               -0.01052148
               7.00000000                9.00000000               82.00000000                0.49318997               -0.10912569               -0.10188458                0.34812852               -0.00097051                0.00442104               -0.00738398
               8.00000000                9.00000000               82.00000000                0.61312762               -0.10436993               -0.10153574                0.34105430                0.00120210               -0.00705331               -0.00606838
               9.00000000                9.00000000               82.00000000                0.75513826               -0.10101555               -0.10101585                0.33472940                0.00117588               -0.00593991               -0.00593848
              10.00000000                9.00000000               82.00000000                0.92338190               -0.09966399               -0.10035096                0.32971701                0.00116288               -0.00206080               -0.00669397
               0.00000000               10.00000000               82.00000000                0.94014733               -0.07951220               -0.08154938                0.27382292                0.00245137                0.00138858               -0.00098450
               1.00000000               10.00000000               82.00000000                0.74580032               -0.07536301               -0.07813817                0.25900122               -0.00120470                0.01716721               -0.00047173
               2.00000000               10.00000000               82.00000000                0.59244017               -0.08224139               -0.07475538                0.24935354               -0.09541304                0.51072911                0.00279897
               3.00000000               10.00000000               82.00000000                0.60690056               -0.15096657               -0.05533009                0.32759104               -0.06186289                0.77386109               -0.01448908
               4.00000000               10.00000000               82.00000000                0.63770910               -0.19620008               -0.07572190                0.35091963               -0.05206651                0.38969010               -0.01144807
               5.00000000               10.00000000               82.00000000                0.67655977               -0.16576340               -0.09110277                0.35467707               -0.02311453                0.14305738               -0.00710577
               6.00000000               10.00000000               82.00000000                0.72361579               -0.13595496               -0.09780194                0.35038846               -0.00816633                0.04270384               -0.00460252
               7.00000000               10.00000000               82.00000000                0.77942005               -0.11712967               -0.10010715                0.34342656               -0.00185582                0.00356104               -0.00316822
               8.00000000               10.00000000               82.00000000                0.84530988               -0.10619374               -0.10031767                0.33615045                0.00061196               -0.00839577               -0.00236737
               9.00000000               10.00000000               82.00000000                0.92337761               -0.10035054               -0.09966396                0.32971734                0.00116256               -0.00669908               -0.00205898
              10.00000000               10.00000000               82.00000000                0.98673905               -0.09845384               -0.09845362                0.32466275                0.00170568               -0.00208952               -0.00208805
               0.00000000                0.00000000               83.00000000                0.75768475               -0.07853913               -0.07853944                0.25855862               -0.00079674                0.00000009                0.00001293
               1.00000000                0.00000000               83.00000000                0.50649959               -0.08105780               -0.07639068                0.25831056               -0.00405660                0.00067725               -0.00032138
               2.00000000                0.00000000               83.00000000                0.50431933               -0.08199347               -0.07828487                0.26035958               -0.00117443                0.00225243               -0.00090115
               3.00000000                0.00000000               83.00000000                0.52368318               -0.07949343               -0.07820932                0.26339337               -0.00153992                0.00223255               -0.00063698
               4.00000000                0.00000000               83.00000000                0.55101579               -0.07810657               -0.07849447                0.26663256               -0.00153604                0.00090467               -0.00036872
               5.00000000                0.00000000               83.00000000                0.58625835               -0.07744066               -0.07877327                0.26945329               -0.00155597               -0.00109241               -0.00017887
               6.00000000                0.00000000               83.00000000                0.63001233               -0.07728225               -0.07909092                0.27155390               -0.00150443               -0.00261709               -0.00011129
               7.00000000                0.00000000               83.00000000                0.68308987               -0.07771089               -0.07946773                0.27299470               -0.00131479               -0.00289101               -0.00005645
               8.00000000                0.00000000               83.00000000                0.74674509               -0.07901981               -0.07994178                0.27407162               -0.00088687               -0.00193443                0.00028896
               9.00000000                0.00000000               83.00000000                0.82269923               -0.08107054               -0.08028474                0.27514647               -0.00023792               -0.00059523                0.00117104
              10.00000000                0.00000000               83.00000000                0.93845471               -0.08220328               -0.07984421                0.27607512                0.00288725               -0.00034014                0.00219675
               0.00000000                1.00000000               83.00000000                0.50658895               -0.07639266               -0.08105744                0.25831658               -0.00405281               -0.00034293                0.00068403
               1.00000000                1.00000000               83.00000000                0.01000000               -0.07333602               -0.07333519                0.25774703               -0.01135717               -0.00103418               -0.00101182
               2.00000000                1.00000000               83.00000000                0.01050711               -0.07264110               -0.09995757                0.25805535               -0.04182930               -0.00416588                0.05428433
               3.00000000                1.00000000               83.00000000                0.01000000               -0.07718336               -0.11898164                0.25853932               -0.05116729               -0.00753988                0.10044520
               4.00000000                1.00000000               83.00000000                0.04536375               -0.08073481               -0.08508537                0.25867115               -0.02343780               -0.01008650                0.00156035
               5.00000000                1.00000000               83.00000000                0.09218296               -0.08276402               -0.07954336                0.25852554               -0.01829802               -0.01126009               -0.00552816
               6.00000000                1.00000000               83.00000000                0.15032693               -0.08340228               -0.07809858                0.25821506               -0.01497982               -0.01075536               -0.00335046
               7.00000000                1.00000000               83.00000000                0.22139581               -0.08271874               -0.07899828                0.25793761               -0.01196071               -0.00862209                0.00300285
               8.00000000                1.00000000               83.00000000                0.30756618               -0.08088445               -0.08042151                0.25789697               -0.00837991               -0.00543135                0.01044549
               9.00000000                1.00000000               83.00000000                0.41189284               -0.07887543               -0.08129249                0.25817284               -0.00479620               -0.00233608                0.01748373
              10.00000000                1.00000000               83.00000000                0.74298964               -0.07803723               -0.07561359                0.25887673               -0.00111693               -0.00099229                0.02076440
               0.00000000                2.00000000               83.00000000                0.50433781               -0.07829222               -0.08199196                0.26037014               -0.00117230               -0.00090238                0.00223396
               1.00000000                2.00000000               83.00000000                0.01051144               -0.09995497               -0.07264050                0.25806692               -0.04183458                0.05427608               -0.00417208
               2.00000000                2.00000000               83.00000000                0.01000001               -0.10538347               -0.10539500                0.27296169               -0.12371445                0.09499183                0.09500573
               3.00000000                2.00000000               83.00000000                0.01000000               -0.05674752               -0.15645815                0.26831927               -0.10804299               -0.06835675                0.22315354
               4.00000000                2.00000000               83.00000000                0.01000000               -0.05028429               -0.16586342                0.25047944               -0.11794290               -0.12802234                0.47711121
               5.00000000                2.00000000               83.00000000                0.01000001               -0.07959576               -0.20148813                0.24665664               -0.17709178               -0.02628694                0.73277468
               6.00000000                2.00000000               83.00000000                0.02567363               -0.08329897               -0.21727531                0.24482191               -0.18958744               -0.01058069                0.73694863
               7.00000000                2.00000000               83.00000000                0.05792248               -0.08168298               -0.20407476                0.24465527               -0.17867852               -0.00177892                0.65176106
               8.00000000                2.00000000               83.00000000                0.09829778               -0.07713565               -0.18903920                0.24542568               -0.15500968                0.00324215                0.59256635
               9.00000000                2.00000000               83.00000000                0.14911313               -0.07404050               -0.17017932                0.24677972               -0.12406570                0.00347595                0.56052114
              10.00000000                2.00000000               83.00000000                0.59231640               -0.07354648               -0.09369709                0.24845686               -0.10271678                0.00237313                0.56315329
               0.00000000                3.00000000               83.00000000                0.52370266               -0.07821529               -0.07949310                0.26339873               -0.00153859               -0.00064051                0.00220876
               1.00000000                3.00000000               83.00000000                0.01000000               -0.11896598               -0.07718310                0.25854608               -0.05117941                0.10045046               -0.00756338
               2.00000000                3.00000000               83.00000000                0.01000000               -0.15643380               -0.05678360                0.26832960               -0.10808776                0.22319265               -0.06822287
               3.00000000                3.00000000               83.00000000                0.01000000               -0.15151478               -0.15150479                0.29569049               -0.16518732                0.34880385                0.34880847
               4.00000000                3.00000000               83.00000000                0.01312133               -0.14713861               -0.21482651                0.27570184               -0.23172152                0.45119495                0.78333268
               5.00000000                3.00000000               83.00000000                0.02170748               -0.12619372               -0.23969825                0.39164662               -0.26256784                0.20262159                0.87577061
               6.00000000                3.00000000               83.00000000                0.05051703               -0.08816053               -0.24562851                0.38805805               -0.21893861               -0.13742194                0.86576666
               7.00000000                3.00000000               83.00000000                0.08547804               -0.05593497               -0.24419792                0.36509367               -0.18812861               -0.19564620                0.84295969
               8.00000000                3.00000000               83.00000000                0.12791550               -0.03820861               -0.23858583                0.34871330               -0.18199601               -0.13325464                0.82260005
               9.00000000                3.00000000               83.00000000                0.17973039               -0.03961845               -0.22096448                0.33900656               -0.12459864               -0.06100973                0.81458049
              10.00000000                3.00000000               83.00000000                0.60801452               -0.04635741               -0.17458854                0.33608552               -0.06675942               -0.01618797                0.83485766
               0.00000000                4.00000000               83.00000000                0.55096425               -0.07850631               -0.07810927                0.26665283               -0.00153535               -0.00036821                0.00091055
               1.00000000                4.00000000               83.00000000                0.04536588               -0.08510425               -0.08073832                0.25869311               -0.02347957                0.00174754               -0.01008027
               2.00000000                4.00000000               83.00000000                0.01000000               -0.16590587               -0.05026801                0.25042435               -0.11796964                0.47714548               -0.12800273
               3.00000000                4.00000000               83.00000000                0.01311971               -0.21481454               -0.14711050                0.27559759               -0.23176483                0.78323125                0.45118415
               4.00000000                4.00000000               83.00000000                0.02209268               -0.16176835               -0.16179556                0.40491093               -0.13993958                0.38074999                0.38082103
               5.00000000                4.00000000               83.00000000                0.05121468               -0.11986929               -0.13540684                0.41269415               -0.09538421                0.02291691                0.17022275
               6.00000000                4.00000000               83.00000000                0.08605700               -0.10086176               -0.12386363                0.39815787               -0.06988849               -0.08469989                0.18392555
               7.00000000                4.00000000               83.00000000                0.12759501               -0.09179443               -0.13858928                0.38351123               -0.07411303               -0.08896572                0.27691914
               8.00000000                4.00000000               83.00000000                0.17705084               -0.08599202               -0.15203830                0.37076213               -0.08413029               -0.06998634                0.34205502
               9.00000000                4.00000000               83.00000000                0.23636689               -0.07810589               -0.16195767                0.36126670               -0.07009358               -0.03568003                0.38519652
              10.00000000                4.00000000               83.00000000                0.63878261               -0.07181450               -0.21539520                0.35614636               -0.05737480               -0.01269733                0.40773382
               0.00000000                5.00000000               83.00000000                0.58627240               -0.07878079               -0.07744384                0.26946779               -0.00155828               -0.00017907               -0.00107885
               1.00000000                5.00000000               83.00000000                0.09219186               -0.07954639               -0.08276813                0.25854134               -0.01828705               -0.00551305               -0.01124944
               2.00000000                5.00000000               83.00000000                0.01000001               -0.20155093               -0.07954185                0.24653292               -0.17706632                0.73277660               -0.02647086
               3.00000000                5.00000000               83.00000000                0.02170505               -0.23971591               -0.12618902                0.39194086               -0.26246429                0.87585950                0.20253890
               4.00000000                5.00000000               83.00000000                0.05122429               -0.13535390               -0.11985176                0.41255198               -0.09537159                0.17023100                0.02292822
               5.00000000                5.00000000               83.00000000                0.08687276               -0.11162157               -0.11162987                0.40483861               -0.06105458                0.00264331                0.00269800
               6.00000000                5.00000000               83.00000000                0.12925077               -0.10790557               -0.11188275                0.39401257               -0.04922862               -0.03093644                0.04654786
               7.00000000                5.00000000               83.00000000                0.17928181               -0.10570387               -0.11394530                0.38248240               -0.04352519               -0.04087069                0.08563100
               8.00000000                5.00000000               83.00000000                0.23826555               -0.10308075               -0.11785231                0.37182708               -0.03860370               -0.03570784                0.11646944
               9.00000000                5.00000000               83.00000000                0.30812298               -0.09541733               -0.13165095                0.36319193               -0.02623756               -0.01967969                0.13709281
              10.00000000                5.00000000               83.00000000                0.67786883               -0.08944705               -0.17587737                0.35720820               -0.02530162               -0.00796347                0.14623315
               0.00000000                6.00000000               83.00000000                0.62997496               -0.07909503               -0.07728337                0.27156319               -0.00150497               -0.00011045               -0.00261617
               1.00000000                6.00000000               83.00000000                0.15028305               -0.07809832               -0.08340358                0.25822735               -0.01495997               -0.00337842               -0.01075680
               2.00000000                6.00000000               83.00000000                0.02568929               -0.21722877               -0.08330875                0.24486900               -0.18958881                0.73690325               -0.01062627
               3.00000000                6.00000000               83.00000000                0.05051193               -0.24562891               -0.08815260                0.38795363               -0.21885976                0.86582935               -0.13738137
               4.00000000                6.00000000               83.00000000                0.08605267               -0.12392166               -0.10087787                0.39826882               -0.06986141                0.18399624               -0.08477213
               5.00000000                6.00000000               83.00000000                0.12924689               -0.11189665               -0.10791323                0.39405094               -0.04923948                0.04656047               -0.03096012
               6.00000000                6.00000000               83.00000000                0.18044068               -0.10922780               -0.10923073                0.38518573               -0.03358878               -0.00120529               -0.00119847
               7.00000000                6.00000000               83.00000000                0.24064226               -0.10803762               -0.10854354                0.37493430               -0.02280037               -0.01893063                0.01828630
               8.00000000                6.00000000               83.00000000                0.31138765               -0.10590850               -0.10980903                0.36502539               -0.01462448               -0.02063870                0.03147620
               9.00000000                6.00000000               83.00000000                0.39470590               -0.10059913               -0.11826326                0.35658775               -0.00769606               -0.01230005                0.03891652
              10.00000000                6.00000000               83.00000000                0.72524832               -0.09685276               -0.14014068                0.35011722               -0.00867051               -0.00527072                0.04028286
               0.00000000                7.00000000               83.00000000                0.68310874               -0.07946900               -0.07770972                0.27299609               -0.00131519               -0.00005680               -0.00288119
               1.00000000                7.00000000               83.00000000                0.22135334               -0.07900405               -0.08271805                0.25794392               -0.01195849                0.00297524               -0.00861520
               2.00000000                7.00000000               83.00000000                0.05792419               -0.20407069               -0.08170592                0.24471298               -0.17866540                0.65178671               -0.00174882
               3.00000000                7.00000000               83.00000000                0.08547466               -0.24419974               -0.05593700                0.36509446               -0.18815689                0.84299734               -0.19558315
               4.00000000                7.00000000               83.00000000                0.12758627               -0.13860846               -0.09182527                0.38362118               -0.07413492                0.27690658               -0.08896637
               5.00000000                7.00000000               83.00000000                0.17926603               -0.11395330               -0.10571545                0.38251744               -0.04352181                0.08565263               -0.04089422
               6.00000000                7.00000000               83.00000000                0.24064492               -0.10854410               -0.10804378                0.37495079               -0.02279314                0.01830855               -0.01894685
               7.00000000                7.00000000               83.00000000                0.31275900               -0.10687645               -0.10687824                0.36529360               -0.01043510               -0.00741121               -0.00741002
               8.00000000                7.00000000               83.00000000                0.39732167               -0.10481253               -0.10658448                0.35566687               -0.00356294               -0.01362115               -0.00120893
               9.00000000                7.00000000               83.00000000                0.49673438               -0.10127052               -0.10974513                0.34723996               -0.00068528               -0.00891552                0.00114524
              10.00000000                7.00000000               83.00000000                0.78112701               -0.09906756               -0.11796475                0.34047621               -0.00166231               -0.00372384               -0.00017312
               0.00000000                8.00000000               83.00000000                0.74675071               -0.07994289               -0.07901935                0.27407208               -0.00088592                0.00028426               -0.00192989
               1.00000000                8.00000000               83.00000000                0.30756449               -0.08042597               -0.08088498                0.25790348               -0.00838827                0.01044788               -0.00542898
               2.00000000                8.00000000               83.00000000                0.09830231               -0.18902912               -0.07714431                0.24545967               -0.15501116                0.59258211                0.00326852
               3.00000000                8.00000000               83.00000000                0.12791275               -0.23859593               -0.03823888                0.34881760               -0.18200698                0.82259293               -0.13329513
               4.00000000                8.00000000               83.00000000                0.17705190               -0.15206585               -0.08600818                0.37080844               -0.08413808                0.34204447               -0.06998139
               5.00000000                8.00000000               83.00000000                0.23824747               -0.11785553               -0.10308918                0.37184557               -0.03859268                0.11644615               -0.03569235
               6.00000000                8.00000000               83.00000000                0.31135948               -0.10981108               -0.10591296                0.36504010               -0.01461869                0.03148246               -0.02065088
               7.00000000                8.00000000               83.00000000                0.39730262               -0.10658610               -0.10481745                0.35568365               -0.00356107               -0.00119655               -0.01363005
               8.00000000                8.00000000               83.00000000                0.49801903               -0.10360943               -0.10361177                0.34616031                0.00094353               -0.01049211               -0.01050304
               9.00000000                8.00000000               83.00000000                0.61635003               -0.10045868               -0.10369415                0.33769266                0.00155549               -0.00753797               -0.00992677
              10.00000000                8.00000000               83.00000000                0.84666061               -0.09887057               -0.10514177                0.33076245                0.00101210               -0.00288800               -0.01150124
               0.00000000                9.00000000               83.00000000                0.82265946               -0.08029280               -0.08107512                0.27516381               -0.00023769                0.00116841               -0.00060737
               1.00000000                9.00000000               83.00000000                0.41185217               -0.08130080               -0.07888049                0.25819201               -0.00480623                0.01748068               -0.00235086
               2.00000000                9.00000000               83.00000000                0.14911402               -0.17018623               -0.07403971                0.24678735               -0.12407878                0.56052343                0.00345787
               3.00000000                9.00000000               83.00000000                0.17972159               -0.22097839               -0.03963403                0.33905718               -0.12462681                0.81459857               -0.06104591
               4.00000000                9.00000000               83.00000000                0.23637367               -0.16196982               -0.07811526                0.36129936               -0.07009559                0.38520982               -0.03569490
               5.00000000                9.00000000               83.00000000                0.30812931               -0.13165394               -0.09542092                0.36319955               -0.02622902                0.13707747               -0.01966523
               6.00000000                9.00000000               83.00000000                0.39472086               -0.11826794               -0.10060300                0.35660184               -0.00769436                0.03890561               -0.01227797
               7.00000000                9.00000000               83.00000000                0.49672775               -0.10974700               -0.10127271                0.34724473               -0.00068733                0.00113881               -0.00891342
               8.00000000                9.00000000               83.00000000                0.61634959               -0.10369249               -0.10045805                0.33768709                0.00155579               -0.00991977               -0.00754313
               9.00000000                9.00000000               83.00000000                0.75703611               -0.09943677               -0.09943678                0.32917469                0.00140286               -0.00743592               -0.00744025
              10.00000000                9.00000000               83.00000000                0.92371107               -0.09770804               -0.09819731                0.32216929                0.00156009               -0.00257615               -0.00828130
               0.00000000               10.00000000               83.00000000                0.93843704               -0.07985384               -0.08221111                0.27609682                0.00288747                0.00219894               -0.00035347
               1.00000000               10.00000000               83.00000000                0.74296202               -0.07562185               -0.07804447                0.25889756               -0.00111786                0.02075940               -0.00100925
               2.00000000               10.00000000               83.00000000                0.59234020               -0.09371273               -0.07354030                0.24845464               -0.10272592                0.56316829                0.00235338
               3.00000000               10.00000000               83.00000000                0.60801925               -0.17461384               -0.04636337                0.33610525               -0.06678497                0.83489674               -0.01620909
               4.00000000               10.00000000               83.00000000                0.63879122               -0.21540643               -0.07182379                0.35617111               -0.05737843                0.40773844               -0.01270542
               5.00000000               10.00000000               83.00000000                0.67788265               -0.17587698               -0.08944769                0.35720819               -0.02529472                0.14622665               -0.00795299
               6.00000000               10.00000000               83.00000000                0.72525561               -0.14014534               -0.09685709                0.35013180               -0.00866939                0.04026949               -0.00524266
               7.00000000               10.00000000               83.00000000                0.78112536               -0.11796621               -0.09906714                0.34047370               -0.00166138               -0.00019310               -0.00371628
               8.00000000               10.00000000               83.00000000                0.84664656               -0.10513881               -0.09886600                0.33075095                0.00101270               -0.01150124               -0.00289238
               9.00000000               10.00000000               83.00000000                0.92371983               -0.09819605               -0.09770610                0.32216541                0.00155829               -0.00827948               -0.00257740
              10.00000000               10.00000000               83.00000000                0.98649404               -0.09588942               -0.09588942                0.31513239                0.00237197               -0.00261993               -0.00261726
               0.00000000                0.00000000               84.00000000                0.75789547               -0.07816931               -0.07816575                0.25822987               -0.00077367                0.00022614                0.00021513
               1.00000000                0.00000000               84.00000000                0.50702805               -0.07996976               -0.07648860                0.25789533               -0.00326506                0.00240241               -0.00044743
               2.00000000                0.00000000               84.00000000                0.50488234               -0.08067260               -0.07804548                0.26039086               -0.00117849                0.00669328               -0.00147056
               3.00000000                0.00000000               84.00000000                0.52430226               -0.07919033               -0.07807068                0.26405852               -0.00151695                0.00766572               -0.00091163
               4.00000000                0.00000000               84.00000000                0.55152177               -0.07873701               -0.07843063                0.26794566               -0.00149149                0.00603772               -0.00041714
               5.00000000                0.00000000               84.00000000                0.58642790               -0.07865360               -0.07878998                0.27122813               -0.00147278                0.00286312               -0.00006840
               6.00000000                0.00000000               84.00000000                0.62957713               -0.07865136               -0.07918545                0.27356002               -0.00140451               -0.00006954                0.00008353
               7.00000000                0.00000000               84.00000000                0.68185702               -0.07890876               -0.07964702                0.27505265               -0.00123183               -0.00146907                0.00016667
               8.00000000                0.00000000               84.00000000                0.74441730               -0.07993155               -0.08023098                0.27612650               -0.00083855               -0.00109626                0.00054055
               9.00000000                0.00000000               84.00000000                0.81922355               -0.08180458               -0.08068299                0.27723724               -0.00019970                0.00003628                0.00148058
              10.00000000                0.00000000               84.00000000                0.93631725               -0.08289970               -0.08030458                0.27838600                0.00324851                0.00023354                0.00317153
               0.00000000                1.00000000               84.00000000                0.50705800               -0.07648539               -0.07996265                0.25787824               -0.00327124               -0.00044027                0.00239183
               1.00000000                1.00000000               84.00000000                0.01031351               -0.07432213               -0.07432002                0.25714534               -0.00899533               -0.00069457               -0.00070550
               2.00000000                1.00000000               84.00000000                0.01118103               -0.07434628               -0.09945902                0.25751456               -0.03693064               -0.00428603                0.06151762
               3.00000000                1.00000000               84.00000000                0.01000000               -0.07839255               -0.12055402                0.25811771               -0.04727578               -0.00843218                0.10654826
               4.00000000                1.00000000               84.00000000                0.04579563               -0.08135291               -0.08509940                0.25836546               -0.02320701               -0.01157897                0.00198513
               5.00000000                1.00000000               84.00000000                0.09210757               -0.08293957               -0.07926705                0.25829307               -0.01774446               -0.01300409               -0.00571294
               6.00000000                1.00000000               84.00000000                0.14929138               -0.08334882               -0.07807002                0.25803888               -0.01475414               -0.01241791               -0.00297770
               7.00000000                1.00000000               84.00000000                0.21917130               -0.08263486               -0.07941797                0.25783599               -0.01231606               -0.00996167                0.00437209
               8.00000000                1.00000000               84.00000000                0.30383440               -0.08085788               -0.08125122                0.25793837               -0.00903483               -0.00640059                0.01287068
               9.00000000                1.00000000               84.00000000                0.40635101               -0.07890651               -0.08241465                0.25843270               -0.00533579               -0.00297953                0.02093213
              10.00000000                1.00000000               84.00000000                0.73966378               -0.07809410               -0.07631402                0.25942936               -0.00106811               -0.00159486                0.02544510
               0.00000000                2.00000000               84.00000000                0.50492249               -0.07803285               -0.08066366                0.26036227               -0.00118201               -0.00147398                0.00668787
               1.00000000                2.00000000               84.00000000                0.01118503               -0.09946091               -0.07433893                0.25748628               -0.03692778                0.06152432               -0.00429027
               2.00000000                2.00000000               84.00000000                0.01000001               -0.10779581               -0.10780760                0.25984742               -0.11660722                0.10455305                0.10452486
               3.00000000                2.00000000               84.00000000                0.01000000               -0.06398953               -0.16352111                0.26563621               -0.10314889               -0.06572652                0.27053382
               4.00000000                2.00000000               84.00000000                0.01000000               -0.05429684               -0.18993341                0.25051816               -0.12420372               -0.14001138                0.47388398
               5.00000000                2.00000000               84.00000000                0.01000001               -0.07879079               -0.22550188                0.24526094               -0.19092100               -0.03184432                0.81526357
               6.00000000                2.00000000               84.00000000                0.02587720               -0.08271345               -0.23975414                0.24377217               -0.20414257               -0.01354221                0.82113934
               7.00000000                2.00000000               84.00000000                0.05804139               -0.08111815               -0.22669218                0.24402487               -0.19465248               -0.00311060                0.72520932
               8.00000000                2.00000000               84.00000000                0.09841448               -0.07632204               -0.21099610                0.24532996               -0.16981162                0.00272554                0.65798423
               9.00000000                2.00000000               84.00000000                0.14931250               -0.07302518               -0.19082855                0.24735371               -0.13497839                0.00318270                0.62104056
              10.00000000                2.00000000               84.00000000                0.59238823               -0.07247998               -0.10962618                0.24944352               -0.10810624                0.00197621                0.62226797
               0.00000000                3.00000000               84.00000000                0.52431225               -0.07806305               -0.07918821                0.26404778               -0.00151456               -0.00091172                0.00766677
               1.00000000                3.00000000               84.00000000                0.01000000               -0.12052801               -0.07839104                0.25811008               -0.04729778                0.10656974               -0.00842728
               2.00000000                3.00000000               84.00000000                0.01000000               -0.16351884               -0.06398439                0.26564799               -0.10314983                0.27060841               -0.06564588
               3.00000000                3.00000000               84.00000000                0.01000000               -0.17160143               -0.17157932                0.31119457               -0.19554304                0.35082314                0.35080443
               4.00000000                3.00000000               84.00000000                0.01000001               -0.16707075               -0.24518213                0.25808801               -0.25864302                0.53227925                0.91931931
               5.00000000                3.00000000               84.00000000                0.02230911               -0.13009949               -0.26657397                0.42706483               -0.26838291                0.28725115                0.97735949
               6.00000000                3.00000000               84.00000000                0.05134146               -0.08650558               -0.27446894                0.40762774               -0.22818450               -0.14974053                0.95725444
               7.00000000                3.00000000               84.00000000                0.08663788               -0.05347631               -0.27454260                0.38149603               -0.20084953               -0.21642983                0.92733645
               8.00000000                3.00000000               84.00000000                0.12961847               -0.03218697               -0.26966968                0.36239778               -0.19454626               -0.14723893                0.89967471
               9.00000000                3.00000000               84.00000000                0.18232703               -0.03069001               -0.25186268                0.35065231               -0.13315506               -0.06772767                0.88565938
              10.00000000                3.00000000               84.00000000                0.60956124               -0.03616317               -0.20359579                0.34646894               -0.07053481               -0.01821505                0.89985602
               0.00000000                4.00000000               84.00000000                0.55150229               -0.07842784               -0.07874032                0.26795215               -0.00148922               -0.00041964                0.00604276
               1.00000000                4.00000000               84.00000000                0.04577016               -0.08509626               -0.08135823                0.25837386               -0.02320044                0.00194545               -0.01157394
               2.00000000                4.00000000               84.00000000                0.01000000               -0.18990195               -0.05428534                0.25040486               -0.12423309                0.47386787               -0.14002662
               3.00000000                4.00000000               84.00000000                0.01000001               -0.24520695               -0.16711681                0.25814976               -0.25853622                0.91934867                0.53259408
               4.00000000                4.00000000               84.00000000                0.02277562               -0.16453293               -0.16447654                0.45854526               -0.13539866                0.48528175                0.48515003
               5.00000000                4.00000000               84.00000000                0.05219145               -0.11771281               -0.14070091                0.43442682               -0.08241818                0.02238646                0.18431277
               6.00000000                4.00000000               84.00000000                0.08732895               -0.10324934               -0.13349438                0.41511318               -0.06748424               -0.09754596                0.19359931
               7.00000000                4.00000000               84.00000000                0.12912341               -0.09246253               -0.15033054                0.39704788               -0.07363927               -0.10085669                0.29311566
               8.00000000                4.00000000               84.00000000                0.17894844               -0.08461020               -0.16604205                0.38110386               -0.08567401               -0.07889005                0.36143763
               9.00000000                4.00000000               84.00000000                0.23876455               -0.07474216               -0.17818043                0.36888730               -0.07266415               -0.04001920                0.40477119
              10.00000000                4.00000000               84.00000000                0.64018640               -0.06742476               -0.23638696                0.36167624               -0.06194886               -0.01415446                0.42412046
               0.00000000                5.00000000               84.00000000                0.58642331               -0.07879057               -0.07865709                0.27123208               -0.00147154               -0.00007197                0.00287214
               1.00000000                5.00000000               84.00000000                0.09211392               -0.07926993               -0.08294452                0.25829957               -0.01774751               -0.00573445               -0.01299533
               2.00000000                5.00000000               84.00000000                0.01000001               -0.22540451               -0.07880895                0.24530601               -0.19097294                0.81560014               -0.03175828
               3.00000000                5.00000000               84.00000000                0.02232681               -0.26657302               -0.13010316                0.42692310               -0.26836983                0.97719459                0.28721334
               4.00000000                5.00000000               84.00000000                0.05216497               -0.14080938               -0.11774942                0.43460501               -0.08232473                0.18400802                0.02238453
               5.00000000                5.00000000               84.00000000                0.08835161               -0.11643215               -0.11643004                0.42214339               -0.05877873               -0.00243229               -0.00258212
               6.00000000                5.00000000               84.00000000                0.13121371               -0.11123801               -0.11727296                0.40783139               -0.04856037               -0.03850721                0.04529984
               7.00000000                5.00000000               84.00000000                0.18168153               -0.10748702               -0.11955627                0.39288634               -0.04345520               -0.04838643                0.08728094
               8.00000000                5.00000000               84.00000000                0.24099499               -0.10348966               -0.12394343                0.37911125               -0.03910643               -0.04140837                0.11973701
               9.00000000                5.00000000               84.00000000                0.31122491               -0.09430759               -0.13891852                0.36777056               -0.02710148               -0.02246467                0.14071738
              10.00000000                5.00000000               84.00000000                0.67958315               -0.08746572               -0.18659276                0.35949598               -0.02719787               -0.00890874                0.14840071
               0.00000000                6.00000000               84.00000000                0.62957877               -0.07918993               -0.07865507                0.27356670               -0.00140285                0.00008060               -0.00006914
               1.00000000                6.00000000               84.00000000                0.14932911               -0.07807499               -0.08335289                0.25804786               -0.01475793               -0.00292769               -0.01241706
               2.00000000                6.00000000               84.00000000                0.02588125               -0.23973896               -0.08271494                0.24375125               -0.20413927                0.82107952               -0.01348321
               3.00000000                6.00000000               84.00000000                0.05133676               -0.27445744               -0.08646438                0.40765850               -0.22826829                0.95720325               -0.15003398
               4.00000000                6.00000000               84.00000000                0.08734038               -0.13351141               -0.10329745                0.41518446               -0.06745264                0.19365972               -0.09740102
               5.00000000                6.00000000               84.00000000                0.13120226               -0.11728347               -0.11125542                0.40788354               -0.04853291                0.04526733               -0.03851447
               6.00000000                6.00000000               84.00000000                0.18308918               -0.11246525               -0.11246574                0.39564947               -0.03315555               -0.00607910               -0.00608073
               7.00000000                6.00000000               84.00000000                0.24388680               -0.10977095               -0.11144143                0.38206566               -0.02237864               -0.02440788                0.01491319
               8.00000000                6.00000000               84.00000000                0.31500359               -0.10644186               -0.11248043                0.36909212               -0.01424237               -0.02494635                0.02883445
               9.00000000                6.00000000               84.00000000                0.39858875               -0.09999887               -0.12120642                0.35802195               -0.00751678               -0.01440110                0.03632899
              10.00000000                6.00000000               84.00000000                0.72723946               -0.09566655               -0.14435931                0.34929205               -0.00900691               -0.00599831                0.03695164
               0.00000000                7.00000000               84.00000000                0.68182440               -0.07965179               -0.07890874                0.27505964               -0.00123382                0.00016816               -0.00147326
               1.00000000                7.00000000               84.00000000                0.21917996               -0.07942059               -0.08263535                0.25784666               -0.01231111                0.00441703               -0.00996634
               2.00000000                7.00000000               84.00000000                0.05803588               -0.22667614               -0.08111322                0.24403886               -0.19464841                0.72527426               -0.00316046
               3.00000000                7.00000000               84.00000000                0.08665611               -0.27452418               -0.05349246                0.38152678               -0.20090784                0.92731133               -0.21632523
               4.00000000                7.00000000               84.00000000                0.12913387               -0.15034760               -0.09247134                0.39706459               -0.07363962                0.29306235               -0.10088577
               5.00000000                7.00000000               84.00000000                0.18166344               -0.11958277               -0.10750196                0.39295140               -0.04342818                0.08724043               -0.04840215
               6.00000000                7.00000000               84.00000000                0.24389207               -0.11144815               -0.10977419                0.38206178               -0.02237302                0.01490832               -0.02441216
               7.00000000                7.00000000               84.00000000                0.31660678               -0.10815877               -0.10815863                0.36921985               -0.00976225               -0.01193585               -0.01193053
               8.00000000                7.00000000               84.00000000                0.40146403               -0.10492677               -0.10740662                0.35666424               -0.00283090               -0.01728333               -0.00527477
               9.00000000                7.00000000               84.00000000                0.50085653               -0.10042864               -0.11031608                0.34569317               -0.00019805               -0.01073315               -0.00287007
              10.00000000                7.00000000               84.00000000                0.78309700               -0.09778082               -0.11859041                0.33673883               -0.00134532               -0.00436144               -0.00456052
               0.00000000                8.00000000               84.00000000                0.74445623               -0.08022624               -0.07992551                0.27611018               -0.00083960                0.00054134               -0.00108536
               1.00000000                8.00000000               84.00000000                0.30382118               -0.08125108               -0.08085269                0.25792733               -0.00903025                0.01287495               -0.00639398
               2.00000000                8.00000000               84.00000000                0.09839334               -0.21102772               -0.07631843                0.24533015               -0.16982651                0.65807935                0.00268738
               3.00000000                8.00000000               84.00000000                0.12963435               -0.26966781               -0.03220947                0.36250637               -0.19460188                0.89969568               -0.14729411
               4.00000000                8.00000000               84.00000000                0.17896591               -0.16601558               -0.08460968                0.38108287               -0.08569216                0.36136327               -0.07892769
               5.00000000                8.00000000               84.00000000                0.24097907               -0.12395690               -0.10349354                0.37913464               -0.03909560                0.11971059               -0.04142226
               6.00000000                8.00000000               84.00000000                0.31498542               -0.11249236               -0.10644683                0.36911555               -0.01422930                0.02884001               -0.02494781
               7.00000000                8.00000000               84.00000000                0.40146899               -0.10741223               -0.10492648                0.35666961               -0.00282242               -0.00527512               -0.01728138
               8.00000000                8.00000000               84.00000000                0.50214810               -0.10319886               -0.10319569                0.34436274                0.00169126               -0.01386578               -0.01386240
               9.00000000                8.00000000               84.00000000                0.61985167               -0.09913776               -0.10281520                0.33349840                0.00202931               -0.00921935               -0.01321485
              10.00000000                8.00000000               84.00000000                0.84807506               -0.09715626               -0.10379446                0.32445814                0.00148654               -0.00346828               -0.01494155
               0.00000000                9.00000000               84.00000000                0.81925346               -0.08068161               -0.08180021                0.27723057               -0.00019647                0.00147560                0.00004651
               1.00000000                9.00000000               84.00000000                0.40634035               -0.08241785               -0.07890446                0.25843346               -0.00533566                0.02092823               -0.00297231
               2.00000000                9.00000000               84.00000000                0.14930256               -0.19085540               -0.07302962                0.24737380               -0.13500600                0.62107897                0.00318923
               3.00000000                9.00000000               84.00000000                0.18232952               -0.25187525               -0.03070283                0.35072243               -0.13316387                0.88568495               -0.06780991
               4.00000000                9.00000000               84.00000000                0.23877453               -0.17817019               -0.07474078                0.36886988               -0.07267118                0.40474798               -0.04003851
               5.00000000                9.00000000               84.00000000                0.31123181               -0.13892045               -0.09430508                0.36776664               -0.02710298                0.14070193               -0.02246389
               6.00000000                9.00000000               84.00000000                0.39861494               -0.12120980               -0.09999708                0.35801763               -0.00751019                0.03633100               -0.01439700
               7.00000000                9.00000000               84.00000000                0.50084003               -0.11032236               -0.10042947                0.34570391               -0.00018465               -0.00287512               -0.01073929
               8.00000000                9.00000000               84.00000000                0.61981487               -0.10282264               -0.09914009                0.33351437                0.00203436               -0.01321682               -0.00922530
               9.00000000                9.00000000               84.00000000                0.75883693               -0.09759867               -0.09759681                0.32271572                0.00168016               -0.00907774               -0.00908380
              10.00000000                9.00000000               84.00000000                0.92394297               -0.09547147               -0.09573434                0.31364816                0.00198706               -0.00314122               -0.00997145
               0.00000000               10.00000000               84.00000000                0.93634651               -0.08030927               -0.08289895                0.27839686                0.00325023                0.00316829                0.00023822
               1.00000000               10.00000000               84.00000000                0.73966395               -0.07631972               -0.07809667                0.25944836               -0.00107407                0.02544840               -0.00159232
               2.00000000               10.00000000               84.00000000                0.59239938               -0.10964964               -0.07249232                0.24948015               -0.10813304                0.62229109                0.00198615
               3.00000000               10.00000000               84.00000000                0.60956866               -0.20362485               -0.03616937                0.34650385               -0.07053665                0.89986851               -0.01825343
               4.00000000               10.00000000               84.00000000                0.64019948               -0.23639260               -0.06742135                0.36165528               -0.06195070                0.42411107               -0.01415688
               5.00000000               10.00000000               84.00000000                0.67957050               -0.18658707               -0.08746272                0.35948669               -0.02719774                0.14839632               -0.00890332
               6.00000000               10.00000000               84.00000000                0.72723208               -0.14435537               -0.09565874                0.34926875               -0.00900554                0.03695366               -0.00599137
               7.00000000               10.00000000               84.00000000                0.78309730               -0.11859529               -0.09778160                0.33674859               -0.00134074               -0.00456905               -0.00436866
               8.00000000               10.00000000               84.00000000                0.84808478               -0.10380534               -0.09716256                0.32448428                0.00148980               -0.01494458               -0.00347958
               9.00000000               10.00000000               84.00000000                0.92393414               -0.09573973               -0.09547331                0.31365936                0.00199020               -0.00996714               -0.00314925
              10.00000000               10.00000000               84.00000000                0.98612972               -0.09301815               -0.09301625                0.30458006                0.00306527               -0.00320196               -0.00320518
               0.00000000                0.00000000               85.00000000                0.75809358               -0.07753204               -0.07753048                0.25753815               -0.00068436                0.00049269                0.00049135
               1.00000000                0.00000000               85.00000000                0.50753456               -0.07823974               -0.07662879                0.25712014               -0.00193232                0.00452124               -0.00057741
               2.00000000                0.00000000               85.00000000                0.50553479               -0.07867206               -0.07759900                0.26022312               -0.00109558                0.01212135               -0.00214943
               3.00000000                0.00000000               85.00000000                0.52504345               -0.07883262               -0.07781906                0.26472835               -0.00135318                0.01415138               -0.00120282
               4.00000000                0.00000000               85.00000000                0.55209971               -0.07978642               -0.07829817                0.26940715               -0.00129547                0.01193697               -0.00042780
               5.00000000                0.00000000               85.00000000                0.58662902               -0.08053908               -0.07879674                0.27322501               -0.00122484                0.00714662                0.00011661
               6.00000000                0.00000000               85.00000000                0.62909111               -0.08071857               -0.07930927                0.27575597               -0.00115175                0.00234192                0.00037728
               7.00000000                0.00000000               85.00000000                0.68035606               -0.08064420               -0.07987280                0.27717274               -0.00102340               -0.00050516                0.00050932
               8.00000000                0.00000000               85.00000000                0.74162721               -0.08112992               -0.08057552                0.27807981               -0.00069967               -0.00078233                0.00092367
               9.00000000                0.00000000               85.00000000                0.81495143               -0.08261137               -0.08117490                0.27914924               -0.00010913                0.00031398                0.00195388
              10.00000000                0.00000000               85.00000000                0.93374285               -0.08358805               -0.08092138                0.28060341                0.00347849                0.00063069                0.00427952
               0.00000000                1.00000000               85.00000000                0.50756938               -0.07662990               -0.07823402                0.25711282               -0.00193232               -0.00057323                0.00451426
               1.00000000                1.00000000               85.00000000                0.01000000               -0.07589803               -0.07589371                0.25620305               -0.00505158               -0.00027440               -0.00028479
               2.00000000                1.00000000               85.00000000                0.01196690               -0.07698932               -0.09878203                0.25672342               -0.02902167               -0.00434602                0.05862078
               3.00000000                1.00000000               85.00000000                0.01027618               -0.08012767               -0.11255790                0.25763756               -0.03208065               -0.00934664                0.11356006
               4.00000000                1.00000000               85.00000000                0.04633725               -0.08212503               -0.08406787                0.25818729               -0.02132225               -0.01317439                0.00337398
               5.00000000                1.00000000               85.00000000                0.09196963               -0.08304821               -0.07888253                0.25838341               -0.01589108               -0.01485158               -0.00528223
               6.00000000                1.00000000               85.00000000                0.14830164               -0.08315032               -0.07819431                0.25834000               -0.01363464               -0.01418134               -0.00163399
               7.00000000                1.00000000               85.00000000                0.21669704               -0.08244112               -0.08013123                0.25831173               -0.01213240               -0.01138236                0.00689694
               8.00000000                1.00000000               85.00000000                0.29940935               -0.08084030               -0.08251404                0.25864012               -0.00949345               -0.00737906                0.01654156
               9.00000000                1.00000000               85.00000000                0.39985753               -0.07909430               -0.08407846                0.25950094               -0.00587622               -0.00358580                0.02579806
              10.00000000                1.00000000               85.00000000                0.73573744               -0.07837884               -0.07762007                0.26094916               -0.00114424               -0.00220793                0.03151153
               0.00000000                2.00000000               85.00000000                0.50555737               -0.07759845               -0.07866584                0.26020353               -0.00109510               -0.00214926                0.01211274
               1.00000000                2.00000000               85.00000000                0.01199850               -0.09873761               -0.07698476                0.25670642               -0.02907045                0.05862858               -0.00435563
               2.00000000                2.00000000               85.00000000                0.01000001               -0.10259947               -0.10248697                0.24150909               -0.08410632                0.10323210                0.10319751
               3.00000000                2.00000000               85.00000000                0.01000000               -0.07362971               -0.16546942                0.26485737               -0.08502691               -0.07242630                0.29841981
               4.00000000                2.00000000               85.00000000                0.01024503               -0.06824642               -0.15771896                0.25122134               -0.09402305               -0.15278501                0.49865820
               5.00000000                2.00000000               85.00000000                0.01000001               -0.07796427               -0.24264168                0.24556983               -0.19375215               -0.03729498                0.92816456
               6.00000000                2.00000000               85.00000000                0.02626755               -0.08189726               -0.26495471                0.24417907               -0.21515891               -0.01564187                0.91751343
               7.00000000                2.00000000               85.00000000                0.05848239               -0.08043592               -0.25193293                0.24525955               -0.20825159               -0.00369258                0.80917324
               8.00000000                2.00000000               85.00000000                0.09890758               -0.07566896               -0.23597812                0.24768394               -0.18287552                0.00298737                0.73225888
               9.00000000                2.00000000               85.00000000                0.15007758               -0.07231074               -0.21475685                0.25073267               -0.14413409                0.00344166                0.68890892
              10.00000000                2.00000000               85.00000000                0.59277404               -0.07173380               -0.13044858                0.25330648               -0.11104386                0.00173843                0.68770566
               0.00000000                3.00000000               85.00000000                0.52499476               -0.07782311               -0.07883706                0.26473881               -0.00135176               -0.00119919                0.01416052
               1.00000000                3.00000000               85.00000000                0.01025013               -0.11246976               -0.08013388                0.25764859               -0.03197236                0.11357822               -0.00933663
               2.00000000                3.00000000               85.00000000                0.01000000               -0.16542160               -0.07360745                0.26477467               -0.08513704                0.29844278               -0.07236937
               3.00000000                3.00000000               85.00000000                0.01000000               -0.16277417               -0.16272507                0.31617086               -0.12165806                0.36816276                0.36827283
               4.00000000                3.00000000               85.00000000                0.01000001               -0.18681522               -0.26366345                0.31255475               -0.26136455                0.61685504                1.07039292
               5.00000000                3.00000000               85.00000000                0.02327175               -0.17442199               -0.29559785                0.46561486               -0.32576838                0.36031680                1.09210018
               6.00000000                3.00000000               85.00000000                0.05259710               -0.09252139               -0.30667194                0.42951200               -0.24142568               -0.18012234                1.05916002
               7.00000000                3.00000000               85.00000000                0.08840607               -0.05150513               -0.30852023                0.39995660               -0.20949581               -0.23849952                1.02033625
               8.00000000                3.00000000               85.00000000                0.13212783               -0.02627153               -0.30457345                0.37830724               -0.20374856               -0.16208649                0.98338429
               9.00000000                3.00000000               85.00000000                0.18599623               -0.02127066               -0.28692023                0.36439821               -0.13925900               -0.07489322                0.96140128
              10.00000000                3.00000000               85.00000000                0.61170398               -0.02500083               -0.23787930                0.35868543               -0.07272325               -0.02064970                0.96738811
               0.00000000                4.00000000               85.00000000                0.55207754               -0.07830099               -0.07979589                0.26943031               -0.00129711               -0.00042270                0.01195422
               1.00000000                4.00000000               85.00000000                0.04632826               -0.08408460               -0.08213717                0.25821112               -0.02133738                0.00343309               -0.01315718
               2.00000000                4.00000000               85.00000000                0.01024101               -0.15777264               -0.06837124                0.25138221               -0.09414717                0.49871691               -0.15276174
               3.00000000                4.00000000               85.00000000                0.01000001               -0.26366613               -0.18677141                0.31264671               -0.26147633                1.07035949                0.61676369
               4.00000000                4.00000000               85.00000000                0.02381565               -0.22500256               -0.22509367                0.50337970               -0.20449676                0.57918346                0.57939384
               5.00000000                4.00000000               85.00000000                0.05360832               -0.13101920               -0.15606432                0.45714197               -0.08759015               -0.01022562                0.18086939
               6.00000000                4.00000000               85.00000000                0.08915116               -0.10677439               -0.14447206                0.43310168               -0.06260658               -0.11347609                0.20179258
               7.00000000                4.00000000               85.00000000                0.13133669               -0.09315902               -0.16408166                0.41125783               -0.07005635               -0.11460051                0.30771331
               8.00000000                4.00000000               85.00000000                0.18157937               -0.08278035               -0.18204413                0.39172107               -0.08441842               -0.08914499                0.37904263
               9.00000000                4.00000000               85.00000000                0.24200713               -0.07077449               -0.19657442                0.37658154               -0.07315619               -0.04485191                0.42230009
              10.00000000                4.00000000               85.00000000                0.64204876               -0.06244603               -0.25869744                0.36709073               -0.06535916               -0.01569983                0.43772815
               0.00000000                5.00000000               85.00000000                0.58664538               -0.07879262               -0.08053991                0.27322203               -0.00122763                0.00011798                0.00715367
               1.00000000                5.00000000               85.00000000                0.09199650               -0.07888278               -0.08305104                0.25838253               -0.01588972               -0.00523152               -0.01484412
               2.00000000                5.00000000               85.00000000                0.01000001               -0.24275077               -0.07794198                0.24553517               -0.19371985                0.92800415               -0.03740798
               3.00000000                5.00000000               85.00000000                0.02326979               -0.29557193               -0.17440934                0.46529470               -0.32572302                1.09214047                0.36026152
               4.00000000                5.00000000               85.00000000                0.05362448               -0.15594149               -0.13107833                0.45730427               -0.08757240                0.18102168               -0.01022118
               5.00000000                5.00000000               85.00000000                0.09044485               -0.12272013               -0.12271619                0.44041174               -0.05520583               -0.01101835               -0.01077045
               6.00000000                5.00000000               85.00000000                0.13393730               -0.11496620               -0.12351616                0.42217968               -0.04580101               -0.04814082                0.04231809
               7.00000000                5.00000000               85.00000000                0.18488339               -0.10918675               -0.12622757                0.40349372               -0.04150920               -0.05762952                0.08721438
               8.00000000                5.00000000               85.00000000                0.24456916               -0.10351578               -0.13117362                0.38623277               -0.03815919               -0.04824724                0.12159465
               9.00000000                5.00000000               85.00000000                0.31518859               -0.09270128               -0.14725656                0.37192553               -0.02715313               -0.02570200                0.14309926
              10.00000000                5.00000000               85.00000000                0.68168297               -0.08498463               -0.19778259                0.36118804               -0.02869397               -0.00993182                0.14929406
               0.00000000                6.00000000               85.00000000                0.62913705               -0.07930092               -0.08071288                0.27573105               -0.00115128                0.00037140                0.00234379
               1.00000000                6.00000000               85.00000000                0.14824009               -0.07818686               -0.08314505                0.25831887               -0.01362553               -0.00169175               -0.01417955
               2.00000000                6.00000000               85.00000000                0.02626997               -0.26494633               -0.08189093                0.24419793               -0.21517381                0.91749734               -0.01571032
               3.00000000                6.00000000               85.00000000                0.05259297               -0.30666891               -0.09255086                0.42958035               -0.24138438                1.05933465               -0.17995673
               4.00000000                6.00000000               85.00000000                0.08916173               -0.14447523               -0.10677553                0.43312306               -0.06262587                0.20185902               -0.11368365
               5.00000000                6.00000000               85.00000000                0.13395190               -0.12351718               -0.11497598                0.42219817               -0.04577394                0.04226073               -0.04811347
               6.00000000                6.00000000               85.00000000                0.18666372               -0.11603377               -0.11603493                0.40623308               -0.03114131               -0.01286499               -0.01281002
               7.00000000                6.00000000               85.00000000                0.24806447               -0.11144202               -0.11473109                0.38894825               -0.02078918               -0.03147376                0.00992596
               8.00000000                6.00000000               85.00000000                0.31951127               -0.10669123               -0.11555750                0.37267377               -0.01302507               -0.03021265                0.02483815
               9.00000000                6.00000000               85.00000000                0.40330762               -0.09904504               -0.12444915                0.35878082               -0.00689234               -0.01690586                0.03261291
              10.00000000                6.00000000               85.00000000                0.72962690               -0.09412598               -0.14856964                0.34768300               -0.00915905               -0.00684786                0.03268389
               0.00000000                7.00000000               85.00000000                0.68034420               -0.07987050               -0.08064187                0.27716471               -0.00102062                0.00050386               -0.00051140
               1.00000000                7.00000000               85.00000000                0.21667377               -0.08013224               -0.08243936                0.25830797               -0.01213391                0.00687219               -0.01138727
               2.00000000                7.00000000               85.00000000                0.05848313               -0.25196556               -0.08044421                0.24528103               -0.20827678                0.80921995               -0.00363147
               3.00000000                7.00000000               85.00000000                0.08841654               -0.30852362               -0.05151698                0.39996289               -0.20954063                1.02032485               -0.23837643
               4.00000000                7.00000000               85.00000000                0.13135018               -0.16404202               -0.09314822                0.41119939               -0.07005768                0.30767237               -0.11464746
               5.00000000                7.00000000               85.00000000                0.18489230               -0.12621936               -0.10918485                0.40348309               -0.04148206                0.08720302               -0.05767172
               6.00000000                7.00000000               85.00000000                0.24805182               -0.11474042               -0.11144155                0.38895706               -0.02077144                0.00988869               -0.03146740
               7.00000000                7.00000000               85.00000000                0.32138802               -0.10942267               -0.10941485                0.37258829               -0.00832392               -0.01774893               -0.01774818
               8.00000000                7.00000000               85.00000000                0.40636239               -0.10481184               -0.10822408                0.35692478               -0.00160223               -0.02176002               -0.01040432
               9.00000000                7.00000000               85.00000000                0.50553636               -0.09930207               -0.11083722                0.34334895                0.00055131               -0.01288573               -0.00772229
              10.00000000                7.00000000               85.00000000                0.78531921               -0.09620973               -0.11902269                0.33218690               -0.00090547               -0.00510686               -0.00958521
               0.00000000                8.00000000               85.00000000                0.74162443               -0.08057583               -0.08112971                0.27807810               -0.00070019                0.00092526               -0.00079257
               1.00000000                8.00000000               85.00000000                0.29939682               -0.08251157               -0.08084135                0.25864209               -0.00949319                0.01654633               -0.00738701
               2.00000000                8.00000000               85.00000000                0.09891294               -0.23598689               -0.07567272                0.24769881               -0.18289968                0.73237511                0.00301098
               3.00000000                8.00000000               85.00000000                0.13215399               -0.30458075               -0.02627488                0.37829679               -0.20374679                0.98337254               -0.16208313
               4.00000000                8.00000000               85.00000000                0.18159991               -0.18203171               -0.08276364                0.39162956               -0.08440242                0.37892058               -0.08914288
               5.00000000                8.00000000               85.00000000                0.24457257               -0.13117031               -0.10350234                0.38619911               -0.03814759                0.12159715               -0.04828364
               6.00000000                8.00000000               85.00000000                0.31949289               -0.11556848               -0.10668639                0.37267268               -0.01301172                0.02482527               -0.03022032
               7.00000000                8.00000000               85.00000000                0.40634426               -0.10823468               -0.10480877                0.35692981               -0.00159360               -0.01041151               -0.02176243
               8.00000000                8.00000000               85.00000000                0.50673069               -0.10259339               -0.10258801                0.34173641                0.00272272               -0.01785599               -0.01785474
               9.00000000                8.00000000               85.00000000                0.62348584               -0.09756113               -0.10174392                0.32844430                0.00264279               -0.01113731               -0.01695321
              10.00000000                8.00000000               85.00000000                0.84950938               -0.09518013               -0.10219248                0.31731295                0.00203179               -0.00413797               -0.01870377
               0.00000000                9.00000000               85.00000000                0.81493975               -0.08117116               -0.08260841                0.27913801               -0.00010945                0.00195757                0.00031214
               1.00000000                9.00000000               85.00000000                0.39985291               -0.08407603               -0.07909298                0.25949550               -0.00587685                0.02580920               -0.00358610
               2.00000000                9.00000000               85.00000000                0.15007228               -0.21477343               -0.07231241                0.25074201               -0.14415880                0.68897190                0.00343864
               3.00000000                9.00000000               85.00000000                0.18599675               -0.28693572               -0.02126082                0.36441430               -0.13928182                0.96141390               -0.07497415
               4.00000000                9.00000000               85.00000000                0.24201959               -0.19656448               -0.07075825                0.37651382               -0.07315138                0.42224562               -0.04484028
               5.00000000                9.00000000               85.00000000                0.31520517               -0.14725033               -0.09268872                0.37189320               -0.02715066                0.14309248               -0.02571056
               6.00000000                9.00000000               85.00000000                0.40329869               -0.12445621               -0.09904080                0.35877762               -0.00688739                0.03261241               -0.01692175
               7.00000000                9.00000000               85.00000000                0.50552234               -0.11084803               -0.09930449                0.34336609                0.00055725               -0.00771223               -0.01288373
               8.00000000                9.00000000               85.00000000                0.62348770               -0.10175226               -0.09756390                0.32846277                0.00264519               -0.01695017               -0.01112819
               9.00000000                9.00000000               85.00000000                0.76037488               -0.09551124               -0.09551000                0.31537524                0.00202135               -0.01087323               -0.01086374
              10.00000000                9.00000000               85.00000000                0.92394553               -0.09297875               -0.09300848                0.30428946                0.00244382               -0.00377994               -0.01174248
               0.00000000               10.00000000               85.00000000                0.93374477               -0.08091948               -0.08358344                0.28059838                0.00347821                0.00428096                0.00063296
               1.00000000               10.00000000               85.00000000                0.73578543               -0.07761920               -0.07837649                0.26095023               -0.00114764                0.03152189               -0.00220361
               2.00000000               10.00000000               85.00000000                0.59276647               -0.13047778               -0.07173347                0.25331389               -0.11106255                0.68773579                0.00173874
               3.00000000               10.00000000               85.00000000                0.61170619               -0.23791034               -0.02498800                0.35869713               -0.07274391                0.96738908               -0.02069239
               4.00000000               10.00000000               85.00000000                0.64205404               -0.25868378               -0.06243046                0.36703761               -0.06536248                0.43771771               -0.01569098
               5.00000000               10.00000000               85.00000000                0.68167682               -0.19776674               -0.08497490                0.36116515               -0.02869757                0.14929153               -0.00992928
               6.00000000               10.00000000               85.00000000                0.72963579               -0.14857454               -0.09412405                0.34768410               -0.00916150                0.03268958               -0.00686227
               7.00000000               10.00000000               85.00000000                0.78531776               -0.11903525               -0.09621504                0.33221158               -0.00090500               -0.00956409               -0.00510638
               8.00000000               10.00000000               85.00000000                0.84953220               -0.10220383               -0.09518714                0.31734196                0.00203411               -0.01869547               -0.00412724
               9.00000000               10.00000000               85.00000000                0.92393454               -0.09301339               -0.09298135                0.30430319                0.00244721               -0.01174964               -0.00377039
              10.00000000               10.00000000               85.00000000                0.98563252               -0.08989048               -0.08988859                0.29323627                0.00375661               -0.00384861               -0.00384257
               0.00000000                0.00000000               86.00000000                0.75816012               -0.07659469               -0.07659439                0.25643546               -0.00051061                0.00084438                0.00083968
               1.00000000                0.00000000               86.00000000                0.50800905               -0.07577512               -0.07685008                0.25595906                0.00008106                0.00716885               -0.00072513
               2.00000000                0.00000000               86.00000000                0.50621718               -0.07594338               -0.07694261                0.25988364               -0.00089478                0.01873208               -0.00293554
               3.00000000                0.00000000               86.00000000                0.52588624               -0.07854296               -0.07743194                0.26544280               -0.00101321                0.02183077               -0.00148246
               4.00000000                0.00000000               86.00000000                0.55287716               -0.08146991               -0.07806591                0.27104487               -0.00090852                0.01861652               -0.00035738
               5.00000000                0.00000000               86.00000000                0.58699430               -0.08332659               -0.07874674                0.27540581               -0.00076820                0.01154994                0.00041658
               6.00000000                0.00000000               86.00000000                0.62857399               -0.08367605               -0.07942481                0.27805342               -0.00069475                0.00425757                0.00079897
               7.00000000                0.00000000               86.00000000                0.67856179               -0.08304778               -0.08013303                0.27923694               -0.00064416               -0.00042664                0.00099128
               8.00000000                0.00000000               86.00000000                0.73815662               -0.08266732               -0.08099151                0.27978807               -0.00044311               -0.00143052                0.00148674
               9.00000000                0.00000000               86.00000000                0.80961065               -0.08346362               -0.08177771                0.28066284                0.00004417               -0.00006203                0.00266297
              10.00000000                0.00000000               86.00000000                0.93050974               -0.08420416               -0.08170495                0.28246837                0.00348515                0.00067776                0.00547186
               0.00000000                1.00000000               86.00000000                0.50801926               -0.07684733               -0.07577297                0.25595670                0.00007659               -0.00071403                0.00715509
               1.00000000                1.00000000               86.00000000                0.01000000               -0.07820109               -0.07820048                0.25487648                0.00083362                0.00032553                0.00030325
               2.00000000                1.00000000               86.00000000                0.01000000               -0.08076946               -0.10639146                0.25571355               -0.02607147               -0.00420588                0.04880917
               3.00000000                1.00000000               86.00000000                0.01116950               -0.08247856               -0.11685412                0.25715816               -0.03012339               -0.01009271                0.12055865
               4.00000000                1.00000000               86.00000000                0.04701249               -0.08305655               -0.08291434                0.25823544               -0.01755707               -0.01463136                0.00647661
               5.00000000                1.00000000               86.00000000                0.09200749               -0.08305514               -0.07838673                0.25891095               -0.01227612               -0.01661299               -0.00312151
               6.00000000                1.00000000               86.00000000                0.14708706               -0.08277756               -0.07851149                0.25928461               -0.01129737               -0.01589645                0.00098677
               7.00000000                1.00000000               86.00000000                0.21380215               -0.08215216               -0.08130131                0.25960981               -0.01131170               -0.01274976                0.01092907
               8.00000000                1.00000000               86.00000000                0.29437755               -0.08089325               -0.08438842                0.26030888               -0.00974149               -0.00825913                0.02216459
               9.00000000                1.00000000               86.00000000                0.39220968               -0.07952788               -0.08649500                0.26170062               -0.00641863               -0.00405983                0.03277969
              10.00000000                1.00000000               86.00000000                0.73113665               -0.07898873               -0.07974496                0.26376519               -0.00143342               -0.00274870                0.03942625
               0.00000000                2.00000000               86.00000000                0.50623431               -0.07693243               -0.07593906                0.25987047               -0.00089447               -0.00293223                0.01874212
               1.00000000                2.00000000               86.00000000                0.01000001               -0.10635573               -0.08076559                0.25569808               -0.02610758                0.04882341               -0.00420357
               2.00000000                2.00000000               86.00000000                0.01034787               -0.11507073               -0.11509444                0.27721948               -0.06884011                0.10747712                0.10744687
               3.00000000                2.00000000               86.00000000                0.01000000               -0.07751956               -0.17094265                0.27764946               -0.05364376               -0.07612366                0.33071420
               4.00000000                2.00000000               86.00000000                0.01085056               -0.06692312               -0.16675889                0.25432884               -0.07743304               -0.16349614                0.55219387
               5.00000000                2.00000000               86.00000000                0.01000001               -0.07670199               -0.26666094                0.24797080               -0.19435484               -0.04226080                1.05307218
               6.00000000                2.00000000               86.00000000                0.02701579               -0.08093480               -0.29248593                0.24726423               -0.22247060               -0.01680570                1.02699419
               7.00000000                2.00000000               86.00000000                0.05937092               -0.07982312               -0.28004468                0.24974058               -0.21901806               -0.00246733                0.90354573
               8.00000000                2.00000000               86.00000000                0.10003520               -0.07534106               -0.26395070                0.25377323               -0.19361530                0.00490096                0.81493377
               9.00000000                2.00000000               86.00000000                0.15168613               -0.07210743               -0.24187642                0.25831196               -0.15092078                0.00454023                0.76332018
              10.00000000                2.00000000               86.00000000                0.59360012               -0.07154381               -0.15641189                0.26149210               -0.11097871                0.00169900                0.75829259
               0.00000000                3.00000000               86.00000000                0.52590248               -0.07743526               -0.07854752                0.26545631               -0.00100704               -0.00148289                0.02186356
               1.00000000                3.00000000               86.00000000                0.01117200               -0.11681590               -0.08248409                0.25716917               -0.03015815                0.12048463               -0.01006019
               2.00000000                3.00000000               86.00000000                0.01000000               -0.17095912               -0.07751066                0.27764770               -0.05367098                0.33056235               -0.07610948
               3.00000000                3.00000000               86.00000000                0.01032072               -0.17605000               -0.17596260                0.34890862               -0.08611353                0.40701594                0.40702046
               4.00000000                3.00000000               86.00000000                0.01000001               -0.20811165               -0.29233040                0.34836740               -0.26644732                0.67040935                1.17198778
               5.00000000                3.00000000               86.00000000                0.02469336               -0.18638158               -0.32808555                0.49091828               -0.33699128                0.41090578                1.20868688
               6.00000000                3.00000000               86.00000000                0.05454826               -0.09548808               -0.34241430                0.45215576               -0.24502197               -0.21057975                1.17172196
               7.00000000                3.00000000               86.00000000                0.09103536               -0.04947815               -0.34605182                0.41967594               -0.21406003               -0.26224372                1.12089525
               8.00000000                3.00000000               86.00000000                0.13573385               -0.02045652               -0.34290778                0.39573422               -0.20870960               -0.17740031                1.07190157
               9.00000000                3.00000000               86.00000000                0.19107176               -0.01164184               -0.32548820                0.37972747               -0.14235521               -0.08223273                1.03952785
              10.00000000                3.00000000               86.00000000                0.61463020               -0.01326893               -0.27678755                0.37230213               -0.07294423               -0.02350168                1.03499257
               0.00000000                4.00000000               86.00000000                0.55283110               -0.07808177               -0.08148515                0.27108596               -0.00090744               -0.00035911                0.01861503
               1.00000000                4.00000000               86.00000000                0.04701371               -0.08292819               -0.08307267                0.25827416               -0.01757579                0.00657286               -0.01463136
               2.00000000                4.00000000               86.00000000                0.01084899               -0.16668738               -0.06691124                0.25435993               -0.07741929                0.55226762               -0.16344075
               3.00000000                4.00000000               86.00000000                0.01000001               -0.29224566               -0.20816098                0.34844653               -0.26650165                1.17143506                0.67037912
               4.00000000                4.00000000               86.00000000                0.02536742               -0.24703877               -0.24701984                0.51267104               -0.20310833                0.64394738                0.64402065
               5.00000000                4.00000000               86.00000000                0.05573247               -0.13724631               -0.16823989                0.47877039               -0.07749324               -0.03598757                0.17640136
               6.00000000                4.00000000               86.00000000                0.09181400               -0.11048899               -0.15749156                0.45095141               -0.05372025               -0.13265924                0.20680586
               7.00000000                4.00000000               86.00000000                0.13448908               -0.09339399               -0.17964723                0.42496823               -0.06310776               -0.13076820                0.31950189
               8.00000000                4.00000000               86.00000000                0.18517893               -0.08020663               -0.19985530                0.40183015               -0.08001468               -0.10076650                0.39360893
               9.00000000                4.00000000               86.00000000                0.24629880               -0.06605472               -0.21675514                0.38371089               -0.07125397               -0.05011692                0.43648451
              10.00000000                4.00000000               86.00000000                0.64445508               -0.05681241               -0.28144613                0.37185539               -0.06718926               -0.01730344                0.44737049
               0.00000000                5.00000000               86.00000000                0.58696118               -0.07875365               -0.08333305                0.27542663               -0.00077365                0.00042086                0.01152829
               1.00000000                5.00000000               86.00000000                0.09200480               -0.07839154               -0.08306277                0.25893143               -0.01226761               -0.00318486               -0.01663050
               2.00000000                5.00000000               86.00000000                0.01000001               -0.26668188               -0.07668848                0.24795556               -0.19435410                1.05307836               -0.04230025
               3.00000000                5.00000000               86.00000000                0.02469295               -0.32807311               -0.18648492                0.49106128               -0.33701025                1.20871110                0.41084167
               4.00000000                5.00000000               86.00000000                0.05574710               -0.16818310               -0.13719254                0.47845240               -0.07755222                0.17635191               -0.03588365
               5.00000000                5.00000000               86.00000000                0.09344977               -0.12943907               -0.12945462                0.45840177               -0.04865006               -0.02223541               -0.02218700
               6.00000000                5.00000000               86.00000000                0.13773292               -0.11874031               -0.13059297                0.43604908               -0.04025669               -0.06057726                0.03664017
               7.00000000                5.00000000               86.00000000                0.18924647               -0.11048377               -0.13387267                0.41337035               -0.03731545               -0.06896351                0.08502001
               8.00000000                5.00000000               86.00000000                0.24926240               -0.10287701               -0.13952367                0.39249015               -0.03554097               -0.05641654                0.12169299
               9.00000000                5.00000000               86.00000000                0.32018431               -0.09040463               -0.15664880                0.37520777               -0.02624944               -0.02946442                0.14395416
              10.00000000                5.00000000               86.00000000                0.68433806               -0.08186599               -0.20924876                0.36201608               -0.02967086               -0.01105659                0.14878542
               0.00000000                6.00000000               86.00000000                0.62857222               -0.07941472               -0.08366850                0.27803320               -0.00069771                0.00080799                0.00425607
               1.00000000                6.00000000               86.00000000                0.14713089               -0.07850388               -0.08277159                0.25926646               -0.01128883                0.00106417               -0.01589285
               2.00000000                6.00000000               86.00000000                0.02702947               -0.29240878               -0.08092951                0.24727230               -0.22249999                1.02699127               -0.01670952
               3.00000000                6.00000000               86.00000000                0.05455627               -0.34240295               -0.09548654                0.45207512               -0.24502530                1.17159839               -0.21047075
               4.00000000                6.00000000               86.00000000                0.09183113               -0.15755335               -0.11045639                0.45086239               -0.05370148                0.20678361               -0.13264276
               5.00000000                6.00000000               86.00000000                0.13774862               -0.13059202               -0.11872442                0.43599217               -0.04028015                0.03657109               -0.06056268
               6.00000000                6.00000000               86.00000000                0.19146635               -0.11974780               -0.11974531                0.41601532               -0.02712273               -0.02189336               -0.02185754
               7.00000000                6.00000000               86.00000000                0.25343221               -0.11286092               -0.11832489                0.39499486               -0.01775511               -0.04030663                0.00293642
               8.00000000                6.00000000               86.00000000                0.32507687               -0.10648392               -0.11902013                0.37532232               -0.01086300               -0.03663866                0.01920776
               9.00000000                6.00000000               86.00000000                0.40890778               -0.09762319               -0.12801245                0.35862487               -0.00579331               -0.01989663                0.02763996
              10.00000000                6.00000000               86.00000000                0.73246111               -0.09216348               -0.15279270                0.34524746               -0.00912899               -0.00784040                0.02750656
               0.00000000                7.00000000               86.00000000                0.67856099               -0.08012565               -0.08304184                0.27922100               -0.00064106                0.00099637               -0.00041472
               1.00000000                7.00000000               86.00000000                0.21384149               -0.08129492               -0.08214760                0.25959568               -0.01131215                0.01099287               -0.01273785
               2.00000000                7.00000000               86.00000000                0.05936158               -0.28006663               -0.07982695                0.24973966               -0.21904434                0.90361432               -0.00252616
               3.00000000                7.00000000               86.00000000                0.09103890               -0.34606111               -0.04946112                0.41972900               -0.21417146                1.12089978               -0.26217128
               4.00000000                7.00000000               86.00000000                0.13447966               -0.17962142               -0.09339599                0.42499165               -0.06311148                0.31946407               -0.13085630
               5.00000000                7.00000000               86.00000000                0.18924477               -0.13385755               -0.11047753                0.41333353               -0.03733148                0.08502877               -0.06899318
               6.00000000                7.00000000               86.00000000                0.25343188               -0.11832272               -0.11285708                0.39498737               -0.01775779                0.00293055               -0.04029936
               7.00000000                7.00000000               86.00000000                0.32720357               -0.11057714               -0.11057405                0.37505253               -0.00599379               -0.02511978               -0.02510056
               8.00000000                7.00000000               86.00000000                0.41205017               -0.10439510               -0.10902302                0.35624611                0.00017272               -0.02716865               -0.01676184
               9.00000000                7.00000000               86.00000000                0.51075043               -0.09783505               -0.11132769                0.34009506                0.00156939               -0.01540559               -0.01347285
              10.00000000                7.00000000               86.00000000                0.78776275               -0.09431417               -0.11931936                0.32684529               -0.00035439               -0.00597641               -0.01521461
               0.00000000                8.00000000               86.00000000                0.73815524               -0.08099228               -0.08266880                0.27979136               -0.00044101                0.00148682               -0.00142686
               1.00000000                8.00000000               86.00000000                0.29434659               -0.08439365               -0.08089585                0.26031485               -0.00974678                0.02217754               -0.00825699
               2.00000000                8.00000000               86.00000000                0.10004259               -0.26398097               -0.07535049                0.25380711               -0.19364495                0.81500459                0.00484873
               3.00000000                8.00000000               86.00000000                0.13575623               -0.34290633               -0.02045503                0.39566084               -0.20869553                1.07185842               -0.17740316
               4.00000000                8.00000000               86.00000000                0.18516082               -0.19982611               -0.08021473                0.40183299               -0.07998850                0.39353676               -0.10079050
               5.00000000                8.00000000               86.00000000                0.24924225               -0.13951697               -0.10287873                0.39248889               -0.03554014                0.12174328               -0.05643578
               6.00000000                8.00000000               86.00000000                0.32506103               -0.11901764               -0.10648198                0.37531937               -0.01086374                0.01923650               -0.03664767
               7.00000000                8.00000000               86.00000000                0.41205373               -0.10902597               -0.10439571                0.35625688                0.00017278               -0.01676371               -0.02715967
               8.00000000                8.00000000               86.00000000                0.51168908               -0.10176629               -0.10176649                0.33816280                0.00407862               -0.02257327               -0.02255973
               9.00000000                8.00000000               86.00000000                0.62706397               -0.09571595               -0.10049874                0.32251378                0.00341871               -0.01332790               -0.02119787
              10.00000000                8.00000000               86.00000000                0.85085755               -0.09294343               -0.10039693                0.30945037                0.00264014               -0.00490879               -0.02278606
               0.00000000                9.00000000               86.00000000                0.80962592               -0.08177974               -0.08346659                0.28066647                0.00004342                0.00266354               -0.00006145
               1.00000000                9.00000000               86.00000000                0.39221024               -0.08649796               -0.07953128                0.26170501               -0.00642332                0.03278280               -0.00405828
               2.00000000                9.00000000               86.00000000                0.15168409               -0.24187973               -0.07211216                0.25832519               -0.15092495                0.76336355                0.00453401
               3.00000000                9.00000000               86.00000000                0.19107581               -0.32548828               -0.01162314                0.37967072               -0.14233189                1.03953935               -0.08226133
               4.00000000                9.00000000               86.00000000                0.24627899               -0.21675745               -0.06604851                0.38368834               -0.07124562                0.43644065               -0.05009741
               5.00000000                9.00000000               86.00000000                0.32019535               -0.15664990               -0.09040325                0.37519737               -0.02624699                0.14398866               -0.02946193
               6.00000000                9.00000000               86.00000000                0.40892089               -0.12801240               -0.09762398                0.35862903               -0.00579228                0.02767180               -0.01989880
               7.00000000                9.00000000               86.00000000                0.51076498               -0.11133077               -0.09783739                0.34010416                0.00156721               -0.01346432               -0.01540469
               8.00000000                9.00000000               86.00000000                0.62707007               -0.10049866               -0.09571729                0.32251406                0.00341911               -0.02120699               -0.01332121
               9.00000000                9.00000000               86.00000000                0.76132453               -0.09320826               -0.09320907                0.30724068                0.00243677               -0.01283203               -0.01282412
              10.00000000                9.00000000               86.00000000                0.92355569               -0.09027413               -0.09009496                0.29431520                0.00291339               -0.00448924               -0.01360448
               0.00000000               10.00000000               86.00000000                0.93049431               -0.08170596               -0.08420648                0.28247056                0.00348434                0.00547033                0.00067945
               1.00000000               10.00000000               86.00000000                0.73113733               -0.07974342               -0.07899096                0.26376578               -0.00143680                0.03942588               -0.00274392
               2.00000000               10.00000000               86.00000000                0.59359975               -0.15641987               -0.07154546                0.26148597               -0.11096996                0.75831226                0.00169890
               3.00000000               10.00000000               86.00000000                0.61461263               -0.27679871               -0.01324947                0.37227541               -0.07294351                1.03503379               -0.02352144
               4.00000000               10.00000000               86.00000000                0.64446649               -0.28145092               -0.05679795                0.37183546               -0.06719546                0.44737574               -0.01729030
               5.00000000               10.00000000               86.00000000                0.68434000               -0.20924899               -0.08186068                0.36199894               -0.02967814                0.14881615               -0.01105628
               6.00000000               10.00000000               86.00000000                0.73246037               -0.15279371               -0.09216527                0.34525550               -0.00913053                0.02753060               -0.00783866
               7.00000000               10.00000000               86.00000000                0.78775743               -0.11932410               -0.09431641                0.32685210               -0.00035601               -0.01520683               -0.00597235
               8.00000000               10.00000000               86.00000000                0.85087564               -0.10039635               -0.09294360                0.30944702                0.00264126               -0.02278914               -0.00490204
               9.00000000               10.00000000               86.00000000                0.92356720               -0.09009398               -0.09027431                0.29431443                0.00291374               -0.01360574               -0.00448324
              10.00000000               10.00000000               86.00000000                0.98491162               -0.08659071               -0.08659091                0.28144245                0.00440446               -0.00455140               -0.00455336
               0.00000000                0.00000000               87.00000000                0.75825421               -0.07527051               -0.07527617                0.25475380               -0.00022634                0.00128896                0.00127769
               1.00000000                0.00000000               87.00000000                0.50853428               -0.07244535               -0.07713493                0.25425803                0.00290724                0.01049286               -0.00088378
               2.00000000                0.00000000               87.00000000                0.50705271               -0.07245111               -0.07597082                0.25928705               -0.00053242                0.02678667               -0.00382876
               3.00000000                0.00000000               87.00000000                0.52683351               -0.07852028               -0.07688755                0.26624868               -0.00041222                0.03081456               -0.00171741
               4.00000000                0.00000000               87.00000000                0.55371870               -0.08410929               -0.07774624                0.27296355               -0.00025819                0.02594355               -0.00014973
               5.00000000                0.00000000               87.00000000                0.58738692               -0.08734025               -0.07866336                0.27784520               -0.00004506                0.01577719                0.00090465
               6.00000000                0.00000000               87.00000000                0.62805142               -0.08777431               -0.07953964                0.28041756                0.00000690                0.00523653                0.00142041
               7.00000000                0.00000000               87.00000000                0.67637845               -0.08626765               -0.08043083                0.28111788               -0.00006740               -0.00177940                0.00168271
               8.00000000                0.00000000               87.00000000                0.73393698               -0.08458052               -0.08148082                0.28103600               -0.00005409               -0.00358603                0.00226825
               9.00000000                0.00000000               87.00000000                0.80295153               -0.08430557               -0.08249478                0.28146674                0.00026806               -0.00151142                0.00367124
              10.00000000                0.00000000               87.00000000                0.92645838               -0.08465723               -0.08266003                0.28363751                0.00315708                0.00008166                0.00669073
               0.00000000                1.00000000               87.00000000                0.50845875               -0.07713971               -0.07245757                0.25428299                0.00291907               -0.00087004                0.01046878
               1.00000000                1.00000000               87.00000000                0.01000000               -0.08136019               -0.08136757                0.25304748                0.00907376                0.00120518                0.00117431
               2.00000000                1.00000000               87.00000000                0.01000000               -0.08587144               -0.10827017                0.25441331               -0.01341262               -0.00365108                0.08321739
               3.00000000                1.00000000               87.00000000                0.01223943               -0.08551585               -0.11809781                0.25677574               -0.02141271               -0.01042151                0.14215089
               4.00000000                1.00000000               87.00000000                0.04781266               -0.08415246               -0.08160743                0.25873289               -0.01112082               -0.01570569                0.01274539
               5.00000000                1.00000000               87.00000000                0.09216828               -0.08294103               -0.07781271                0.26016797               -0.00633228               -0.01798473                0.00112870
               6.00000000                1.00000000               87.00000000                0.14600662               -0.08222495               -0.07915456                0.26117659               -0.00739849               -0.01725896                0.00614693
               7.00000000                1.00000000               87.00000000                0.21064750               -0.08180437               -0.08311929                0.26206646               -0.00973585               -0.01384453                0.01774821
               8.00000000                1.00000000               87.00000000                0.28854203               -0.08109728               -0.08714973                0.26330262               -0.00979999               -0.00887113                0.03068303
               9.00000000                1.00000000               87.00000000                0.38331685               -0.08031570               -0.08996107                0.26539278               -0.00701108               -0.00426339                0.04286497
              10.00000000                1.00000000               87.00000000                0.72571475               -0.08004233               -0.08294703                0.26824919               -0.00210437               -0.00310352                0.05002939
               0.00000000                2.00000000               87.00000000                0.50698144               -0.07598957               -0.07246758                0.25934368               -0.00052862               -0.00382312                0.02678403
               1.00000000                2.00000000               87.00000000                0.01000000               -0.10828310               -0.08588912                0.25446443               -0.01339429                0.08323618               -0.00365874
               2.00000000                2.00000000               87.00000000                0.01090841               -0.12591839               -0.12592124                0.31098575               -0.03870622                0.12766337                0.12767408
               3.00000000                2.00000000               87.00000000                0.01000001               -0.08948225               -0.17993536                0.28968358               -0.02140203               -0.10026110                0.39812023
               4.00000000                2.00000000               87.00000000                0.01172288               -0.06947337               -0.17174168                0.26115926               -0.04868879               -0.18520256                0.61562391
               5.00000000                2.00000000               87.00000000                0.01000001               -0.07508874               -0.29428658                0.25347902               -0.18921311               -0.04561112                1.19430117
               6.00000000                2.00000000               87.00000000                0.02838027               -0.07998293               -0.32263056                0.25464731               -0.22639012               -0.01512094                1.14750679
               7.00000000                2.00000000               87.00000000                0.06100857               -0.07953336               -0.31070075                0.25944832               -0.22674602                0.00115458                1.00691995
               8.00000000                2.00000000               87.00000000                0.10213935               -0.07560571               -0.29441712                0.26558784               -0.20160579                0.00893101                0.90433425
               9.00000000                2.00000000               87.00000000                0.15451539               -0.07270810               -0.27157890                0.27206651               -0.15469044                0.00702821                0.84227086
              10.00000000                2.00000000               87.00000000                0.59512109               -0.07224075               -0.18712584                0.27596966               -0.10736977                0.00215721                0.83170436
               0.00000000                3.00000000               87.00000000                0.52685937               -0.07689141               -0.07852021                0.26626459               -0.00041726               -0.00171482                0.03085629
               1.00000000                3.00000000               87.00000000                0.01223437               -0.11815116               -0.08551717                0.25678617               -0.02139006                0.14215877               -0.01037886
               2.00000000                3.00000000               87.00000000                0.01000001               -0.17987572               -0.08947669                0.28986916               -0.02143098                0.39821571               -0.10020282
               3.00000000                3.00000000               87.00000000                0.01139602               -0.18677913               -0.18693124                0.37389966               -0.03708368                0.43176264                0.43193414
               4.00000000                3.00000000               87.00000000                0.01000001               -0.22820717               -0.32232172                0.35541465               -0.26131142                0.76998223                1.34351554
               5.00000000                3.00000000               87.00000000                0.02687628               -0.20651732               -0.36478289                0.52731370               -0.34865589                0.46836066                1.34061936
               6.00000000                3.00000000               87.00000000                0.05747664               -0.09818875               -0.38185936                0.47239112               -0.24238344               -0.24641926                1.29088232
               7.00000000                3.00000000               87.00000000                0.09489112               -0.04649731               -0.38668496                0.43871508               -0.21388750               -0.28629593                1.22620725
               8.00000000                3.00000000               87.00000000                0.14087676               -0.01460857               -0.38359771                0.41320240               -0.20894446               -0.19248046                1.16210593
               9.00000000                3.00000000               87.00000000                0.19801915               -0.00218095               -0.36607235                0.39545401               -0.14195914               -0.08935058                1.11652828
              10.00000000                3.00000000               87.00000000                0.61853565               -0.00159994               -0.31871100                0.38639201               -0.07076421               -0.02674750                1.09914046
               0.00000000                4.00000000               87.00000000                0.55378222               -0.07774244               -0.08409712                0.27294593               -0.00025718               -0.00015751                0.02596249
               1.00000000                4.00000000               87.00000000                0.04783709               -0.08159969               -0.08414132                0.25871387               -0.01110145                0.01280824               -0.01568226
               2.00000000                4.00000000               87.00000000                0.01170228               -0.17222602               -0.06949545                0.26103279               -0.04873775                0.61581978               -0.18513737
               3.00000000                4.00000000               87.00000000                0.01000001               -0.32231151               -0.22816432                0.35541937               -0.26155740                1.34414037                0.77018262
               4.00000000                4.00000000               87.00000000                0.02766024               -0.27642166               -0.27691343                0.53605397               -0.21188265                0.71835345                0.71842304
               5.00000000                4.00000000               87.00000000                0.05886067               -0.14556863               -0.18113814                0.49810531               -0.06475423               -0.06185840                0.16483751
               6.00000000                4.00000000               87.00000000                0.09567696               -0.11312191               -0.17241646                0.46607605               -0.03973834               -0.15522029                0.20848530
               7.00000000                4.00000000               87.00000000                0.13889484               -0.09249462               -0.19708592                0.43673793               -0.05231378               -0.14933930                0.32753266
               8.00000000                4.00000000               87.00000000                0.19004740               -0.07650515               -0.21923640                0.41041267               -0.07220667               -0.11365510                0.40388505
               9.00000000                4.00000000               87.00000000                0.25188851               -0.06041028               -0.23817329                0.38957121               -0.06678895               -0.05574994                0.44601841
              10.00000000                4.00000000               87.00000000                0.64756441               -0.05047753               -0.30355954                0.37556788               -0.06703247               -0.01895594                0.45192022
               0.00000000                5.00000000               87.00000000                0.58732802               -0.07867519               -0.08734251                0.27786606               -0.00004074                0.00089943                0.01574593
               1.00000000                5.00000000               87.00000000                0.09216585               -0.07782495               -0.08294381                0.26018688               -0.00635600                0.00114982               -0.01801103
               2.00000000                5.00000000               87.00000000                0.01000001               -0.29443965               -0.07513965                0.25359371               -0.18924967                1.19427871               -0.04571176
               3.00000000                5.00000000               87.00000000                0.02686302               -0.36476715               -0.20639580                0.52739729               -0.34825449                1.34075299                0.46814107
               4.00000000                5.00000000               87.00000000                0.05886042               -0.18095503               -0.14556287                0.49802508               -0.06479331                0.16486830               -0.06185494
               5.00000000                5.00000000               87.00000000                0.09777504               -0.13619758               -0.13621382                0.47351410               -0.03684686               -0.03689168               -0.03695493
               6.00000000                5.00000000               87.00000000                0.14301352               -0.12197846               -0.13824262                0.44763262               -0.03099884               -0.07597454                0.02809276
               7.00000000                5.00000000               87.00000000                0.19510789               -0.11095758               -0.14243028                0.42130795               -0.03050740               -0.08256577                0.08047853
               8.00000000                5.00000000               87.00000000                0.25529757               -0.10127567               -0.14905940                0.39716218               -0.03105055               -0.06589581                0.11977281
               9.00000000                5.00000000               87.00000000                0.32647319               -0.08721811               -0.16716061                0.37717273               -0.02431693               -0.03364923                0.14309274
              10.00000000                5.00000000               87.00000000                0.68762879               -0.07795789               -0.22087916                0.36176328               -0.03005550               -0.01222136                0.14682294
               0.00000000                6.00000000               87.00000000                0.62796457               -0.07956037               -0.08778631                0.28046592                0.00000478                0.00142567                0.00522167
               1.00000000                6.00000000               87.00000000                0.14597426               -0.07917690               -0.08223834                0.26122087               -0.00742272                0.00610873               -0.01727245
               2.00000000                6.00000000               87.00000000                0.02837096               -0.32271887               -0.07998199                0.25461952               -0.22634344                1.14741315               -0.01516746
               3.00000000                6.00000000               87.00000000                0.05746755               -0.38185313               -0.09820631                0.47244310               -0.24215103                1.29081461               -0.24627434
               4.00000000                6.00000000               87.00000000                0.09568772               -0.17230507               -0.11313869                0.46602641               -0.03975031                0.20857313               -0.15509088
               5.00000000                6.00000000               87.00000000                0.14303713               -0.13820809               -0.12196961                0.44756689               -0.03101650                0.02811248               -0.07594354
               6.00000000                6.00000000               87.00000000                0.19783067               -0.12337292               -0.12337489                0.42401408               -0.02057652               -0.03345818               -0.03344814
               7.00000000                6.00000000               87.00000000                0.26033338               -0.11380696               -0.12211889                0.39943622               -0.01306397               -0.05108293               -0.00611230
               8.00000000                6.00000000               87.00000000                0.33190503               -0.10563928               -0.12285898                0.37658142               -0.00767279               -0.04427531                0.01192075
               9.00000000                6.00000000               87.00000000                0.41554664               -0.09561252               -0.13193878                0.35731455               -0.00419340               -0.02334279                0.02133464
              10.00000000                6.00000000               87.00000000                0.73575732               -0.08968256               -0.15707508                0.34192397               -0.00892858               -0.00893511                0.02141999
               0.00000000                7.00000000               87.00000000                0.67639003               -0.08043634               -0.08627135                0.28113368               -0.00007278                0.00168705               -0.00176368
               1.00000000                7.00000000               87.00000000                0.21067513               -0.08311699               -0.08181000                0.26207623               -0.00973050                0.01772851               -0.01382659
               2.00000000                7.00000000               87.00000000                0.06101630               -0.31064987               -0.07950996                0.25936246               -0.22673563                1.00700549                0.00122249
               3.00000000                7.00000000               87.00000000                0.09491965               -0.38665112               -0.04655246                0.43863914               -0.21377285                1.22626446               -0.28612929
               4.00000000                7.00000000               87.00000000                0.13891034               -0.19711500               -0.09251153                0.43674314               -0.05224480                0.32745449               -0.14930621
               5.00000000                7.00000000               87.00000000                0.19509666               -0.14244989               -0.11095830                0.42131408               -0.03049625                0.08045340               -0.08254721
               6.00000000                7.00000000               87.00000000                0.26032431               -0.12211907               -0.11380555                0.39942903               -0.01307924               -0.00612199               -0.05107040
               7.00000000                7.00000000               87.00000000                0.33434042               -0.11153193               -0.11153622                0.37616638               -0.00264851               -0.03410608               -0.03409862
               8.00000000                7.00000000               87.00000000                0.41859091               -0.10359407               -0.10978031                0.35439217                0.00254670               -0.03365569               -0.02444259
               9.00000000                7.00000000               87.00000000                0.51638678               -0.09597850               -0.11182616                0.33585882                0.00287324               -0.01838296               -0.02023509
              10.00000000                7.00000000               87.00000000                0.79035451               -0.09206451               -0.11958374                0.32081219                0.00028440               -0.00700311               -0.02150859
               0.00000000                8.00000000               87.00000000                0.73392053               -0.08148000               -0.08457982                0.28103989               -0.00005468                0.00227259               -0.00358166
               1.00000000                8.00000000               87.00000000                0.28857136               -0.08714413               -0.08109709                0.26330344               -0.00979189                0.03071458               -0.00886529
               2.00000000                8.00000000               87.00000000                0.10215144               -0.29439456               -0.07560485                0.26556874               -0.20161746                0.90436964                0.00896559
               3.00000000                8.00000000               87.00000000                0.14089334               -0.38356494               -0.01460015                0.41316686               -0.20895171                1.16206632               -0.19254142
               4.00000000                8.00000000               87.00000000                0.19004925               -0.21924000               -0.07650902                0.41043808               -0.07219770                0.40385334               -0.11369222
               5.00000000                8.00000000               87.00000000                0.25528231               -0.14909047               -0.10128764                0.39721700               -0.03105344                0.11978444               -0.06591063
               6.00000000                8.00000000               87.00000000                0.33189049               -0.12286776               -0.10564624                0.37660445               -0.00768634                0.01191711               -0.04427421
               7.00000000                8.00000000               87.00000000                0.41860841               -0.10977105               -0.10359567                0.35437945                0.00253625               -0.02444830               -0.03364832
               8.00000000                8.00000000               87.00000000                0.51682553               -0.10071012               -0.10071598                0.33356770                0.00579535               -0.02813582               -0.02812397
               9.00000000                8.00000000               87.00000000                0.63024508               -0.09361941               -0.09912665                0.31576839                0.00437195               -0.01585558               -0.02604368
              10.00000000                8.00000000               87.00000000                0.85190620               -0.09047513               -0.09851549                0.30107958                0.00329039               -0.00581635               -0.02724677
               0.00000000                9.00000000               87.00000000                0.80295352               -0.08249431               -0.08430642                0.28147194                0.00026791                0.00367368               -0.00151418
               1.00000000                9.00000000               87.00000000                0.38330052               -0.08995844               -0.08031598                0.26539491               -0.00700943                0.04288339               -0.00426788
               2.00000000                9.00000000               87.00000000                0.15454291               -0.27152862               -0.07271650                0.27206903               -0.15469273                0.84226482                0.00699944
               3.00000000                9.00000000               87.00000000                0.19802504               -0.36604507               -0.00216085                0.39539142               -0.14192392                1.11646570               -0.08938341
               4.00000000                9.00000000               87.00000000                0.25186375               -0.23821878               -0.06040502                0.38960531               -0.06679403                0.44601378               -0.05576407
               5.00000000                9.00000000               87.00000000                0.32645331               -0.16719256               -0.08722976                0.37721986               -0.02433480                0.14311793               -0.03367880
               6.00000000                9.00000000               87.00000000                0.41555800               -0.13194178               -0.09561844                0.35732596               -0.00419879                0.02135206               -0.02335420
               7.00000000                9.00000000               87.00000000                0.51640485               -0.11181630               -0.09597486                0.33583980                0.00287030               -0.02022500               -0.01838346
               8.00000000                9.00000000               87.00000000                0.63028000               -0.09911865               -0.09361525                0.31574892                0.00436836               -0.02604629               -0.01584763
               9.00000000                9.00000000               87.00000000                0.76117207               -0.09076284               -0.09076380                0.29850826                0.00293712               -0.01500826               -0.01499982
              10.00000000                9.00000000               87.00000000                0.92256800               -0.08744044               -0.08711437                0.28406504                0.00337551               -0.00531934               -0.01558990
               0.00000000               10.00000000               87.00000000                0.92642652               -0.08265788               -0.08465829                0.28363615                0.00315662                0.00668697                0.00008273
               1.00000000               10.00000000               87.00000000                0.72572501               -0.08294063               -0.08004240                0.26824348               -0.00210614                0.05002828               -0.00310423
               2.00000000               10.00000000               87.00000000                0.59512923               -0.18706325               -0.07224808                0.27596940               -0.10735483                0.83168690                0.00213675
               3.00000000               10.00000000               87.00000000                0.61854870               -0.31868446               -0.00157647                0.38633608               -0.07073489                1.09910791               -0.02676254
               4.00000000               10.00000000               87.00000000                0.64755479               -0.30362936               -0.05046525                0.37560989               -0.06704395                0.45192677               -0.01896863
               5.00000000               10.00000000               87.00000000                0.68763346               -0.22092262               -0.07796765                0.36179484               -0.03007889                0.14684946               -0.01224388
               6.00000000               10.00000000               87.00000000                0.73576852               -0.15707271               -0.08968509                0.34191902               -0.00892625                0.02144240               -0.00894564
               7.00000000               10.00000000               87.00000000                0.79036109               -0.11957098               -0.09205796                0.32079061                0.00028825               -0.02149148               -0.00700592
               8.00000000               10.00000000               87.00000000                0.85190565               -0.09850613               -0.09046704                0.30105512                0.00328663               -0.02724062               -0.00581340
               9.00000000               10.00000000               87.00000000                0.92255807               -0.08711014               -0.08743795                0.28405377                0.00337129               -0.01559230               -0.00531222
              10.00000000               10.00000000               87.00000000                0.98382839               -0.08325689               -0.08325866                0.26970594                0.00495921               -0.00537589               -0.00537215
               0.00000000                0.00000000               88.00000000                0.75823317               -0.07347131               -0.07347174                0.25224710                0.00021145                0.00185937                0.00186889
               1.00000000                0.00000000               88.00000000                0.50886970               -0.06814797               -0.07748903                0.25186895                0.00674275                0.01467457               -0.00100874
               2.00000000                0.00000000               88.00000000                0.50791627               -0.06823566               -0.07463991                0.25845046                0.00004815                0.03661390               -0.00479112
               3.00000000                0.00000000               88.00000000                0.52802416               -0.07903360               -0.07613422                0.26714091                0.00052919                0.04130132               -0.00183971
               4.00000000                0.00000000               88.00000000                0.55482595               -0.08808274               -0.07732019                0.27517459                0.00074222                0.03381675                0.00025294
               5.00000000                0.00000000               88.00000000                0.58794164               -0.09297966               -0.07856714                0.28057674                0.00101154                0.01937136                0.00163094
               6.00000000                0.00000000               88.00000000                0.62740601               -0.09333163               -0.07968548                0.28283927                0.00098498                0.00461664                0.00230328
               7.00000000                0.00000000               88.00000000                0.67378820               -0.09047989               -0.08077910                0.28268294                0.00071063               -0.00528826                0.00264335
               8.00000000                0.00000000               88.00000000                0.72864898               -0.08689988               -0.08204532                0.28156677                0.00045995               -0.00798168                0.00334089
               9.00000000                0.00000000               88.00000000                0.79464161               -0.08505315               -0.08332047                0.28117520                0.00054625               -0.00455337                0.00508147
              10.00000000                0.00000000               88.00000000                0.92134158               -0.08481741               -0.08375216                0.28363002                0.00234401               -0.00147686                0.00784299
               0.00000000                1.00000000               88.00000000                0.50891206               -0.07749107               -0.06815547                0.25188295                0.00674739               -0.00102623                0.01468636
               1.00000000                1.00000000               88.00000000                0.01000000               -0.08553043               -0.08553556                0.25059694                0.02013898                0.00248687                0.00251342
               2.00000000                1.00000000               88.00000000                0.01000000               -0.09251213               -0.11744234                0.25289970               -0.00324990               -0.00235945                0.10912531
               3.00000000                1.00000000               88.00000000                0.01357833               -0.08926192               -0.12125895                0.25660510               -0.00459046               -0.00987110                0.16297034
               4.00000000                1.00000000               88.00000000                0.04895165               -0.08534574               -0.07979247                0.25991560               -0.00122784               -0.01592376                0.02395765
               5.00000000                1.00000000               88.00000000                0.09256153               -0.08266309               -0.07715488                0.26253868                0.00280135               -0.01858839                0.00913102
               6.00000000                1.00000000               88.00000000                0.14495914               -0.08151042               -0.08041151                0.26448180               -0.00165125               -0.01795208                0.01515274
               7.00000000                1.00000000               88.00000000                0.20731846               -0.08147586               -0.08593171                0.26613293               -0.00737408               -0.01438588                0.02890709
               8.00000000                1.00000000               88.00000000                0.28200305               -0.08157607               -0.09117854                0.26805361               -0.00977613               -0.00901795                0.04388502
               9.00000000                1.00000000               88.00000000                0.37305085               -0.08159111               -0.09488206                0.27096247               -0.00779028               -0.00403270                0.05772837
              10.00000000                1.00000000               88.00000000                0.71937227               -0.08166506               -0.08753170                0.27472916               -0.00342742               -0.00309470                0.06464218
               0.00000000                2.00000000               88.00000000                0.50789511               -0.07465665               -0.06825371                0.25850617                0.00005312               -0.00479681                0.03660439
               1.00000000                2.00000000               88.00000000                0.01000000               -0.11744156               -0.09253063                0.25294867               -0.00325021                0.10911015               -0.00235553
               2.00000000                2.00000000               88.00000000                0.01164731               -0.13454841               -0.13461597                0.29130286               -0.00190702                0.14061235                0.14070977
               3.00000000                2.00000000               88.00000000                0.01086049               -0.09626839               -0.20188413                0.29946170                0.01662965               -0.12270498                0.45593871
               4.00000000                2.00000000               88.00000000                0.01300783               -0.07585678               -0.15489139                0.27047262                0.01091858               -0.19665716                0.67907172
               5.00000000                2.00000000               88.00000000                0.01000000               -0.07312315               -0.32394636                0.26493782               -0.17906240               -0.04599527                1.35667358
               6.00000000                2.00000000               88.00000000                0.03064088               -0.07956645               -0.35575270                0.26931573               -0.22852543               -0.00927798                1.27568966
               7.00000000                2.00000000               88.00000000                0.06387036               -0.07990698               -0.34310147                0.27730835               -0.23174427                0.00864344                1.11569497
               8.00000000                2.00000000               88.00000000                0.10571591               -0.07683057               -0.32639690                0.28613843               -0.20662710                0.01591843                0.99682432
               9.00000000                2.00000000               88.00000000                0.15916645               -0.07450344               -0.30261399                0.29470647               -0.15494282                0.01115894                0.92190074
              10.00000000                2.00000000               88.00000000                0.59757012               -0.07422598               -0.22130267                0.29933806               -0.09982020                0.00315858                0.90390738
               0.00000000                3.00000000               88.00000000                0.52805505               -0.07614646               -0.07904057                0.26716240                0.00052121               -0.00184895                0.04126754
               1.00000000                3.00000000               88.00000000                0.01359144               -0.12112897               -0.08926868                0.25662335               -0.00463010                0.16308087               -0.00989734
               2.00000000                3.00000000               88.00000000                0.01086328               -0.20190838               -0.09626284                0.29954532                0.01674099                0.45625436               -0.12282243
               3.00000000                3.00000000               88.00000000                0.01299207               -0.17741451               -0.17702956                0.32746207                0.06348422                0.48046558                0.48035929
               4.00000000                3.00000000               88.00000000                0.01000000               -0.23777723               -0.35736820                0.37695886               -0.23781122                0.79073863                1.38985497
               5.00000000                3.00000000               88.00000000                0.03016852               -0.24883579               -0.40724180                0.57784514               -0.38100656                0.51808540                1.44846216
               6.00000000                3.00000000               88.00000000                0.06192619               -0.10010095               -0.42468246                0.48495311               -0.23562886               -0.29487139                1.41294324
               7.00000000                3.00000000               88.00000000                0.10061760               -0.04087092               -0.42911670                0.45324886               -0.20859663               -0.30922637                1.33099912
               8.00000000                3.00000000               88.00000000                0.14807967               -0.00837649               -0.42470940                0.42842883               -0.20441324               -0.20638185                1.24856443
               9.00000000                3.00000000               88.00000000                0.20733556                0.00660471               -0.40621078                0.40979827               -0.13762195               -0.09582663                1.18662673
              10.00000000                3.00000000               88.00000000                0.62371622                0.00918161               -0.36096295                0.39954799               -0.06563529               -0.03036710                1.15430203
               0.00000000                4.00000000               88.00000000                0.55483066               -0.07731093               -0.08806523                0.27513299                0.00073697                0.00025235                0.03381225
               1.00000000                4.00000000               88.00000000                0.04898737               -0.07971841               -0.08532802                0.25987322               -0.00120931                0.02394921               -0.01592048
               2.00000000                4.00000000               88.00000000                0.01302672               -0.15410423               -0.07577939                0.27006704                0.01105937                0.67906390               -0.19678230
               3.00000000                4.00000000               88.00000000                0.01000000               -0.35736874               -0.23781841                0.37651712               -0.23760389                1.39046340                0.79068594
               4.00000000                4.00000000               88.00000000                0.03108585               -0.33492753               -0.33416866                0.56958078               -0.26021107                0.78138887                0.78143329
               5.00000000                4.00000000               88.00000000                0.06344461               -0.15356798               -0.19690470                0.50903785               -0.04643862               -0.09843916                0.13771715
               6.00000000                4.00000000               88.00000000                0.10120555               -0.11343301               -0.18881311                0.47559753               -0.01806368               -0.18147949                0.20653430
               7.00000000                4.00000000               88.00000000                0.14508167               -0.08963616               -0.21636974                0.44425701               -0.03729160               -0.16961111                0.33128476
               8.00000000                4.00000000               88.00000000                0.19665323               -0.07110881               -0.23964728                0.41587382               -0.06128276               -0.12746905                0.40902701
               9.00000000                4.00000000               88.00000000                0.25909975               -0.05365962               -0.25997842                0.39323904               -0.05990007               -0.06157603                0.44977782
              10.00000000                4.00000000               88.00000000                0.65147215               -0.04344373               -0.32375756                0.37784098               -0.06460850               -0.02065106                0.45018638
               0.00000000                5.00000000               88.00000000                0.58800070               -0.07855564               -0.09296344                0.28054722                0.00101472                0.00162583                0.01939669
               1.00000000                5.00000000               88.00000000                0.09258330               -0.07714030               -0.08265085                0.26250781                0.00281132                0.00917308               -0.01856062
               2.00000000                5.00000000               88.00000000                0.01000000               -0.32369598               -0.07312577                0.26490497               -0.17914841                1.35677435               -0.04594212
               3.00000000                5.00000000               88.00000000                0.03017251               -0.40721179               -0.24911828                0.57774244               -0.38183953                1.44851506                0.51811286
               4.00000000                5.00000000               88.00000000                0.06343871               -0.19714251               -0.15352634                0.50911241               -0.04648601                0.13762014               -0.09841814
               5.00000000                5.00000000               88.00000000                0.10390953               -0.14175443               -0.14172566                0.48283514               -0.01737355               -0.05543084               -0.05551529
               6.00000000                5.00000000               88.00000000                0.15029994               -0.12414991               -0.14628879                0.45485344               -0.01696308               -0.09375779                0.01727819
               7.00000000                5.00000000               88.00000000                0.20288983               -0.11016420               -0.15203445                0.42605333               -0.02049911               -0.09803744                0.07375616
               8.00000000                5.00000000               88.00000000                0.26307341               -0.09836022               -0.15986376                0.39940308               -0.02457343               -0.07649948                0.11582234
               9.00000000                5.00000000               88.00000000                0.33423503               -0.08292185               -0.17878265                0.37733572               -0.02138538               -0.03824494                0.14034131
              10.00000000                5.00000000               88.00000000                0.69163435               -0.07313225               -0.23247599                0.36031993               -0.02981654               -0.01347075                0.14317725
               0.00000000                6.00000000               88.00000000                0.62737522               -0.07969225               -0.09333741                0.28286664                0.00098807                0.00229471                0.00461336
               1.00000000                6.00000000               88.00000000                0.14496143               -0.08041337               -0.08151880                0.26450622               -0.00165923                0.01517360               -0.01795580
               2.00000000                6.00000000               88.00000000                0.03062973               -0.35575012               -0.07960879                0.26937319               -0.22858137                1.27575578               -0.00931825
               3.00000000                6.00000000               88.00000000                0.06192124               -0.42465856               -0.10009825                0.48510903               -0.23591562                1.41309504               -0.29505161
               4.00000000                6.00000000               88.00000000                0.10122394               -0.18878634               -0.11341956                0.47556078               -0.01805536                0.20646489               -0.18142200
               5.00000000                6.00000000               88.00000000                0.15028778               -0.14629350               -0.12415937                0.45488902               -0.01693264                0.01726219               -0.09375885
               6.00000000                6.00000000               88.00000000                0.20632546               -0.12664534               -0.12664267                0.42879229               -0.01097591               -0.04714713               -0.04718725
               7.00000000                6.00000000               88.00000000                0.26912762               -0.11404768               -0.12605832                0.40145247               -0.00646711               -0.06371790               -0.01707331
               8.00000000                6.00000000               88.00000000                0.34023089               -0.10397189               -0.12712456                0.37598094               -0.00338096               -0.05312731                0.00293229
               9.00000000                6.00000000               88.00000000                0.42324470               -0.09288727               -0.13629969                0.35462363               -0.00211284               -0.02730011                0.01363836
              10.00000000                6.00000000               88.00000000                0.73952824               -0.08660114               -0.16148919                0.33775899               -0.00859674               -0.01020782                0.01440344
               0.00000000                7.00000000               88.00000000                0.67375355               -0.08079184               -0.09049301                0.28272042                0.00070975                0.00264091               -0.00530348
               1.00000000                7.00000000               88.00000000                0.20728362               -0.08595085               -0.08149030                0.26616642               -0.00739247                0.02887980               -0.01440076
               2.00000000                7.00000000               88.00000000                0.06388400               -0.34310715               -0.07993038                0.27736456               -0.23174976                1.11567227                0.00860764
               3.00000000                7.00000000               88.00000000                0.10063563               -0.42907268               -0.04084446                0.45309616               -0.20860554                1.33096516               -0.30921585
               4.00000000                7.00000000               88.00000000                0.14509414               -0.21632820               -0.08962019                0.44418027               -0.03730930                0.33125861               -0.16963067
               5.00000000                7.00000000               88.00000000                0.20287976               -0.15203958               -0.11018211                0.42609367               -0.02051039                0.07375151               -0.09798127
               6.00000000                7.00000000               88.00000000                0.26911399               -0.12606785               -0.11405912                0.40148603               -0.00646310               -0.01707906               -0.06370244
               7.00000000                7.00000000               88.00000000                0.34293868               -0.11220403               -0.11220655                0.37544880                0.00183890               -0.04475937               -0.04475647
               8.00000000                7.00000000               88.00000000                0.42597454               -0.10234394               -0.11050324                0.35113716                0.00554302               -0.04126797               -0.03352191
               9.00000000                7.00000000               88.00000000                0.52225137               -0.09369997               -0.11240982                0.33063344                0.00444554               -0.02185410               -0.02808469
              10.00000000                7.00000000               88.00000000                0.79294767               -0.08944813               -0.11996810                0.31430141                0.00096826               -0.00823816               -0.02850581
               0.00000000                8.00000000               88.00000000                0.72862115               -0.08205399               -0.08690718                0.28159138                0.00045667                0.00334371               -0.00797678
               1.00000000                8.00000000               88.00000000                0.28203012               -0.09118802               -0.08158400                0.26807146               -0.00978188                0.04387913               -0.00901302
               2.00000000                8.00000000               88.00000000                0.10570553               -0.32641883               -0.07681977                0.28610593               -0.20660082                0.99686038                0.01595319
               3.00000000                8.00000000               88.00000000                0.14808776               -0.42468867               -0.00838583                0.42843440               -0.20440326                1.24851608               -0.20636372
               4.00000000                8.00000000               88.00000000                0.19663205               -0.23960364               -0.07111671                0.41588148               -0.06131173                0.40899344               -0.12746548
               5.00000000                8.00000000               88.00000000                0.26308621               -0.15985790               -0.09837003                0.39942481               -0.02460412                0.11586113               -0.07648917
               6.00000000                8.00000000               88.00000000                0.34022690               -0.12712404               -0.10397867                0.37599488               -0.00338233                0.00290987               -0.05312239
               7.00000000                8.00000000               88.00000000                0.42596297               -0.11050031               -0.10234744                0.35113625                0.00554446               -0.03354196               -0.04126799
               8.00000000                8.00000000               88.00000000                0.52191384               -0.09945933               -0.09946219                0.32797574                0.00787297               -0.03463842               -0.03464362
               9.00000000                8.00000000               88.00000000                0.63257423               -0.09130896               -0.09771732                0.30836277                0.00549262               -0.01880571               -0.03162266
              10.00000000                8.00000000               88.00000000                0.85241270               -0.08782204               -0.09671263                0.29253655                0.00394836               -0.00693728               -0.03220269
               0.00000000                9.00000000               88.00000000                0.79464442               -0.08332497               -0.08505683                0.28119177                0.00054417                0.00508470               -0.00454833
               1.00000000                9.00000000               88.00000000                0.37304336               -0.09488989               -0.08159267                0.27097096               -0.00778504                0.05773480               -0.00403016
               2.00000000                9.00000000               88.00000000                0.15915864               -0.30263087               -0.07448732                0.29467937               -0.15494207                0.92188042                0.01117647
               3.00000000                9.00000000               88.00000000                0.20733988               -0.40618701                0.00657704                0.40981109               -0.13760669                1.18654388               -0.09589812
               4.00000000                9.00000000               88.00000000                0.25909063               -0.25994862               -0.05368210                0.39328205               -0.05989374                0.44978075               -0.06153712
               5.00000000                9.00000000               88.00000000                0.33422601               -0.17878800               -0.08292833                0.37736297               -0.02139630                0.14035787               -0.03825319
               6.00000000                9.00000000               88.00000000                0.42324430               -0.13629754               -0.09289162                0.35463347               -0.00211520                0.01362414               -0.02731892
               7.00000000                9.00000000               88.00000000                0.52224213               -0.11240468               -0.09370321                0.33063120                0.00444530               -0.02809579               -0.02185263
               8.00000000                9.00000000               88.00000000                0.63256420               -0.09771305               -0.09130938                0.30835668                0.00549133               -0.03161889               -0.01881005
               9.00000000                9.00000000               88.00000000                0.75924616               -0.08827365               -0.08827458                0.28945931                0.00352528               -0.01749124               -0.01750014
              10.00000000                9.00000000               88.00000000                0.92055293               -0.08458133               -0.08422674                0.27397733                0.00380241               -0.00632189               -0.01778585
               0.00000000               10.00000000               88.00000000                0.92131115               -0.08375183               -0.08481982                0.28363373                0.00234404                0.00784653               -0.00147882
               1.00000000               10.00000000               88.00000000                0.71937252               -0.08754122               -0.08166419                0.27472684               -0.00341361                0.06465062               -0.00310018
               2.00000000               10.00000000               88.00000000                0.59758122               -0.22131176               -0.07420957                0.29933795               -0.09983568                0.90386450                0.00316333
               3.00000000               10.00000000               88.00000000                0.62370455               -0.36092853                0.00915902                0.39953375               -0.06563734                1.15421508               -0.03042453
               4.00000000               10.00000000               88.00000000                0.65146082               -0.32374069               -0.04346579                0.37788338               -0.06459039                0.45017616               -0.02063694
               5.00000000               10.00000000               88.00000000                0.69162715               -0.23249676               -0.07313750                0.36034624               -0.02981666                0.14317879               -0.01347401
               6.00000000               10.00000000               88.00000000                0.73953034               -0.16148886               -0.08660724                0.33776506               -0.00859960                0.01440125               -0.01022378
               7.00000000               10.00000000               88.00000000                0.79294764               -0.11996005               -0.08945217                0.31429686                0.00097073               -0.02850358               -0.00823867
               8.00000000               10.00000000               88.00000000                0.85236985               -0.09670653               -0.08782148                0.29252799                0.00394912               -0.03219964               -0.00694156
               9.00000000               10.00000000               88.00000000                0.92054065               -0.08422407               -0.08458050                0.27397253                0.00380145               -0.01777895               -0.00632981
              10.00000000               10.00000000               88.00000000                0.98220440               -0.08005376               -0.08005472                0.25862794                0.00536441               -0.00634660               -0.00635147
               0.00000000                0.00000000               89.00000000                0.75814415               -0.07107711               -0.07108077                0.24860483                0.00086948                0.00265248                0.00264239
               1.00000000                0.00000000               89.00000000                0.50922919               -0.06276632               -0.07790851                0.24857466                0.01178493                0.02000443               -0.00110297
               2.00000000                0.00000000               89.00000000                0.50883328               -0.06340858               -0.07289155                0.25733584                0.00093588                0.04848393               -0.00579806
               3.00000000                0.00000000               89.00000000                0.52937574               -0.08049540               -0.07517969                0.26816151                0.00192444                0.05323286               -0.00176320
               4.00000000                0.00000000               89.00000000                0.55622106               -0.09385879               -0.07676695                0.27760241                0.00218260                0.04192652                0.00095866
               5.00000000                0.00000000               89.00000000                0.58870147               -0.10065874               -0.07843021                0.28343544                0.00247630                0.02182314                0.00269524
               6.00000000                0.00000000               89.00000000                0.62665475               -0.10067753               -0.07987006                0.28517287                0.00227060                0.00168683                0.00353537
               7.00000000                0.00000000               89.00000000                0.67057755               -0.09587750               -0.08120349                0.28376507                0.00165911               -0.01177594                0.00396492
               8.00000000                0.00000000               89.00000000                0.72215210               -0.08964389               -0.08269080                0.28110167                0.00103277               -0.01541441                0.00478041
               9.00000000                0.00000000               89.00000000                0.78421962               -0.08559591               -0.08424972                0.27937947                0.00081889               -0.00982282                0.00699902
              10.00000000                0.00000000               89.00000000                0.91484693               -0.08453303               -0.08492667                0.28190702                0.00087300               -0.00449019                0.00885660
               0.00000000                1.00000000               89.00000000                0.50920367               -0.07790512               -0.06277130                0.24857498                0.01178257               -0.00109843                0.02001109
               1.00000000                1.00000000               89.00000000                0.01000000               -0.09086299               -0.09086955                0.24743466                0.03454734                0.00444143                0.00445029
               2.00000000                1.00000000               89.00000000                0.01000000               -0.10088254               -0.12784315                0.25127601                0.01119436                0.00004767                0.12608458
               3.00000000                1.00000000               89.00000000                0.01515041               -0.09370684               -0.13412576                0.25694832                0.00737424               -0.00801916                0.19593285
               4.00000000                1.00000000               89.00000000                0.05055054               -0.08650102               -0.07802254                0.26212840                0.01616237               -0.01474090                0.03990314
               5.00000000                1.00000000               89.00000000                0.09347401               -0.08210334               -0.07685605                0.26644032                0.01628748               -0.01783300                0.02340603
               6.00000000                1.00000000               89.00000000                0.14425497               -0.08064264               -0.08262012                0.26975873                0.00633856               -0.01749412                0.03137122
               7.00000000                1.00000000               89.00000000                0.20389408               -0.08129864               -0.09036163                0.27241879               -0.00445662               -0.01405248                0.04760975
               8.00000000                1.00000000               89.00000000                0.27478634               -0.08251154               -0.09711558                0.27506811               -0.01010589               -0.00848263                0.06463195
               9.00000000                1.00000000               89.00000000                0.36134807               -0.08351078               -0.10189078                0.27877049               -0.00910101               -0.00323489                0.07994882
              10.00000000                1.00000000               89.00000000                0.71202706               -0.08398456               -0.09394978                0.28344814               -0.00584532               -0.00259084                0.08556857
               0.00000000                2.00000000               89.00000000                0.50891997               -0.07287918               -0.06340900                0.25732181                0.00092722               -0.00580482                0.04848114
               1.00000000                2.00000000               89.00000000                0.01000000               -0.12780642               -0.10088381                0.25126247                0.01116892                0.12607482                0.00005455
               2.00000000                2.00000000               89.00000000                0.01254939               -0.15463681               -0.15473294                0.27252220                0.02714544                0.17462331                0.17464861
               3.00000000                2.00000000               89.00000000                0.01222263               -0.10020733               -0.20577507                0.28884235                0.08661399               -0.12819580                0.47731650
               4.00000000                2.00000000               89.00000000                0.01000001               -0.07116801               -0.27207724                0.28558393               -0.00339957               -0.20282490                0.77283725
               5.00000000                2.00000000               89.00000000                0.01000000               -0.07369836               -0.38740120                0.28721782               -0.18276696               -0.03700620                1.54770369
               6.00000000                2.00000000               89.00000000                0.03442735               -0.08067584               -0.39045009                0.29715585               -0.23031526                0.00293006                1.40247516
               7.00000000                2.00000000               89.00000000                0.06864434               -0.08178993               -0.37630188                0.30916623               -0.23476238                0.02031211                1.22261818
               8.00000000                2.00000000               89.00000000                0.11146603               -0.07947580               -0.35818668                0.32010984               -0.20895267                0.02568767                1.08636107
               9.00000000                2.00000000               89.00000000                0.16623121               -0.07785147               -0.33315568                0.32981167               -0.15162967                0.01684603                0.99635658
              10.00000000                2.00000000               89.00000000                0.60132647               -0.07791490               -0.25697564                0.33491702               -0.08847297                0.00466824                0.96917633
               0.00000000                3.00000000               89.00000000                0.52940580               -0.07515794               -0.08048828                0.26812012                0.00192230               -0.00176856                0.05319425
               1.00000000                3.00000000               89.00000000                0.01517306               -0.13384482               -0.09369966                0.25691215                0.00727534                0.19601383               -0.00804160
               2.00000000                3.00000000               89.00000000                0.01223977               -0.20541736               -0.10021909                0.28851184                0.08613940                0.47720711               -0.12846439
               3.00000000                3.00000000               89.00000000                0.01000001               -0.25244736               -0.25242879                0.27637302               -0.07201483                0.53721759                0.53686154
               4.00000000                3.00000000               89.00000000                0.01000000               -0.28730011               -0.41637386                0.65138971               -0.28200033                0.93937863                1.56807919
               5.00000000                3.00000000               89.00000000                0.03519691               -0.20122092               -0.45530820                0.59474329               -0.27997450                0.55025345                1.56818366
               6.00000000                3.00000000               89.00000000                0.06854934               -0.08185320               -0.47004077                0.48327571               -0.19468720               -0.36453347                1.52875986
               7.00000000                3.00000000               89.00000000                0.10889866               -0.03151694               -0.47116030                0.45928825               -0.19958349               -0.32650473                1.42706394
               8.00000000                3.00000000               89.00000000                0.15807311               -0.00193518               -0.46315446                0.43854512               -0.19529557               -0.21711521                1.32300252
               9.00000000                3.00000000               89.00000000                0.21960392                0.01388780               -0.44216920                0.42054532               -0.12963729               -0.10138883                1.24158581
              10.00000000                3.00000000               89.00000000                0.63034879                0.01788516               -0.39957006                0.41003923               -0.05756533               -0.03456553                1.19279459
               0.00000000                4.00000000               89.00000000                0.55624325               -0.07675608               -0.09385168                0.27757572                0.00218413                0.00096034                0.04189535
               1.00000000                4.00000000               89.00000000                0.05050149               -0.07809959               -0.08649603                0.26210095                0.01611122                0.03959572               -0.01476477
               2.00000000                4.00000000               89.00000000                0.01000001               -0.27196174               -0.07108826                0.28582056               -0.00392225                0.77245173               -0.20295735
               3.00000000                4.00000000               89.00000000                0.01000000               -0.41629211               -0.28691281                0.65095105               -0.28230170                1.56749182                0.93900850
               4.00000000                4.00000000               89.00000000                0.03615588               -0.26432160               -0.26421261                0.58241749               -0.12272616                0.83253422                0.83226236
               5.00000000                4.00000000               89.00000000                0.07011955               -0.14232649               -0.18415084                0.50533053                0.01476028               -0.14959034                0.08651774
               6.00000000                4.00000000               89.00000000                0.10908868               -0.11017530               -0.20745344                0.47587478                0.01192314               -0.20725285                0.20497715
               7.00000000                4.00000000               89.00000000                0.15363478               -0.08391317               -0.23686659                0.44503971               -0.01840943               -0.19026484                0.33223449
               8.00000000                4.00000000               89.00000000                0.20542413               -0.06366474               -0.26030610                0.41666707               -0.04783758               -0.14119154                0.40877629
               9.00000000                4.00000000               89.00000000                0.26829625               -0.04585123               -0.28072252                0.39378997               -0.05103349               -0.06714085                0.44678633
              10.00000000                4.00000000               89.00000000                0.65631621               -0.03596232               -0.34009714                0.37828305               -0.05981957               -0.02236920                0.44097459
               0.00000000                5.00000000               89.00000000                0.58866956               -0.07842384               -0.10065120                0.28341219                0.00247630                0.00269739                0.02182736
               1.00000000                5.00000000               89.00000000                0.09352934               -0.07684485               -0.08209905                0.26641545                0.01626705                0.02342146               -0.01782603
               2.00000000                5.00000000               89.00000000                0.01000000               -0.38738622               -0.07364869                0.28700500               -0.18264340                1.54759621               -0.03671962
               3.00000000                5.00000000               89.00000000                0.03518644               -0.45529652               -0.20101417                0.59496805               -0.27998168                1.56797625                0.55044875
               4.00000000                5.00000000               89.00000000                0.07009857               -0.18414413               -0.14234692                0.50554380                0.01475040                0.08665413               -0.14969028
               5.00000000                5.00000000               89.00000000                0.11250576               -0.14580084               -0.14582298                0.48368998                0.01189613               -0.07325740               -0.07326553
               6.00000000                5.00000000               89.00000000                0.16023069               -0.12479126               -0.15458214                0.45576151                0.00296082               -0.11240637                0.00575317
               7.00000000                5.00000000               89.00000000                0.21318520               -0.10770173               -0.16269117                0.42619153               -0.00704405               -0.11454592                0.06601400
               8.00000000                5.00000000               89.00000000                0.27298115               -0.09381369               -0.17190893                0.39828301               -0.01616711               -0.08783323                0.11032622
               9.00000000                5.00000000               89.00000000                0.34376172               -0.07738250               -0.19132695                0.37521007               -0.01753728               -0.04299333                0.13559577
              10.00000000                5.00000000               89.00000000                0.69643880               -0.06735846               -0.24357237                0.35766123               -0.02887846               -0.01475311                0.13740358
               0.00000000                6.00000000               89.00000000                0.62666397               -0.07986179               -0.10067087                0.28515573                0.00227303                0.00353306                0.00170895
               1.00000000                6.00000000               89.00000000                0.14425756               -0.08260148               -0.08063998                0.26973938                0.00634083                0.03137549               -0.01747242
               2.00000000                6.00000000               89.00000000                0.03443738               -0.39035748               -0.08065986                0.29704556               -0.23037402                1.40250693                0.00293920
               3.00000000                6.00000000               89.00000000                0.06855406               -0.47002212               -0.08187754                0.48318125               -0.19472540                1.52873939               -0.36443137
               4.00000000                6.00000000               89.00000000                0.10908910               -0.20752124               -0.11018094                0.47588052                0.01191999                0.20492653               -0.20727170
               5.00000000                6.00000000               89.00000000                0.16027103               -0.15457960               -0.12481155                0.45577428                0.00295193                0.00580754               -0.11238022
               6.00000000                6.00000000               89.00000000                0.21748198               -0.12939411               -0.12940827                0.42898131                0.00222873               -0.06212041               -0.06207344
               7.00000000                6.00000000               89.00000000                0.28023778               -0.11341578               -0.13014367                0.40024551                0.00228267               -0.07769525               -0.02940502
               8.00000000                6.00000000               89.00000000                0.35016486               -0.10135473               -0.13186740                0.37314045                0.00201591               -0.06302831               -0.00748320
               9.00000000                6.00000000               89.00000000                0.43197530               -0.08939928               -0.14113790                0.35046764                0.00037206               -0.03169002                0.00449692
              10.00000000                6.00000000               89.00000000                0.74371589               -0.08291962               -0.16606308                0.33296819               -0.00820001               -0.01164422                0.00620067
               0.00000000                7.00000000               89.00000000                0.67057956               -0.08120477               -0.09587866                0.28377423                0.00166252                0.00395981               -0.01176434
               1.00000000                7.00000000               89.00000000                0.20389729               -0.09036614               -0.08130304                0.27242762               -0.00446288                0.04762621               -0.01404375
               2.00000000                7.00000000               89.00000000                0.06864859               -0.37630763               -0.08180034                0.30920783               -0.23476725                1.22255954                0.02032714
               3.00000000                7.00000000               89.00000000                0.10889871               -0.47115406               -0.03147807                0.45933619               -0.19967712                1.42700859               -0.32653268
               4.00000000                7.00000000               89.00000000                0.15364119               -0.23683582               -0.08391470                0.44501234               -0.01845273                0.33231042               -0.19021284
               5.00000000                7.00000000               89.00000000                0.21321788               -0.16266193               -0.10769478                0.42615927               -0.00706982                0.06606981               -0.11455319
               6.00000000                7.00000000               89.00000000                0.28023486               -0.13013730               -0.11341509                0.40024366                0.00228605               -0.02944310               -0.07768422
               7.00000000                7.00000000               89.00000000                0.35325315               -0.11257104               -0.11257117                0.37251746                0.00751110               -0.05685677               -0.05682686
               8.00000000                7.00000000               89.00000000                0.43410495               -0.10064209               -0.11127173                0.34644151                0.00914197               -0.05004740               -0.04395409
               9.00000000                7.00000000               89.00000000                0.52795518               -0.09103166               -0.11320164                0.32458625                0.00625102               -0.02589363               -0.03717208
              10.00000000                7.00000000               89.00000000                0.79530759               -0.08651922               -0.12066224                0.30769379                0.00164737               -0.00974260               -0.03646815
               0.00000000                8.00000000               89.00000000                0.72215431               -0.08269827               -0.08965035                0.28112403                0.00103353                0.00477826               -0.01541803
               1.00000000                8.00000000               89.00000000                0.27481019               -0.09711411               -0.08251927                0.27508640               -0.01010779                0.06462225               -0.00849028
               2.00000000                8.00000000               89.00000000                0.11146058               -0.35818664               -0.07947976                0.32010051               -0.20894806                1.08639131                0.02565795
               3.00000000                8.00000000               89.00000000                0.15808864               -0.46313496               -0.00196309                0.43854279               -0.19530810                1.32304445               -0.21708799
               4.00000000                8.00000000               89.00000000                0.20543071               -0.26028513               -0.06367989                0.41669065               -0.04784725                0.40876410               -0.14114427
               5.00000000                8.00000000               89.00000000                0.27299253               -0.17190624               -0.09380384                0.39826382               -0.01618208                0.11033533               -0.08785684
               6.00000000                8.00000000               89.00000000                0.35017823               -0.13186001               -0.10134733                0.37311795                0.00201080               -0.00750462               -0.06304642
               7.00000000                8.00000000               89.00000000                0.43410308               -0.11127243               -0.10064254                0.34644580                0.00914540               -0.04397019               -0.05004392
               8.00000000                8.00000000               89.00000000                0.52652488               -0.09807504               -0.09807388                0.32151360                0.01028690               -0.04225184               -0.04224601
               9.00000000                8.00000000               89.00000000                0.63330067               -0.08887447               -0.09640509                0.30060544                0.00676547               -0.02232243               -0.03815011
              10.00000000                8.00000000               89.00000000                0.85190800               -0.08509250               -0.09519941                0.28431439                0.00458078               -0.00835666               -0.03792853
               0.00000000                9.00000000               89.00000000                0.78417491               -0.08425808               -0.08560297                0.27940433                0.00081950                0.00699868               -0.00983036
               1.00000000                9.00000000               89.00000000                0.36131065               -0.10189570               -0.08351768                0.27879119               -0.00909831                0.07993793               -0.00324776
               2.00000000                9.00000000               89.00000000                0.16621726               -0.33317044               -0.07785478                0.32981882               -0.15165348                0.99637704                0.01684266
               3.00000000                9.00000000               89.00000000                0.21958238               -0.44216312                0.01385955                0.42058448               -0.12966687                1.24165563               -0.10146274
               4.00000000                9.00000000               89.00000000                0.26830781               -0.28069279               -0.04587043                0.39381719               -0.05106466                0.44678467               -0.06712930
               5.00000000                9.00000000               89.00000000                0.34374176               -0.19131404               -0.07737930                0.37520376               -0.01754006                0.13558788               -0.04300496
               6.00000000                9.00000000               89.00000000                0.43199783               -0.14113034               -0.08939565                0.35045612                0.00036377                0.00448809               -0.03169798
               7.00000000                9.00000000               89.00000000                0.52796784               -0.11319733               -0.09103143                0.32458135                0.00625041               -0.03717805               -0.02589478
               8.00000000                9.00000000               89.00000000                0.63330627               -0.09640594               -0.08887788                0.30061398                0.00676968               -0.03815432               -0.02232104
               9.00000000                9.00000000               89.00000000                0.75455228               -0.08588030               -0.08588095                0.28049266                0.00418711               -0.02046999               -0.02046777
              10.00000000                9.00000000               89.00000000                0.91695754               -0.08184388               -0.08163070                0.26459605                0.00416587               -0.00761125               -0.02037650
               0.00000000               10.00000000               89.00000000                0.91485920               -0.08493640               -0.08454028                0.28193157                0.00087435                0.00886256               -0.00450121
               1.00000000               10.00000000               89.00000000                0.71202716               -0.09396398               -0.08399128                0.28347237               -0.00584102                0.08558127               -0.00260834
               2.00000000               10.00000000               89.00000000                0.60132124               -0.25699941               -0.07791889                0.33494820               -0.08850757                0.96919495                0.00466494
               3.00000000               10.00000000               89.00000000                0.63036760               -0.39957657                0.01786223                0.41008399               -0.05760029                1.19284070               -0.03461734
               4.00000000               10.00000000               89.00000000                0.65633811               -0.34006222               -0.03598859                0.37830004               -0.05984069                0.44097663               -0.02236419
               5.00000000               10.00000000               89.00000000                0.69644669               -0.24354529               -0.06735756                0.35765869               -0.02886572                0.13739571               -0.01475516
               6.00000000               10.00000000               89.00000000                0.74370307               -0.16605725               -0.08291922                0.33296761               -0.00820631                0.00620065               -0.01164483
               7.00000000               10.00000000               89.00000000                0.79529735               -0.12065524               -0.08651854                0.30768307                0.00164398               -0.03646510               -0.00974032
               8.00000000               10.00000000               89.00000000                0.85191347               -0.09519959               -0.08509824                0.28432175                0.00458289               -0.03792676               -0.00835331
               9.00000000               10.00000000               89.00000000                0.91697076               -0.08163278               -0.08184694                0.26460453                0.00416999               -0.02037617               -0.00760904
              10.00000000               10.00000000               89.00000000                0.97969879               -0.07717435               -0.07717309                0.24886873                0.00557048               -0.00758973               -0.00758910
               0.00000000                0.00000000               90.00000000                0.75777315               -0.06797114               -0.06796860                0.24338443                0.00184486                0.00369098                0.00370853
               1.00000000                0.00000000               90.00000000                0.50938598               -0.05621534               -0.07838512                0.24410405                0.01826624                0.02675945               -0.00106038
               2.00000000                0.00000000               90.00000000                0.51005348               -0.05814199               -0.07057207                0.25570409                0.00222266                0.06271087               -0.00676229
               3.00000000                0.00000000               90.00000000                0.53101963               -0.08340238               -0.07396583                0.26914746                0.00395031                0.06645930               -0.00135873
               4.00000000                0.00000000               90.00000000                0.55796423               -0.10200845               -0.07610778                0.28010973                0.00420194                0.04968974                0.00209845
               5.00000000                0.00000000               90.00000000                0.58967829               -0.11083579               -0.07828845                0.28617442                0.00440330                0.02237560                0.00422789
               6.00000000                0.00000000               90.00000000                0.62578808               -0.11009254               -0.08011028                0.28707098                0.00383318               -0.00432756                0.00523896
               7.00000000                0.00000000               90.00000000                0.66663782               -0.10257676               -0.08171735                0.28402543                0.00266257               -0.02203624                0.00576919
               8.00000000                0.00000000               90.00000000                0.71399100               -0.09278306               -0.08342157                0.27934424                0.00149322               -0.02665929                0.00671120
               9.00000000                0.00000000               90.00000000                0.77114496               -0.08580352               -0.08526455                0.27574253                0.00093266               -0.01786421                0.00956780
              10.00000000                0.00000000               90.00000000                0.90667256               -0.08364433               -0.08607231                0.27794595               -0.00144682               -0.00935066                0.00969183
               0.00000000                1.00000000               90.00000000                0.50946573               -0.07838309               -0.05621330                0.24409422                0.01825773               -0.00107843                0.02676651
               1.00000000                1.00000000               90.00000000                0.01000000               -0.09751282               -0.09750860                0.24348461                0.05290962                0.00731204                0.00732918
               2.00000000                1.00000000               90.00000000                0.01000000               -0.11108785               -0.13729654                0.24961552                0.03285819                0.00416855                0.13554440
               3.00000000                1.00000000               90.00000000                0.01719326               -0.09870465               -0.13835032                0.25815197                0.02998879               -0.00416561                0.20703306
               4.00000000                1.00000000               90.00000000                0.05272396               -0.08743585               -0.06812690                0.26598657                0.04591086               -0.01150647                0.06492580
               5.00000000                1.00000000               90.00000000                0.09512506               -0.08113166               -0.07569367                0.27258517                0.03614746               -0.01508770                0.04949541
               6.00000000                1.00000000               90.00000000                0.14426013               -0.07960856               -0.08664436                0.27772379                0.01665112               -0.01535511                0.06077640
               7.00000000                1.00000000               90.00000000                0.20085819               -0.08141120               -0.09736203                0.28160575               -0.00174816               -0.01255955                0.07995264
               8.00000000                1.00000000               90.00000000                0.26732397               -0.08412618               -0.10585555                0.28487017               -0.01181513               -0.00721706                0.09816695
               9.00000000                1.00000000               90.00000000                0.34832561               -0.08623399               -0.11177244                0.28903093               -0.01171519               -0.00182877                0.11368420
              10.00000000                1.00000000               90.00000000                0.70366042               -0.08708866               -0.10263290                0.29433952               -0.01013499               -0.00141346                0.11649628
               0.00000000                2.00000000               90.00000000                0.51005844               -0.07056359               -0.05814046                0.25567143                0.00221986               -0.00675898                0.06266874
               1.00000000                2.00000000               90.00000000                0.01000000               -0.13721381               -0.11107923                0.24958947                0.03277104                0.13553268                0.00415084
               2.00000000                2.00000000               90.00000000                0.01000001               -0.17117250               -0.17117804                0.28838961                0.08614059                0.21863329                0.21867331
               3.00000000                2.00000000               90.00000000                0.01000001               -0.09856258               -0.22641480                0.28957207                0.15939919               -0.09167877                0.55880200
               4.00000000                2.00000000               90.00000000                0.01000001               -0.06792416               -0.24942812                0.32054101                0.05300909               -0.16745686                1.11645828
               5.00000000                2.00000000               90.00000000                0.01164313               -0.08076539               -0.43568374                0.33094287               -0.19112994               -0.01533994                1.72214290
               6.00000000                2.00000000               90.00000000                0.04069510               -0.08562509               -0.42617156                0.34878720               -0.23378253                0.02252091                1.51527592
               7.00000000                2.00000000               90.00000000                0.07642369               -0.08631277               -0.40748636                0.36444247               -0.23722070                0.03493493                1.31751140
               8.00000000                2.00000000               90.00000000                0.12044902               -0.08403671               -0.38705915                0.37414367               -0.20971439                0.03558469                1.16419382
               9.00000000                2.00000000               90.00000000                0.17662300               -0.08301013               -0.36037918                0.38136797               -0.14547366                0.02228624                1.05778690
              10.00000000                2.00000000               90.00000000                0.60671777               -0.08364885               -0.29087338                0.38581714               -0.07415203                0.00603964                1.02026118
               0.00000000                3.00000000               90.00000000                0.53095672               -0.07396207               -0.08340323                0.26913514                0.00395666               -0.00134790                0.06641509
               1.00000000                3.00000000               90.00000000                0.01721510               -0.13831370               -0.09870711                0.25814389                0.02997253                0.20683719               -0.00420293
               2.00000000                3.00000000               90.00000000                0.01000001               -0.22628836               -0.09852355                0.28910970                0.15915341                0.55876738               -0.09138668
               3.00000000                3.00000000               90.00000000                0.01000000               -0.26791836               -0.26789032                0.40215483                0.07650539                0.86756653                0.86733292
               4.00000000                3.00000000               90.00000000                0.01332527               -0.32158567               -0.48089032                1.13035360               -0.28882434                1.06866295                1.73189269
               5.00000000                3.00000000               90.00000000                0.04278051               -0.22382126               -0.50780387                0.53114383               -0.32239210                0.34015861                1.71129072
               6.00000000                3.00000000               90.00000000                0.07843274               -0.06229690               -0.51485617                0.46382547               -0.16872422               -0.41759202                1.62787553
               7.00000000                3.00000000               90.00000000                0.12078590               -0.01992992               -0.50886652                0.45407674               -0.18710442               -0.33348930                1.50207199
               8.00000000                3.00000000               90.00000000                0.17171731                0.00423068               -0.49424564                0.44065086               -0.18337695               -0.22315094                1.37329305
               9.00000000                3.00000000               90.00000000                0.23525759                0.01871797               -0.46895281                0.42521392               -0.11887495               -0.10583856                1.27013191
              10.00000000                3.00000000               90.00000000                0.63862009                0.02331203               -0.42950907                0.41577592               -0.04693880               -0.03945875                1.20443474
               0.00000000                4.00000000               90.00000000                0.55794263               -0.07610801               -0.10200866                0.28011792                0.00420380                0.00210397                0.04969487
               1.00000000                4.00000000               90.00000000                0.05270707               -0.06815796               -0.08744406                0.26599614                0.04587126                0.06517449               -0.01150239
               2.00000000                4.00000000               90.00000000                0.01000001               -0.24953680               -0.06793580                0.32126396                0.05298069                1.11633527               -0.16727778
               3.00000000                4.00000000               90.00000000                0.01333179               -0.48081983               -0.32163206                1.13095459               -0.28886631                1.73152404                1.06914728
               4.00000000                4.00000000               90.00000000                0.04369235               -0.34040270               -0.34058831                0.54468699               -0.12148929                0.64339549                0.64310875
               5.00000000                4.00000000               90.00000000                0.07974026               -0.13880143               -0.19119556                0.48790888                0.07351645               -0.19756598                0.04969845
               6.00000000                4.00000000               90.00000000                0.12019546               -0.10383017               -0.22726474                0.46418735                0.04666791               -0.22810056                0.20973424
               7.00000000                4.00000000               90.00000000                0.16533001               -0.07514508               -0.25866025                0.43746338                0.00300476               -0.20840596                0.33292912
               8.00000000                4.00000000               90.00000000                0.21701741               -0.05416722               -0.28015417                0.41174299               -0.03325336               -0.15340907                0.40362490
               9.00000000                4.00000000               90.00000000                0.27983846               -0.03736317               -0.29860822                0.39059337               -0.04128427               -0.07208445                0.43621401
              10.00000000                4.00000000               90.00000000                0.66222273               -0.02859316               -0.35055757                0.37665224               -0.05310657               -0.02426252                0.42301385
               0.00000000                5.00000000               90.00000000                0.58972276               -0.07828338               -0.11082779                0.28615797                0.00440238                0.00422839                0.02239529
               1.00000000                5.00000000               90.00000000                0.09511541               -0.07568298               -0.08113053                0.27256717                0.03613522                0.04934630               -0.01506789
               2.00000000                5.00000000               90.00000000                0.01164268               -0.43560815               -0.08073635                0.33081844               -0.19127606                1.72238615               -0.01562999
               3.00000000                5.00000000               90.00000000                0.04281552               -0.50774020               -0.22380791                0.53093807               -0.32227066                1.71160139                0.34060856
               4.00000000                5.00000000               90.00000000                0.07975522               -0.19122451               -0.13879459                0.48792127                0.07361603                0.04937846               -0.19756119
               5.00000000                5.00000000               90.00000000                0.12457376               -0.15041295               -0.15038214                0.47364371                0.05039620               -0.08562872               -0.08552886
               6.00000000                5.00000000               90.00000000                0.17365771               -0.12398255               -0.16383403                0.44884595                0.02885837               -0.12971735               -0.00313984
               7.00000000                5.00000000               90.00000000                0.22663703               -0.10341440               -0.17478177                0.42070957                0.00969872               -0.13070188                0.05905571
               8.00000000                5.00000000               90.00000000                0.28539425               -0.08757457               -0.18525888                0.39332032               -0.00623318               -0.09919058                0.10391199
               9.00000000                5.00000000               90.00000000                0.35516095               -0.07071944               -0.20428242                0.37056307               -0.01307220               -0.04770388                0.12857574
              10.00000000                5.00000000               90.00000000                0.70209180               -0.06087698               -0.25318646                0.35389441               -0.02723656               -0.01618841                0.12859662
               0.00000000                6.00000000               90.00000000                0.62580406               -0.08010582               -0.11007950                0.28704410                0.00383252                0.00523541               -0.00432493
               1.00000000                6.00000000               90.00000000                0.14422461               -0.08666011               -0.07960041                0.27769603                0.01664303                0.06070221               -0.01535056
               2.00000000                6.00000000               90.00000000                0.04070276               -0.42611447               -0.08560214                0.34881844               -0.23377347                1.51522137                0.02267527
               3.00000000                6.00000000               90.00000000                0.07841353               -0.51483173               -0.06215450                0.46394006               -0.16878910                1.62776925               -0.41784509
               4.00000000                6.00000000               90.00000000                0.12017998               -0.22729296               -0.10379472                0.46430278                0.04657157                0.20974408               -0.22830735
               5.00000000                6.00000000               90.00000000                0.17366707               -0.16379407               -0.12397432                0.44880383                0.02882306               -0.00314243               -0.12973549
               6.00000000                6.00000000               90.00000000                0.23197957               -0.13180741               -0.13182210                0.42378637                0.01915175               -0.07657327               -0.07659574
               7.00000000                6.00000000               90.00000000                0.29404548               -0.11193292               -0.13454378                0.39535754                0.01306872               -0.09219844               -0.04216388
               8.00000000                6.00000000               90.00000000                0.36193812               -0.09778417               -0.13718159                0.36786176                0.00829729               -0.07369641               -0.01896162
               9.00000000                6.00000000               90.00000000                0.44156972               -0.08520701               -0.14638149                0.34487724                0.00309088               -0.03653689               -0.00618293
              10.00000000                6.00000000               90.00000000                0.74816751               -0.07874786               -0.17058542                0.32787009               -0.00777049               -0.01338836               -0.00370057
               0.00000000                7.00000000               90.00000000                0.66663168               -0.08171243               -0.10256598                0.28400874                0.00266385                0.00576787               -0.02203808
               1.00000000                7.00000000               90.00000000                0.20085424               -0.09736324               -0.08140395                0.28159027               -0.00174256                0.07995979               -0.01256406
               2.00000000                7.00000000               90.00000000                0.07641896               -0.40747282               -0.08630332                0.36443672               -0.23723378                1.31756184                0.03496778
               3.00000000                7.00000000               90.00000000                0.12080510               -0.50885016               -0.01997856                0.45422112               -0.18717347                1.50204430               -0.33347533
               4.00000000                7.00000000               90.00000000                0.16533003               -0.25865275               -0.07514955                0.43748925                0.00302682                0.33291755               -0.20845049
               5.00000000                7.00000000               90.00000000                0.22665863               -0.17475627               -0.10340697                0.42063449                0.00969555                0.05908604               -0.13065125
               6.00000000                7.00000000               90.00000000                0.29405243               -0.13452544               -0.11192291                0.39531063                0.01305388               -0.04214204               -0.09218760
               7.00000000                7.00000000               90.00000000                0.36532640               -0.11273104               -0.11272886                0.36725048                0.01427993               -0.06994358               -0.06993941
               8.00000000                7.00000000               90.00000000                0.44276259               -0.09856589               -0.11218699                0.34039770                0.01323083               -0.05991727               -0.05572399
               9.00000000                7.00000000               90.00000000                0.53304434               -0.08806399               -0.11428881                0.31796858                0.00818850               -0.03057857               -0.04770079
              10.00000000                7.00000000               90.00000000                0.79710060               -0.08338312               -0.12177369                0.30143000                0.00226088               -0.01162403               -0.04579373
               0.00000000                8.00000000               90.00000000                0.71400962               -0.08342050               -0.09277868                0.27933849                0.00149663                0.00670537               -0.02665276
               1.00000000                8.00000000               90.00000000                0.26728034               -0.10586918               -0.08412501                0.28486823               -0.01181831                0.09813882               -0.00721469
               2.00000000                8.00000000               90.00000000                0.12046357               -0.38704722               -0.08404975                0.37421050               -0.20974089                1.16423666                0.03557063
               3.00000000                8.00000000               90.00000000                0.17172906               -0.49420939                0.00423346                0.44058503               -0.18338355                1.37334153               -0.22318899
               4.00000000                8.00000000               90.00000000                0.21703197               -0.28014626               -0.05415850                0.41172961               -0.03322837                0.40359551               -0.15337046
               5.00000000                8.00000000               90.00000000                0.28541521               -0.18525235               -0.08756714                0.39327076               -0.00622601                0.10391713               -0.09914525
               6.00000000                8.00000000               90.00000000                0.36194507               -0.13717068               -0.09777290                0.36782499                0.00828063               -0.01896841               -0.07369080
               7.00000000                8.00000000               90.00000000                0.44276871               -0.11218402               -0.09855910                0.34038268                0.01321978               -0.05572677               -0.05992033
               8.00000000                8.00000000               90.00000000                0.53016333               -0.09667728               -0.09667725                0.31448015                0.01295324               -0.05110287               -0.05110023
               9.00000000                8.00000000               90.00000000                0.63166376               -0.08644728               -0.09533748                0.29290456                0.00814297               -0.02654889               -0.04595096
              10.00000000                8.00000000               90.00000000                0.84992767               -0.08242106               -0.09416919                0.27694130                0.00515336               -0.01018114               -0.04484776
               0.00000000                9.00000000               90.00000000                0.77113619               -0.08526958               -0.08580719                0.27575828                0.00093532                0.00956503               -0.01785774
               1.00000000                9.00000000               90.00000000                0.34833421               -0.11177637               -0.08624040                0.28904935               -0.01172138                0.11368322               -0.00182366
               2.00000000                9.00000000               90.00000000                0.17661433               -0.36036171               -0.08302901                0.38141274               -0.14546021                1.05781752                0.02232990
               3.00000000                9.00000000               90.00000000                0.23524997               -0.46893883                0.01873859                0.42518561               -0.11887505                1.27020309               -0.10585856
               4.00000000                9.00000000               90.00000000                0.27985087               -0.29860850               -0.03736008                0.39058954               -0.04129373                0.43621074               -0.07206103
               5.00000000                9.00000000               90.00000000                0.35515231               -0.20427730               -0.07071573                0.37054871               -0.01306537                0.12855603               -0.04769865
               6.00000000                9.00000000               90.00000000                0.44157787               -0.14637747               -0.08520200                0.34486042                0.00307831               -0.00620105               -0.03653394
               7.00000000                9.00000000               90.00000000                0.53303865               -0.11428253               -0.08805675                0.31795033                0.00817791               -0.04770032               -0.03058632
               8.00000000                9.00000000               90.00000000                0.63171182               -0.09533357               -0.08644246                0.29289080                0.00813852               -0.04594451               -0.02654777
               9.00000000                9.00000000               90.00000000                0.74597778               -0.08373083               -0.08373105                0.27205113                0.00490528               -0.02417136               -0.02416746
              10.00000000                9.00000000               90.00000000                0.91105904               -0.07937964               -0.07951903                0.25648073                0.00445409               -0.00932470               -0.02366618
               0.00000000               10.00000000               90.00000000                0.90667550               -0.08607893               -0.08365181                0.27797757               -0.00144679                0.00970032               -0.00934841
               1.00000000               10.00000000               90.00000000                0.70361889               -0.10262726               -0.08709864                0.29437141               -0.01014790                0.11652068               -0.00140952
               2.00000000               10.00000000               90.00000000                0.60671527               -0.29086505               -0.08367402                0.38582495               -0.07412758                1.02028802                0.00608224
               3.00000000               10.00000000               90.00000000                0.63862115               -0.42952211                0.02332460                0.41580300               -0.04694021                1.20450238               -0.03945605
               4.00000000               10.00000000               90.00000000                0.66223631               -0.35055324               -0.02859581                0.37665565               -0.05312626                0.42303772               -0.02424535
               5.00000000               10.00000000               90.00000000                0.70208458               -0.25317429               -0.06087478                0.35389567               -0.02722727                0.12857005               -0.01619770
               6.00000000               10.00000000               90.00000000                0.74814929               -0.17058511               -0.07874605                0.32786730               -0.00777692               -0.00371879               -0.01338631
               7.00000000               10.00000000               90.00000000                0.79710063               -0.12176543               -0.08337548                0.30141514                0.00225673               -0.04579186               -0.01163186
               8.00000000               10.00000000               90.00000000                0.84993506               -0.09416400               -0.08241313                0.27692194                0.00514811               -0.04483202               -0.01017916
               9.00000000               10.00000000               90.00000000                0.91108080               -0.07951700               -0.07937778                0.25647363                0.00445063               -0.02366259               -0.00931460
              10.00000000               10.00000000               90.00000000                0.97587926               -0.07479845               -0.07479889                0.24106752                0.00554109               -0.00925462               -0.00925114
               0.00000000                0.00000000               91.00000000                0.75728304               -0.06395990               -0.06395772                0.23583796                0.00329626                0.00506448                0.00506001
               1.00000000                0.00000000               91.00000000                0.50942067               -0.04846913               -0.07888290                0.23805413                0.02645229                0.03511019               -0.00085219
               2.00000000                0.00000000               91.00000000                0.51123591               -0.05282850               -0.06764380                0.25343106                0.00409167                0.07917458               -0.00748180
               3.00000000                0.00000000               91.00000000                0.53296737               -0.08838158               -0.07252285                0.26986916                0.00682952                0.08041775               -0.00041223
               4.00000000                0.00000000               91.00000000                0.55999299               -0.11306594               -0.07540146                0.28229536                0.00695567                0.05622311                0.00383247
               5.00000000                0.00000000               91.00000000                0.59086098               -0.12385011               -0.07820741                0.28826036                0.00684126                0.02006493                0.00637400
               6.00000000                0.00000000               91.00000000                0.62464008               -0.12169130               -0.08044703                0.28790513                0.00555012               -0.01421597                0.00758260
               7.00000000                0.00000000               91.00000000                0.66172507               -0.11050556               -0.08232414                0.28287157                0.00344657               -0.03654713                0.00824827
               8.00000000                0.00000000               91.00000000                0.70384478               -0.09614667               -0.08422812                0.27590987                0.00148798               -0.04196494                0.00928378
               9.00000000                0.00000000               91.00000000                0.75473159               -0.08552311               -0.08636598                0.27014338                0.00057904               -0.02887582                0.01291663
              10.00000000                0.00000000               91.00000000                0.89641191               -0.08203423               -0.08703832                0.27144622               -0.00477685               -0.01630126                0.01047657
               0.00000000                1.00000000               91.00000000                0.50943234               -0.07887910               -0.04846515                0.23804219                0.02644018               -0.00084387                0.03510581
               1.00000000                1.00000000               91.00000000                0.01000000               -0.10557987               -0.10557100                0.23871264                0.07575875                0.01140072                0.01139364
               2.00000000                1.00000000               91.00000000                0.01046634               -0.12316468               -0.11683688                0.24835396                0.09098622                0.01062262                0.17047772
               3.00000000                1.00000000               91.00000000                0.01988928               -0.10398688               -0.08962250                0.26089016                0.07098815                0.00254301                0.24012603
               4.00000000                1.00000000               91.00000000                0.05607835               -0.08783233               -0.05910592                0.27237839                0.08687148               -0.00532368                0.11152664
               5.00000000                1.00000000               91.00000000                0.09820903               -0.07957244               -0.07532023                0.28200517                0.06321094               -0.00964689                0.09888697
               6.00000000                1.00000000               91.00000000                0.14563652               -0.07841373               -0.09378034                0.28937680                0.02826227               -0.01113808                0.11561115
               7.00000000                1.00000000               91.00000000                0.19891840               -0.08196221               -0.10847538                0.29445941               -0.00153003               -0.00988392                0.13693283
               8.00000000                1.00000000               91.00000000                0.26019763               -0.08661888               -0.11862637                0.29783168               -0.01721972               -0.00550401                0.15273052
               9.00000000                1.00000000               91.00000000                0.33462843               -0.08982912               -0.12541346                0.30158167               -0.01718431               -0.00013096                0.16476642
              10.00000000                1.00000000               91.00000000                0.69445944               -0.09092271               -0.11395641                0.30671707               -0.01734612                0.00038012                0.16263422
               0.00000000                2.00000000               91.00000000                0.51129813               -0.06763752               -0.05281993                0.25340453                0.00409096               -0.00747867                0.07917356
               1.00000000                2.00000000               91.00000000                0.01044791               -0.11704518               -0.12315053                0.24833112                0.09118110                0.17047722                0.01062578
               2.00000000                2.00000000               91.00000000                0.01000001               -0.17661289               -0.17663997                0.33660764                0.26544461                0.26261661                0.26241757
               3.00000000                2.00000000               91.00000000                0.01000001               -0.12054863               -0.23013171                0.34977887                0.23139752               -0.05102544                0.73094203
               4.00000000                2.00000000               91.00000000                0.01000000               -0.07174371               -0.36019526                0.38559287               -0.03975380               -0.12067155                1.67708320
               5.00000000                2.00000000               91.00000000                0.01941023               -0.09328233               -0.47238199                0.41326689               -0.20405991                0.01614644                1.83338541
               6.00000000                2.00000000               91.00000000                0.05120762               -0.09711467               -0.45569693                0.44260716               -0.24034387                0.04493271                1.59767100
               7.00000000                2.00000000               91.00000000                0.08905177               -0.09487617               -0.43234802                0.45601135               -0.24100484                0.04457474                1.38788206
               8.00000000                2.00000000               91.00000000                0.13425837               -0.09036327               -0.40905861                0.45494676               -0.21061056                0.03760520                1.22005804
               9.00000000                2.00000000               91.00000000                0.19136310               -0.08934529               -0.38072920                0.45102217               -0.13802859                0.02298514                1.09763694
              10.00000000                2.00000000               91.00000000                0.61425379               -0.09088858               -0.31890285                0.45166278               -0.05867879                0.00602900                1.04930839
               0.00000000                3.00000000               91.00000000                0.53296319               -0.07252924               -0.08838500                0.26988464                0.00683108               -0.00041100                0.08040973
               1.00000000                3.00000000               91.00000000                0.01991609               -0.08940331               -0.10399624                0.26090730                0.07094278                0.23974475                0.00253720
               2.00000000                3.00000000               91.00000000                0.01000001               -0.23010052               -0.12067786                0.34955963                0.23169897                0.73017618               -0.05052205
               3.00000000                3.00000000               91.00000000                0.01000000               -0.44161369               -0.44149863                0.64747817               -0.05337997                1.35119270                1.35136941
               4.00000000                3.00000000               91.00000000                0.02171389               -0.38042891               -0.55102989                1.14043900               -0.30603600                0.95499165                1.67335620
               5.00000000                3.00000000               91.00000000                0.05439913               -0.14274418               -0.55996528                0.43247808               -0.23195145               -0.10429096                1.80513742
               6.00000000                3.00000000               91.00000000                0.09304306               -0.03523720               -0.55357733                0.42789512               -0.15268816               -0.41985057                1.69084320
               7.00000000                3.00000000               91.00000000                0.13769509               -0.00729714               -0.53584153                0.43668700               -0.17624610               -0.32512012                1.53569340
               8.00000000                3.00000000               91.00000000                0.18989615                0.00876450               -0.51174369                0.43282716               -0.17103027               -0.22310697                1.38214269
               9.00000000                3.00000000               91.00000000                0.25452050                0.01990327               -0.48060595                0.42186284               -0.10716465               -0.10906883                1.25805406
              10.00000000                3.00000000               91.00000000                0.64846056                0.02422342               -0.44498636                0.41468639               -0.03515484               -0.04510536                1.17699727
               0.00000000                4.00000000               91.00000000                0.55997893               -0.07541117               -0.11308129                0.28232585                0.00695294                0.00383053                0.05619214
               1.00000000                4.00000000               91.00000000                0.05612308               -0.05897940               -0.08785236                0.27241205                0.08696050                0.11193452               -0.00535946
               2.00000000                4.00000000               91.00000000                0.01000000               -0.36021419               -0.07173134                0.38527822               -0.04014817                1.67739132               -0.12031923
               3.00000000                4.00000000               91.00000000                0.02172706               -0.55106682               -0.38026072                1.14065357               -0.30621154                1.67310399                0.95467904
               4.00000000                4.00000000               91.00000000                0.05481908               -0.28926937               -0.28932204                0.47543302                0.09308095                0.20962458                0.20992527
               5.00000000                4.00000000               91.00000000                0.09355663               -0.13304175               -0.21233671                0.45670965                0.14686476               -0.21870581                0.06041614
               6.00000000                4.00000000               91.00000000                0.13563987               -0.09423172               -0.25222832                0.44109533                0.08409560               -0.24106837                0.22739077
               7.00000000                4.00000000               91.00000000                0.18114247               -0.06369175               -0.28175288                0.42157494                0.02398718               -0.22032798                0.33618300
               8.00000000                4.00000000               91.00000000                0.23209384               -0.04336158               -0.29793092                0.40109857               -0.02012162               -0.16221830                0.39398417
               9.00000000                4.00000000               91.00000000                0.29406880               -0.02919952               -0.31124189                0.38357221               -0.03226369               -0.07587255                0.41713492
              10.00000000                4.00000000               91.00000000                0.66925366               -0.02239358               -0.35266719                0.37280899               -0.04527914               -0.02646496                0.39521243
               0.00000000                5.00000000               91.00000000                0.59080993               -0.07820374               -0.12385078                0.28825604                0.00683699                0.00637670                0.02005046
               1.00000000                5.00000000               91.00000000                0.09811485               -0.07540157               -0.07957601                0.28200405                0.06321698                0.09879387               -0.00966760
               2.00000000                5.00000000               91.00000000                0.01942460               -0.47236566               -0.09337840                0.41380494               -0.20402345                1.83313757                0.01579361
               3.00000000                5.00000000               91.00000000                0.05437934               -0.55984872               -0.14266045                0.43211010               -0.23202655                1.80528984               -0.10437080
               4.00000000                5.00000000               91.00000000                0.09357626               -0.21229634               -0.13300623                0.45657543                0.14663028                0.06070733               -0.21862645
               5.00000000                5.00000000               91.00000000                0.14115383               -0.15690158               -0.15691266                0.45313236                0.09879936               -0.08908875               -0.08912564
               6.00000000                5.00000000               91.00000000                0.19149140               -0.12237440               -0.17552644                0.43452040                0.05990445               -0.14210446               -0.00566165
               7.00000000                5.00000000               91.00000000                0.24394644               -0.09769444               -0.18910965                0.40985065                0.02850758               -0.14450552                0.05479071
               8.00000000                5.00000000               91.00000000                0.30072126               -0.08000293               -0.19967087                0.38458164                0.00407837               -0.10972582                0.09689945
               9.00000000                5.00000000               91.00000000                0.36850817               -0.06345722               -0.21646219                0.36343450               -0.00857980               -0.05226072                0.11843494
              10.00000000                5.00000000               91.00000000                0.70849573               -0.05432466               -0.25960763                0.34923563               -0.02493047               -0.01807618                0.11522624
               0.00000000                6.00000000               91.00000000                0.62467918               -0.08043244               -0.12167691                0.28787394                0.00555224                0.00758843               -0.01420273
               1.00000000                6.00000000               91.00000000                0.14565937               -0.09377573               -0.07840622                0.28934766                0.02826138                0.11566883               -0.01111936
               2.00000000                6.00000000               91.00000000                0.05117454               -0.45579562               -0.09711968                0.44277502               -0.24023749                1.59795231                0.04509573
               3.00000000                6.00000000               91.00000000                0.09307102               -0.55352868               -0.03543529                0.42799339               -0.15271723                1.69089240               -0.41950088
               4.00000000                6.00000000               91.00000000                0.13564968               -0.25208206               -0.09424707                0.44104593                0.08410545                0.22726058               -0.24107717
               5.00000000                6.00000000               91.00000000                0.19148897               -0.17553463               -0.12235568                0.43454691                0.05990238               -0.00570027               -0.14213239
               6.00000000                6.00000000               91.00000000                0.25047374               -0.13454958               -0.13453889                0.41346954                0.03910332               -0.08868300               -0.08869486
               7.00000000                6.00000000               91.00000000                0.31088532               -0.10991847               -0.13964544                0.38694330                0.02527142               -0.10628490               -0.05434842
               8.00000000                6.00000000               91.00000000                0.37545846               -0.09349503               -0.14306732                0.36027649                0.01491522               -0.08486080               -0.03132934
               9.00000000                6.00000000               91.00000000                0.45169468               -0.08057643               -0.15164768                0.33800622                0.00571375               -0.04182319               -0.01884746
              10.00000000                6.00000000               91.00000000                0.75259714               -0.07439087               -0.17441942                0.32280185               -0.00733063               -0.01556271               -0.01635036
               0.00000000                7.00000000               91.00000000                0.66172244               -0.08232076               -0.11049172                0.28285447                0.00344653                0.00824771               -0.03654314
               1.00000000                7.00000000               91.00000000                0.19894030               -0.10845447               -0.08195438                0.29444092               -0.00154276                0.13695364               -0.00987602
               2.00000000                7.00000000               91.00000000                0.08906098               -0.43233715               -0.09487495                0.45597294               -0.24101340                1.38794603                0.04455521
               3.00000000                7.00000000               91.00000000                0.13771655               -0.53580215               -0.00731562                0.43665361               -0.17612046                1.53564071               -0.32528646
               4.00000000                7.00000000               91.00000000                0.18112611               -0.28172807               -0.06367380                0.42158892                0.02399571                0.33609814               -0.22037833
               5.00000000                7.00000000               91.00000000                0.24394342               -0.18913100               -0.09768590                0.40987071                0.02849887                0.05481246               -0.14451263
               6.00000000                7.00000000               91.00000000                0.31089119               -0.13964078               -0.10991484                0.38692889                0.02526472               -0.05432647               -0.10629021
               7.00000000                7.00000000               91.00000000                0.37918627               -0.11290705               -0.11290583                0.35986213                0.02177650               -0.08367791               -0.08369015
               8.00000000                7.00000000               91.00000000                0.45164101               -0.09628481               -0.11333982                0.33325101                0.01753372               -0.07091706               -0.06878249
               9.00000000                7.00000000               91.00000000                0.53683298               -0.08496769               -0.11561436                0.31106113                0.01009046               -0.03605075               -0.06003121
              10.00000000                7.00000000               91.00000000                0.79789447               -0.08022234               -0.12315150                0.29590355                0.00276978               -0.01403545               -0.05725197
               0.00000000                8.00000000               91.00000000                0.70388271               -0.08422398               -0.09613492                0.27589010                0.00148987                0.00928260               -0.04196720
               1.00000000                8.00000000               91.00000000                0.26024831               -0.11860113               -0.08661061                0.29780944               -0.01722361                0.15278777               -0.00551053
               2.00000000                8.00000000               91.00000000                0.13427355               -0.40902661               -0.09035412                0.45490919               -0.21062417                1.22002616                0.03757856
               3.00000000                8.00000000               91.00000000                0.18988804               -0.51174383                0.00879334                0.43280442               -0.17099456                1.38207934               -0.22319304
               4.00000000                8.00000000               91.00000000                0.23210391               -0.29793689               -0.04335410                0.40110581               -0.02014897                0.39398879               -0.16218665
               5.00000000                8.00000000               91.00000000                0.30072449               -0.19966333               -0.08000086                0.38456437                0.00407425                0.09689771               -0.10969816
               6.00000000                8.00000000               91.00000000                0.37544740               -0.14306143               -0.09349130                0.36026282                0.01491067               -0.03132098               -0.08485093
               7.00000000                8.00000000               91.00000000                0.45163960               -0.11333763               -0.09627714                0.33323351                0.01752600               -0.06877024               -0.07092236
               8.00000000                8.00000000               91.00000000                0.53221696               -0.09540348               -0.09540241                0.30724283                0.01574114               -0.06142218               -0.06143424
               9.00000000                8.00000000               91.00000000                0.62670645               -0.08416719               -0.09459604                0.28564724                0.00955530               -0.03175451               -0.05546187
              10.00000000                8.00000000               91.00000000                0.84582760               -0.07994543               -0.09368389                0.27086044                0.00563724               -0.01260685               -0.05358498
               0.00000000                9.00000000               91.00000000                0.75470499               -0.08636720               -0.08551751                0.27014058                0.00058131                0.01291193               -0.02887148
               1.00000000                9.00000000               91.00000000                0.33464022               -0.12539577               -0.08982584                0.30157461               -0.01719427                0.16478519               -0.00013461
               2.00000000                9.00000000               91.00000000                0.19137788               -0.38068537               -0.08933937                0.45096848               -0.13804440                1.09760252                0.02291442
               3.00000000                9.00000000               91.00000000                0.25450130               -0.48061428                0.01992296                0.42185862               -0.10714870                1.25803459               -0.10905446
               4.00000000                9.00000000               91.00000000                0.29405574               -0.31126842               -0.02920013                0.38358440               -0.03226817                0.41715457               -0.07585575
               5.00000000                9.00000000               91.00000000                0.36849903               -0.21644901               -0.06346183                0.36343059               -0.00858173                0.11841236               -0.05224349
               6.00000000                9.00000000               91.00000000                0.45169876               -0.15164051               -0.08057750                0.33800152                0.00571155               -0.01886068               -0.04180965
               7.00000000                9.00000000               91.00000000                0.53678556               -0.11561251               -0.08496840                0.31106552                0.01008737               -0.06003835               -0.03605308
               8.00000000                9.00000000               91.00000000                0.62672330               -0.09459302               -0.08416455                0.28563762                0.00954579               -0.05545460               -0.03176501
               9.00000000                9.00000000               91.00000000                0.73198799               -0.08197044               -0.08197196                0.26461974                0.00566164               -0.02895132               -0.02896168
              10.00000000                9.00000000               91.00000000                0.90200939               -0.07734216               -0.07804471                0.25015679                0.00464504               -0.01167665               -0.02807991
               0.00000000               10.00000000               91.00000000                0.89634502               -0.08705246               -0.08203653                0.27147794               -0.00477201                0.01047125               -0.01629405
               1.00000000               10.00000000               91.00000000                0.69451630               -0.11394763               -0.09092460                0.30674037               -0.01735271                0.16262423                0.00038278
               2.00000000               10.00000000               91.00000000                0.61425119               -0.31885354               -0.09088089                0.45160947               -0.05868300                1.04927722                0.00598726
               3.00000000               10.00000000               91.00000000                0.64845133               -0.44499371                0.02424312                0.41469392               -0.03515069                1.17700452               -0.04509069
               4.00000000               10.00000000               91.00000000                0.66926296               -0.35270686               -0.02239355                0.37283494               -0.04528813                0.39521980               -0.02647159
               5.00000000               10.00000000               91.00000000                0.70848020               -0.25959923               -0.05433391                0.34924791               -0.02493501                0.11520093               -0.01807648
               6.00000000               10.00000000               91.00000000                0.75258553               -0.17440790               -0.07439498                0.32280104               -0.00733271               -0.01637181               -0.01555377
               7.00000000               10.00000000               91.00000000                0.79789280               -0.12314894               -0.08023046                0.29592504                0.00277200               -0.05727531               -0.01403668
               8.00000000               10.00000000               91.00000000                0.84584345               -0.09368126               -0.07994396                0.27085331                0.00563339               -0.05358467               -0.01261678
               9.00000000               10.00000000               91.00000000                0.90200850               -0.07803798               -0.07734021                0.25014097                0.00463992               -0.02806995               -0.01168238
              10.00000000               10.00000000               91.00000000                0.97018125               -0.07310339               -0.07310823                0.23582139                0.00525519               -0.01157644               -0.01157971
               0.00000000                0.00000000               92.00000000                0.75633801               -0.05884429               -0.05884610                0.22495005                0.00546349                0.00684960                0.00685844
               1.00000000                0.00000000               92.00000000                0.50913051               -0.03960824               -0.07934464                0.22993994                0.03658888                0.04527270               -0.00026540
               2.00000000                0.00000000               92.00000000                0.51269042               -0.04805517               -0.06407581                0.25022127                0.00677017                0.09745006               -0.00770102
               3.00000000                0.00000000               92.00000000                0.53524204               -0.09614877               -0.07094420                0.26985235                0.01082185                0.09376297                0.00130764
               4.00000000                0.00000000               92.00000000                0.56242004               -0.12743288               -0.07475116                0.28333923                0.01060576                0.05990941                0.00635250
               5.00000000                0.00000000               92.00000000                0.59197846               -0.13971535               -0.07829930                0.28867468                0.00975326                0.01357231                0.00931455
               6.00000000                0.00000000               92.00000000                0.62285425               -0.13517844               -0.08097085                0.28661747                0.00712542               -0.02864506                0.01079862
               7.00000000                0.00000000               92.00000000                0.65524449               -0.11918743               -0.08308896                0.27943807                0.00345769               -0.05513882                0.01166143
               8.00000000                0.00000000               92.00000000                0.69120536               -0.09927650               -0.08510256                0.27032492                0.00038673               -0.06044307                0.01274148
               9.00000000                0.00000000               92.00000000                0.73454069               -0.08450416               -0.08750596                0.26266735               -0.00072105               -0.04192015                0.01715388
              10.00000000                0.00000000               92.00000000                0.88367793               -0.07959763               -0.08766920                0.26246622               -0.00911031               -0.02470555                0.01167785
               0.00000000                1.00000000               92.00000000                0.50915984               -0.07934664               -0.03961768                0.22995458                0.03658582               -0.00026671                0.04526041
               1.00000000                1.00000000               92.00000000                0.01000000               -0.11506138               -0.11505934                0.23324174                0.10347827                0.01715427                0.01715041
               2.00000000                1.00000000               92.00000000                0.01000001               -0.13691046               -0.11936938                0.24817500                0.13364037                0.02034180                0.22920299
               3.00000000                1.00000000               92.00000000                0.02390392               -0.10907096               -0.06916096                0.26622926                0.12629233                0.01313045                0.30782801
               4.00000000                1.00000000               92.00000000                0.06129836               -0.08726818               -0.04770251                0.28257681                0.14350642                0.00473182                0.19216343
               5.00000000                1.00000000               92.00000000                0.10382149               -0.07724878               -0.07796666                0.29614646                0.09445099               -0.00091513                0.19172851
               6.00000000                1.00000000               92.00000000                0.14996281               -0.07713342               -0.10652463                0.30607270                0.03540389               -0.00485689                0.21769482
               7.00000000                1.00000000               92.00000000                0.19973194               -0.08312857               -0.12512218                0.31183988               -0.00939619               -0.00672339                0.23546703
               8.00000000                1.00000000               92.00000000                0.25492770               -0.09006391               -0.13606780                0.31398546               -0.03030835               -0.00444440                0.23919993
               9.00000000                1.00000000               92.00000000                0.32135657               -0.09407654               -0.14290629                0.31550894               -0.02762446                0.00093720                0.23916538
              10.00000000                1.00000000               92.00000000                0.68488134               -0.09507387               -0.12787127                0.31895723               -0.02815765                0.00229542                0.22877730
               0.00000000                2.00000000               92.00000000                0.51265410               -0.06408224               -0.04806593                0.25023904                0.00677380               -0.00769460                0.09742931
               1.00000000                2.00000000               92.00000000                0.01000001               -0.11946542               -0.13691364                0.24819123                0.13373393                0.22920658                0.02033476
               2.00000000                2.00000000               92.00000000                0.01000000               -0.17446184               -0.17437973                0.40255946                0.40094948                0.31500966                0.31460514
               3.00000000                2.00000000               92.00000000                0.01000000               -0.10808491               -0.30158869                0.41798511                0.27231300                0.02623553                0.98552332
               4.00000000                2.00000000               92.00000000                0.01000001               -0.08010406               -0.49402604                0.49627572               -0.09576002               -0.06064550                2.01653730
               5.00000000                2.00000000               92.00000000                0.03274329               -0.12068713               -0.49814587                0.56106618               -0.21844741                0.04861014                1.87672399
               6.00000000                2.00000000               92.00000000                0.06884524               -0.11768401               -0.47243094                0.59421633               -0.24895530                0.05303050                1.63653830
               7.00000000                2.00000000               92.00000000                0.10933816               -0.10622958               -0.44516873                0.58690606               -0.24633800                0.02988772                1.42307707
               8.00000000                2.00000000               92.00000000                0.15504250               -0.09568338               -0.41947971                0.55838702               -0.21317959                0.01620190                1.24522433
               9.00000000                2.00000000               92.00000000                0.21165685               -0.09404644               -0.39009369                0.53098964               -0.13166473                0.01046653                1.10952844
              10.00000000                2.00000000               92.00000000                0.62419635               -0.09707815               -0.33627096                0.52297677               -0.04530483                0.00205549                1.05017029
               0.00000000                3.00000000               92.00000000                0.53524533               -0.07094509               -0.09614345                0.26986211                0.01082206                0.00131029                0.09376176
               1.00000000                3.00000000               92.00000000                0.02385643               -0.06988036               -0.10907547                0.26623883                0.12638272                0.30739699                0.01313558
               2.00000000                3.00000000               92.00000000                0.01000000               -0.30169350               -0.10812964                0.41932405                0.27248948                0.98654235                0.02617770
               3.00000000                3.00000000               92.00000000                0.01000000               -0.58075634               -0.58148644                1.10208447               -0.23724021                1.54771595                1.54692279
               4.00000000                3.00000000               92.00000000                0.03470836               -0.36614161               -0.62419612                0.69298217               -0.25362155                0.83712763                1.74433741
               5.00000000                3.00000000               92.00000000                0.07195714               -0.06368077               -0.60409049                0.35175158               -0.11174777               -0.33127768                1.83007059
               6.00000000                3.00000000               92.00000000                0.11450366               -0.01191735               -0.57673091                0.38567341               -0.13807181               -0.37819778                1.68169121
               7.00000000                3.00000000               92.00000000                0.16114825                0.00213216               -0.54409354                0.41030441               -0.16727951               -0.30023859                1.49806890
               8.00000000                3.00000000               92.00000000                0.21327124                0.00947357               -0.50915971                0.41542692               -0.15985515               -0.21664779                1.32744757
               9.00000000                3.00000000               92.00000000                0.27694995                0.01629634               -0.47179277                0.41004871               -0.09640780               -0.11070330                1.19082434
              10.00000000                3.00000000               92.00000000                0.65938638                0.01972494               -0.44063150                0.40572527               -0.02466879               -0.05115511                1.09990105
               0.00000000                4.00000000               92.00000000                0.56241740               -0.07474704               -0.12742418                0.28333593                0.01060763                0.00635009                0.05990092
               1.00000000                4.00000000               92.00000000                0.06133366               -0.04773012               -0.08727370                0.28257845                0.14356283                0.19206468                0.00472267
               2.00000000                4.00000000               92.00000000                0.01000001               -0.49397298               -0.08020144                0.49603708               -0.09498040                2.01644151               -0.05998797
               3.00000000                4.00000000               92.00000000                0.03470035               -0.62411599               -0.36637607                0.69270276               -0.25348334                1.74472055                0.83700019
               4.00000000                4.00000000               92.00000000                0.07119077               -0.21668285               -0.21669095                0.40479798                0.30646725               -0.00873905               -0.00895969
               5.00000000                4.00000000               92.00000000                0.11318402               -0.12754096               -0.24222922                0.41619798                0.22202967               -0.20887547                0.11378712
               6.00000000                4.00000000               92.00000000                0.15691851               -0.08323027               -0.28341340                0.41158741                0.11880273               -0.23897228                0.26058445
               7.00000000                4.00000000               92.00000000                0.20214572               -0.05144073               -0.30567678                0.40066066                0.03945323               -0.22235119                0.34191344
               8.00000000                4.00000000               92.00000000                0.25130518               -0.03324781               -0.31174744                0.38659610               -0.01215735               -0.16609701                0.37872699
               9.00000000                4.00000000               92.00000000                0.31105253               -0.02312348               -0.31592556                0.37347889               -0.02612397               -0.07853313                0.38808671
              10.00000000                4.00000000               92.00000000                0.67730814               -0.01888769               -0.34412034                0.36686159               -0.03768673               -0.02948167                0.35690264
               0.00000000                5.00000000               92.00000000                0.59190162               -0.07830908               -0.13972854                0.28870053                0.00975105                0.00931764                0.01355171
               1.00000000                5.00000000               92.00000000                0.10383882               -0.07791610               -0.07726229                0.29617891                0.09444722                0.19211849               -0.00094367
               2.00000000                5.00000000               92.00000000                0.03274971               -0.49802150               -0.12073807                0.56129199               -0.21844705                1.87679753                0.04876243
               3.00000000                5.00000000               92.00000000                0.07195617               -0.60409152               -0.06373739                0.35207203               -0.11173298                1.82981799               -0.33127433
               4.00000000                5.00000000               92.00000000                0.11321091               -0.24227329               -0.12753153                0.41616870                0.22210225                0.11387586               -0.20893191
               5.00000000                5.00000000               92.00000000                0.16368679               -0.16718298               -0.16718010                0.42701965                0.15332850               -0.07798361               -0.07797246
               6.00000000                5.00000000               92.00000000                0.21478617               -0.12149313               -0.19185850                0.41576109                0.09257113               -0.14695310                0.00034610
               7.00000000                5.00000000               92.00000000                0.26562787               -0.09164673               -0.20632908                0.39548120                0.04631861               -0.15465240                0.05345467
               8.00000000                5.00000000               92.00000000                0.31911369               -0.07219643               -0.21411594                0.37301149                0.01258442               -0.11915073                0.08815756
               9.00000000                5.00000000               92.00000000                0.38351966               -0.05675669               -0.22553152                0.35411558               -0.00510921               -0.05696195                0.10338256
              10.00000000                5.00000000               92.00000000                0.71539362               -0.04891023               -0.26010290                0.34376529               -0.02224823               -0.02099206                0.09520568
               0.00000000                6.00000000               92.00000000                0.62282832               -0.08098439               -0.13519169                0.28664295                0.00712569                0.01080339               -0.02864612
               1.00000000                6.00000000               92.00000000                0.14997970               -0.10645701               -0.07714503                0.30610413                0.03543349                0.21781414               -0.00486089
               2.00000000                6.00000000               92.00000000                0.06885530               -0.47232916               -0.11771823                0.59415510               -0.24906291                1.63664356                0.05262671
               3.00000000                6.00000000               92.00000000                0.11452306               -0.57673596               -0.01180448                0.38548164               -0.13820544                1.68165372               -0.37816862
               4.00000000                6.00000000               92.00000000                0.15690686               -0.28345966               -0.08321025                0.41152340                0.11883489                0.26052889               -0.23900143
               5.00000000                6.00000000               92.00000000                0.21478751               -0.19188124               -0.12146059                0.41577141                0.09254341                0.00037081               -0.14696475
               6.00000000                6.00000000               92.00000000                0.27343712               -0.13864310               -0.13863230                0.39975537                0.05980265               -0.09738540               -0.09740690
               7.00000000                6.00000000               92.00000000                0.33087128               -0.10805404               -0.14580021                0.37595171                0.03729289               -0.11946967               -0.06582282
               8.00000000                6.00000000               92.00000000                0.39045157               -0.08907291               -0.14913988                0.35091998                0.02086828               -0.09654926               -0.04500521
               9.00000000                6.00000000               92.00000000                0.46166611               -0.07607876               -0.15590505                0.33009086                0.00778356               -0.04785668               -0.03436792
              10.00000000                6.00000000               92.00000000                0.75652439               -0.07041997               -0.17614149                0.31788087               -0.00684763               -0.01854447               -0.03325485
               0.00000000                7.00000000               92.00000000                0.65529864               -0.08308380               -0.11917523                0.27941580                0.00344873                0.01165764               -0.05512757
               1.00000000                7.00000000               92.00000000                0.19969983               -0.12514481               -0.08312689                0.31181271               -0.00940894                0.23545478               -0.00671985
               2.00000000                7.00000000               92.00000000                0.10934548               -0.44515834               -0.10626993                0.58698771               -0.24639539                1.42315216                0.02972683
               3.00000000                7.00000000               92.00000000                0.16114386               -0.54400893                0.00217036                0.41016547               -0.16732265                1.49819280               -0.30028018
               4.00000000                7.00000000               92.00000000                0.20215727               -0.30563562               -0.05144815                0.40068362                0.03940399                0.34190266               -0.22232230
               5.00000000                7.00000000               92.00000000                0.26561498               -0.20634665               -0.09164441                0.39551585                0.04630762                0.05346227               -0.15466956
               6.00000000                7.00000000               92.00000000                0.33086501               -0.14581251               -0.10805492                0.37596937                0.03729683               -0.06581771               -0.11948313
               7.00000000                7.00000000               92.00000000                0.39449916               -0.11334644               -0.11334515                0.35081615                0.02912859               -0.09797327               -0.09799597
               8.00000000                7.00000000               92.00000000                0.46015731               -0.09406906               -0.11462855                0.32533808                0.02158059               -0.08317934               -0.08339486
               9.00000000                7.00000000               92.00000000                0.53833326               -0.08205594               -0.11681223                0.30416991                0.01177150               -0.04255288               -0.07473650
              10.00000000                7.00000000               92.00000000                0.79705398               -0.07737066               -0.12419986                0.29139025                0.00319686               -0.01723823               -0.07187494
               0.00000000                8.00000000               92.00000000                0.69122493               -0.08508969               -0.09925719                0.27029246                0.00038165                0.01273700               -0.06042824
               1.00000000                8.00000000               92.00000000                0.25492380               -0.13607715               -0.09005157                0.31393354               -0.03031809                0.23915442               -0.00444027
               2.00000000                8.00000000               92.00000000                0.15504000               -0.41945336               -0.09565845                0.55831904               -0.21313761                1.24519948                0.01616015
               3.00000000                8.00000000               92.00000000                0.21327929               -0.50910919                0.00944181                0.41548149               -0.15982852                1.32748560               -0.21663505
               4.00000000                8.00000000               92.00000000                0.25129367               -0.31173765               -0.03326044                0.38661555               -0.01219854                0.37872421               -0.16606826
               5.00000000                8.00000000               92.00000000                0.31911837               -0.21411405               -0.07220132                0.37303608                0.01257278                0.08815483               -0.11915046
               6.00000000                8.00000000               92.00000000                0.39043580               -0.14913954               -0.08907652                0.35092888                0.02086980               -0.04500691               -0.09654609
               7.00000000                8.00000000               92.00000000                0.46012144               -0.11463166               -0.09407308                0.32535019                0.02158562               -0.08338938               -0.08318288
               8.00000000                8.00000000               92.00000000                0.53192537               -0.09433325               -0.09433128                0.30015291                0.01840414               -0.07351978               -0.07353674
               9.00000000                8.00000000               92.00000000                0.61731608               -0.08221707               -0.09413418                0.27924061                0.01088563               -0.03823582               -0.06718321
              10.00000000                8.00000000               92.00000000                0.83890940               -0.07788096               -0.09360037                0.26646994                0.00602372               -0.01588799               -0.06488739
               0.00000000                9.00000000               92.00000000                0.73466225               -0.08749085               -0.08449027                0.26263528               -0.00071704                0.01714844               -0.04188770
               1.00000000                9.00000000               92.00000000                0.32133851               -0.14290474               -0.09406181                0.31546170               -0.02761816                0.23911754                0.00096230
               2.00000000                9.00000000               92.00000000                0.21164223               -0.39008317               -0.09401737                0.53093063               -0.13166537                1.10950633                0.01046714
               3.00000000                9.00000000               92.00000000                0.27694463               -0.47177305                0.01626157                0.41012511               -0.09643584                1.19083159               -0.11072756
               4.00000000                9.00000000               92.00000000                0.31106288               -0.31591694               -0.02313500                0.37348498               -0.02613596                0.38808743               -0.07850631
               5.00000000                9.00000000               92.00000000                0.38352304               -0.22552379               -0.05676283                0.35412407               -0.00510937                0.10335499               -0.05694499
               6.00000000                9.00000000               92.00000000                0.46167299               -0.15590169               -0.07608076                0.33009293                0.00778086               -0.03437627               -0.04785301
               7.00000000                9.00000000               92.00000000                0.53837210               -0.11681108               -0.08205799                0.30417016                0.01176908               -0.07474046               -0.04253251
               8.00000000                9.00000000               92.00000000                0.61730206               -0.09413465               -0.08221996                0.27924791                0.01088928               -0.06718455               -0.03823931
               9.00000000                9.00000000               92.00000000                0.71128689               -0.08071153               -0.08071155                0.25867031                0.00639530               -0.03520705               -0.03521748
              10.00000000                9.00000000               92.00000000                0.88887666               -0.07588464               -0.07726832                0.24604260                0.00472165               -0.01492101               -0.03407575
               0.00000000               10.00000000               92.00000000                0.88366134               -0.08765689               -0.07958623                0.26243740               -0.00910101                0.01166854               -0.02465983
               1.00000000               10.00000000               92.00000000                0.68491820               -0.12788364               -0.09505904                0.31891942               -0.02814729                0.22873402                0.00233254
               2.00000000               10.00000000               92.00000000                0.62420090               -0.33628080               -0.09705728                0.52298975               -0.04535165                1.05019170                0.00205392
               3.00000000               10.00000000               92.00000000                0.65939497               -0.44061588                0.01969333                0.40576915               -0.02471869                1.09992305               -0.05119949
               4.00000000               10.00000000               92.00000000                0.67731873               -0.34410535               -0.01890010                0.36687038               -0.03768190                0.35689782               -0.02946441
               5.00000000               10.00000000               92.00000000                0.71540167               -0.26009424               -0.04891567                0.34376787               -0.02224101                0.09516262               -0.02097446
               6.00000000               10.00000000               92.00000000                0.75652524               -0.17613980               -0.07042226                0.31788515               -0.00684807               -0.03326742               -0.01854245
               7.00000000               10.00000000               92.00000000                0.79705277               -0.12419529               -0.07736926                0.29138234                0.00319132               -0.07188027               -0.01721252
               8.00000000               10.00000000               92.00000000                0.83892700               -0.09359595               -0.07788475                0.26647130                0.00602409               -0.06490909               -0.01588212
               9.00000000               10.00000000               92.00000000                0.88886114               -0.07726800               -0.07588580                0.24604514                0.00472517               -0.03408028               -0.01493491
              10.00000000               10.00000000               92.00000000                0.96206538               -0.07221338               -0.07221218                0.23349717                0.00472632               -0.01479934               -0.01480634
               0.00000000                0.00000000               93.00000000                0.75489457               -0.05245493               -0.05246289                0.20936371                0.00868512                0.00909635                0.00909819
               1.00000000                0.00000000               93.00000000                0.50849457               -0.02997405               -0.07972473                0.21925834                0.04881431                0.05699482                0.00087405
               2.00000000                0.00000000               93.00000000                0.51432591               -0.04472919               -0.05986297                0.24548467                0.01053701                0.11589794               -0.00693022
               3.00000000                0.00000000               93.00000000                0.53782432               -0.10736346               -0.06934423                0.26809429                0.01627161                0.10398885                0.00415541
               4.00000000                0.00000000               93.00000000                0.56495381               -0.14512552               -0.07433170                0.28184710                0.01529106                0.05829567                0.00990331
               5.00000000                0.00000000               93.00000000                0.59268223               -0.15779866               -0.07872555                0.28571595                0.01290898                0.00123208                0.01332022
               6.00000000                0.00000000               93.00000000                0.61977659               -0.14939935               -0.08182386                0.28144214                0.00789458               -0.04785643                0.01519798
               7.00000000                0.00000000               93.00000000                0.64663322               -0.12726049               -0.08412872                0.27226387                0.00178162               -0.07631676                0.01629516
               8.00000000                0.00000000               93.00000000                0.67531897               -0.10113441               -0.08614660                0.26196756               -0.00265191               -0.07927161                0.01736605
               9.00000000                0.00000000               93.00000000                0.70996861               -0.08235528               -0.08869646                0.25370642               -0.00345746               -0.05432178                0.02236426
              10.00000000                0.00000000               93.00000000                0.86831127               -0.07627199               -0.08790966                0.25153648               -0.01415978               -0.03254495                0.01448398
               0.00000000                1.00000000               93.00000000                0.50851078               -0.07973379               -0.02998235                0.21928348                0.04881650                0.00087880                0.05699423
               1.00000000                1.00000000               93.00000000                0.01000000               -0.12577182               -0.12576114                0.22750549                0.13607547                0.02499659                0.02498955
               2.00000000                1.00000000               93.00000000                0.01000000               -0.15170564               -0.12031994                0.25015899                0.18412355                0.03433863                0.32861312
               3.00000000                1.00000000               93.00000000                0.02994912               -0.11313938               -0.02561030                0.27563422                0.21854986                0.02882150                0.39998203
               4.00000000                1.00000000               93.00000000                0.07023290               -0.08526111               -0.03225889                0.29843755                0.20541678                0.01973187                0.33152634
               5.00000000                1.00000000               93.00000000                0.11448485               -0.07412083               -0.08727326                0.31699700                0.10975951                0.01145544                0.36258495
               6.00000000                1.00000000               93.00000000                0.16009555               -0.07597769               -0.12481283                0.32941407                0.02202787                0.00261036                0.39123017
               7.00000000                1.00000000               93.00000000                0.20576281               -0.08501938               -0.14596763                0.33428294               -0.03510321               -0.00506526                0.38705058
               8.00000000                1.00000000               93.00000000                0.25367781               -0.09422692               -0.15628880                0.33268266               -0.05544378               -0.00646241                0.36116284
               9.00000000                1.00000000               93.00000000                0.31003290               -0.09835977               -0.16218527                0.32919972               -0.04414268               -0.00057274                0.33674552
              10.00000000                1.00000000               93.00000000                0.67569404               -0.09874584               -0.14346756                0.32877722               -0.04122760                0.00291370                0.31492923
               0.00000000                2.00000000               93.00000000                0.51435161               -0.05987669               -0.04473285                0.24550912                0.01053909               -0.00693216                0.11588627
               1.00000000                2.00000000               93.00000000                0.01000000               -0.12056651               -0.15170389                0.25017531                0.18435568                0.32860811                0.03436140
               2.00000000                2.00000000               93.00000000                0.01000000               -0.14013067               -0.14013521                0.46249913                0.59709618                0.41705997                0.41591423
               3.00000000                2.00000000               93.00000000                0.01000001               -0.09249523               -0.38665843                0.52265587                0.30947172                0.12250126                1.61166305
               4.00000000                2.00000000               93.00000000                0.01826438               -0.13431270               -0.54964882                0.69251609               -0.12379169               -0.00389533                2.09557220
               5.00000000                2.00000000               93.00000000                0.05608219               -0.16842450               -0.49925223                0.77277492               -0.23069379                0.05123094                1.85906915
               6.00000000                2.00000000               93.00000000                0.09818510               -0.13787610               -0.46783265                0.76782915               -0.25400126                0.01337273                1.62799007
               7.00000000                2.00000000               93.00000000                0.14087579               -0.11012114               -0.44033545                0.71564187               -0.25301893               -0.03231010                1.41698520
               8.00000000                2.00000000               93.00000000                0.18491918               -0.09239967               -0.41392392                0.64985995               -0.21846921               -0.04190660                1.23443176
               9.00000000                2.00000000               93.00000000                0.23810869               -0.09171088               -0.38476274                0.59577327               -0.12912732               -0.02181749                1.09205974
              10.00000000                2.00000000               93.00000000                0.63656328               -0.09732156               -0.33857441                0.57748888               -0.03870735               -0.00874635                1.02340240
               0.00000000                3.00000000               93.00000000                0.53781072               -0.06935669               -0.10736519                0.26812584                0.01626686                0.00415081                0.10396659
               1.00000000                3.00000000               93.00000000                0.03002420               -0.02437059               -0.11315377                0.27566178                0.21854574                0.40092474                0.02881654
               2.00000000                3.00000000               93.00000000                0.01000001               -0.38639844               -0.09281828                0.52158641                0.30965223                1.61117181                0.12204367
               3.00000000                3.00000000               93.00000000                0.01805695               -0.68851934               -0.68748080                1.40568172               -0.32692173                1.42189621                1.42282340
               4.00000000                3.00000000               93.00000000                0.05489093               -0.32172018               -0.68590919                0.35131413               -0.15496367                0.37568057                1.81220101
               5.00000000                3.00000000               93.00000000                0.09842453               -0.03254686               -0.62529613                0.30287947               -0.03511304               -0.33470683                1.74418732
               6.00000000                3.00000000               93.00000000                0.14504051               -0.00141011               -0.57563302                0.35228769               -0.11909507               -0.31258459                1.55354216
               7.00000000                3.00000000               93.00000000                0.19225951                0.00306466               -0.52804016                0.38230873               -0.15679518               -0.26502933                1.35856483
               8.00000000                3.00000000               93.00000000                0.24169002                0.00442153               -0.48302034                0.39216273               -0.14934750               -0.20511962                1.19217592
               9.00000000                3.00000000               93.00000000                0.30115649                0.00724794               -0.44020203                0.39185636               -0.08799798               -0.11032412                1.06176503
              10.00000000                3.00000000               93.00000000                0.67050605                0.00932268               -0.41300291                0.39054486               -0.01881621               -0.05688075                0.97168513
               0.00000000                4.00000000               93.00000000                0.56491434               -0.07433805               -0.14512791                0.28186664                0.01528942                0.00990381                0.05828428
               1.00000000                4.00000000               93.00000000                0.07030947               -0.03206820               -0.08527767                0.29846000                0.20535812                0.33168207                0.01971683
               2.00000000                4.00000000               93.00000000                0.01828670               -0.54936275               -0.13437263                0.69200687               -0.12518018                2.09533363               -0.00488846
               3.00000000                4.00000000               93.00000000                0.05492196               -0.68589687               -0.32154653                0.35141098               -0.15519469                1.81212572                0.37566299
               4.00000000                4.00000000               93.00000000                0.09512438               -0.21423063               -0.21401967                0.35164930                0.42911186                0.00103792                0.00094064
               5.00000000                4.00000000               93.00000000                0.14074127               -0.13130340               -0.28614056                0.38064621                0.27999159               -0.16769755                0.19225473
               6.00000000                4.00000000               93.00000000                0.18562601               -0.07526482               -0.32121901                0.38519927                0.13951496               -0.21913251                0.29895059
               7.00000000                4.00000000               93.00000000                0.22938357               -0.04241852               -0.32804192                0.38074740                0.04317603               -0.21396409                0.34269908
               8.00000000                4.00000000               93.00000000                0.27492282               -0.02726904               -0.31849079                0.37134349               -0.01279661               -0.16596042                0.35348372
               9.00000000                4.00000000               93.00000000                0.33059227               -0.02155530               -0.30953083                0.36152808               -0.02469002               -0.08120487                0.34733287
              10.00000000                4.00000000               93.00000000                0.68609530               -0.01989203               -0.32294115                0.35906947               -0.03172414               -0.03414522                0.30860633
               0.00000000                5.00000000               93.00000000                0.59267914               -0.07872352               -0.15780463                0.28572517                0.01290506                0.01332237                0.00123934
               1.00000000                5.00000000               93.00000000                0.11452163               -0.08724620               -0.07412848                0.31700805                0.10972720                0.36269029                0.01146451
               2.00000000                5.00000000               93.00000000                0.05609290               -0.49912228               -0.16836917                0.77230241               -0.23090310                1.85905412                0.05105144
               3.00000000                5.00000000               93.00000000                0.09843588               -0.62523108               -0.03239477                0.30285126               -0.03537879                1.74403310               -0.33465132
               4.00000000                5.00000000               93.00000000                0.14074161               -0.28619453               -0.13116824                0.38060969                0.27987391                0.19231163               -0.16772270
               5.00000000                5.00000000               93.00000000                0.19363021               -0.18543152               -0.18540437                0.40318950                0.20185935               -0.05272256               -0.05273786
               6.00000000                5.00000000               93.00000000                0.24435514               -0.12366945               -0.21391533                0.39731413                0.11868802               -0.14431918                0.01177325
               7.00000000                5.00000000               93.00000000                0.29200484               -0.08727710               -0.22501921                0.38024169                0.05788544               -0.16146802                0.05115081
               8.00000000                5.00000000               93.00000000                0.34036809               -0.06609246               -0.22549337                0.35993269                0.01643553               -0.12853547                0.07418366
               9.00000000                5.00000000               93.00000000                0.39953928               -0.05239385               -0.22771009                0.34296314               -0.00375980               -0.06294708                0.08078026
              10.00000000                5.00000000               93.00000000                0.72224941               -0.04627858               -0.25120464                0.33710672               -0.01955036               -0.02581509                0.06633979
               0.00000000                6.00000000               93.00000000                0.61984306               -0.08182250               -0.14939694                0.28144697                0.00789990                0.01520327               -0.04785560
               1.00000000                6.00000000               93.00000000                0.16012849               -0.12479407               -0.07597865                0.32940921                0.02203821                0.39120762                0.00259102
               2.00000000                6.00000000               93.00000000                0.09818423               -0.46783103               -0.13785022                0.76772490               -0.25394850                1.62787616                0.01331986
               3.00000000                6.00000000               93.00000000                0.14504672               -0.57558042               -0.00138620                0.35216618               -0.11911368                1.55356059               -0.31257194
               4.00000000                6.00000000               93.00000000                0.18563311               -0.32116682               -0.07526127                0.38523832                0.13948320                0.29894487               -0.21908909
               5.00000000                6.00000000               93.00000000                0.24436603               -0.21392947               -0.12365472                0.39731003                0.11867689                0.01178579               -0.14431369
               6.00000000                6.00000000               93.00000000                0.30108330               -0.14487286               -0.14487004                0.38512863                0.07656207               -0.10393786               -0.10393258
               7.00000000                6.00000000               93.00000000                0.35357897               -0.10712840               -0.15252455                0.36366134                0.04642684               -0.13242908               -0.07818464
               8.00000000                6.00000000               93.00000000                0.40625840               -0.08540229               -0.15397211                0.34032607                0.02475625               -0.10940916               -0.06145898
               9.00000000                6.00000000               93.00000000                0.47039614               -0.07258518               -0.15720700                0.32124719                0.00883141               -0.05525522               -0.05402417
              10.00000000                6.00000000               93.00000000                0.75924209               -0.06766660               -0.17353178                0.31287106               -0.00617555               -0.02290812               -0.05607918
               0.00000000                7.00000000               93.00000000                0.64659569               -0.08411746               -0.12724675                0.27225411                0.00177912                0.01630160               -0.07632112
               1.00000000                7.00000000               93.00000000                0.20578993               -0.14588203               -0.08501779                0.33424946               -0.03510641                0.38718084               -0.00510805
               2.00000000                7.00000000               93.00000000                0.14092596               -0.44021066               -0.11013902                0.71557723               -0.25306649                1.41682507               -0.03229529
               3.00000000                7.00000000               93.00000000                0.19228300               -0.52805985                0.00306281                0.38227411               -0.15678650                1.35839256               -0.26499188
               4.00000000                7.00000000               93.00000000                0.22939989               -0.32811659               -0.04241862                0.38075995                0.04316175                0.34270655               -0.21394665
               5.00000000                7.00000000               93.00000000                0.29200665               -0.22503518               -0.08727450                0.38024213                0.05790152                0.05114185               -0.16147172
               6.00000000                7.00000000               93.00000000                0.35357476               -0.15253233               -0.10712287                0.36367034                0.04643328               -0.07818773               -0.13244091
               7.00000000                7.00000000               93.00000000                0.41053301               -0.11403705               -0.11403602                0.34070764                0.03492905               -0.11344312               -0.11343961
               8.00000000                7.00000000               93.00000000                0.46738993               -0.09220259               -0.11551807                0.31695356                0.02468062               -0.09705612               -0.10009658
               9.00000000                7.00000000               93.00000000                0.53647291               -0.07974170               -0.11700631                0.29742366                0.01296791               -0.05039485               -0.09246185
              10.00000000                7.00000000               93.00000000                0.79378242               -0.07526985               -0.12371143                0.28778802                0.00358013               -0.02154756               -0.09070279
               0.00000000                8.00000000               93.00000000                0.67526734               -0.08614256               -0.10113163                0.26196686               -0.00265066                0.01736276               -0.07926636
               1.00000000                8.00000000               93.00000000                0.25359359               -0.15631327               -0.09422935                0.33267783               -0.05545394                0.36120294               -0.00647090
               2.00000000                8.00000000               93.00000000                0.18488869               -0.41391565               -0.09241640                0.64998389               -0.21856491                1.23455935               -0.04204467
               3.00000000                8.00000000               93.00000000                0.24171809               -0.48295177                0.00440716                0.39216059               -0.14948825                1.19215047               -0.20504648
               4.00000000                8.00000000               93.00000000                0.27493989               -0.31845539               -0.02727103                0.37132347               -0.01282801                0.35343181               -0.16595196
               5.00000000                8.00000000               93.00000000                0.34037900               -0.22549681               -0.06609200                0.35993175                0.01644153                0.07416015               -0.12853675
               6.00000000                8.00000000               93.00000000                0.40621084               -0.15398617               -0.08540377                0.34035010                0.02476664               -0.06146069               -0.10941993
               7.00000000                8.00000000               93.00000000                0.46741512               -0.11552583               -0.09220271                0.31696258                0.02468698               -0.10009012               -0.09706661
               8.00000000                8.00000000               93.00000000                0.52845740               -0.09339383               -0.09339575                0.29345130                0.02053725               -0.08771048               -0.08770974
               9.00000000                8.00000000               93.00000000                0.60253092               -0.08076255               -0.09365402                0.27395744                0.01194737               -0.04626896               -0.08157351
              10.00000000                8.00000000               93.00000000                0.82852939               -0.07645582               -0.09339907                0.26385850                0.00631832               -0.02025746               -0.07949006
               0.00000000                9.00000000               93.00000000                0.70992236               -0.08869419               -0.08235660                0.25370443               -0.00346084                0.02236414               -0.05432537
               1.00000000                9.00000000               93.00000000                0.31005128               -0.16220639               -0.09836420                0.32920069               -0.04415019                0.33675135               -0.00057101
               2.00000000                9.00000000               93.00000000                0.23809302               -0.38479414               -0.09172825                0.59585158               -0.12906655                1.09221467               -0.02181938
               3.00000000                9.00000000               93.00000000                0.30117699               -0.44016551                0.00722339                0.39188445               -0.08799414                1.06181534               -0.11032025
               4.00000000                9.00000000               93.00000000                0.33061053               -0.30947478               -0.02155669                0.36148474               -0.02470571                0.34727606               -0.08119265
               5.00000000                9.00000000               93.00000000                0.39955461               -0.22769884               -0.05239067                0.34294797               -0.00376051                0.08075414               -0.06294451
               6.00000000                9.00000000               93.00000000                0.47040297               -0.15720875               -0.07258660                0.32125101                0.00883337               -0.05404026               -0.05524500
               7.00000000                9.00000000               93.00000000                0.53642109               -0.11701181               -0.07973914                0.29742330                0.01298158               -0.09246362               -0.05041557
               8.00000000                9.00000000               93.00000000                0.60252270               -0.09365874               -0.08076245                0.27396332                0.01195352               -0.08156653               -0.04628007
               9.00000000                9.00000000               93.00000000                0.68284129               -0.07993674               -0.07993486                0.25448835                0.00698644               -0.04330719               -0.04330895
              10.00000000                9.00000000               93.00000000                0.87090283               -0.07507156               -0.07705024                0.24426702                0.00469840               -0.01934867               -0.04217458
               0.00000000               10.00000000               93.00000000                0.86828468               -0.08789160               -0.07626946                0.25150835               -0.01416902                0.01448411               -0.03256337
               1.00000000               10.00000000               93.00000000                0.67568258               -0.14342450               -0.09874693                0.32874957               -0.04123778                0.31496621                0.00290336
               2.00000000               10.00000000               93.00000000                0.63655914               -0.33859427               -0.09733745                0.57746011               -0.03859233                1.02348961               -0.00868844
               3.00000000               10.00000000               93.00000000                0.67051590               -0.41305486                0.00931292                0.39058214               -0.01874566                0.97169492               -0.05688850
               4.00000000               10.00000000               93.00000000                0.68613827               -0.32292024               -0.01988999                0.35902004               -0.03173013                0.30856757               -0.03412858
               5.00000000               10.00000000               93.00000000                0.72225313               -0.25118505               -0.04627329                0.33709089               -0.01955007                0.06631541               -0.02581448
               6.00000000               10.00000000               93.00000000                0.75922443               -0.17352569               -0.06766650                0.31286484               -0.00617865               -0.05610090               -0.02288993
               7.00000000               10.00000000               93.00000000                0.79377733               -0.12370986               -0.07526635                0.28778558                0.00359199               -0.09072503               -0.02156407
               8.00000000               10.00000000               93.00000000                0.82851672               -0.09340803               -0.07645433                0.26387275                0.00632337               -0.07948291               -0.02027766
               9.00000000               10.00000000               93.00000000                0.87086087               -0.07705575               -0.07507150                0.24427120                0.00469800               -0.04216833               -0.01934871
              10.00000000               10.00000000               93.00000000                0.95098894               -0.07207201               -0.07207111                0.23401475                0.00402638               -0.01924491               -0.01924244
               0.00000000                0.00000000               94.00000000                0.75290825               -0.04459480               -0.04458300                0.18704018                0.01346169                0.01176037                0.01177617
               1.00000000                0.00000000               94.00000000                0.50728584               -0.02024228               -0.07986021                0.20532804                0.06305061                0.06939978                0.00291870
               2.00000000                0.00000000               94.00000000                0.51599454               -0.04412861               -0.05527338                0.23840034                0.01584393                0.13130009               -0.00442228
               3.00000000                0.00000000               94.00000000                0.54045140               -0.12245588               -0.06810372                0.26309770                0.02349201                0.10703565                0.00849800
               4.00000000                0.00000000               94.00000000                0.56719902               -0.16542156               -0.07445948                0.27566402                0.02097465                0.04787298                0.01480264
               5.00000000                0.00000000               94.00000000                0.59227494               -0.17624899               -0.07970249                0.27661718                0.01564751               -0.01883002                0.01883451
               6.00000000                0.00000000               94.00000000                0.61456187               -0.16163033               -0.08320092                0.26946101                0.00657599               -0.07103228                0.02131048
               7.00000000                0.00000000               94.00000000                0.63476640               -0.13193021               -0.08564757                0.25923146               -0.00292492               -0.09632032                0.02268722
               8.00000000                0.00000000               94.00000000                0.65542246               -0.09988011               -0.08756550                0.25004455               -0.00838159               -0.09285373                0.02363961
               9.00000000                0.00000000               94.00000000                0.68059249               -0.07851028               -0.08996262                0.24373285               -0.00776316               -0.06120763                0.02876319
              10.00000000                0.00000000               94.00000000                0.85008945               -0.07205926               -0.08774790                0.23962904               -0.01929509               -0.03613723                0.02104943
               0.00000000                1.00000000               94.00000000                0.50745727               -0.07985601               -0.02024601                0.20531593                0.06299434                0.00289578                0.06937892
               1.00000000                1.00000000               94.00000000                0.01000000               -0.13702983               -0.13699420                0.22235017                0.17244178                0.03525938                0.03525264
               2.00000000                1.00000000               94.00000000                0.01138459               -0.16623184               -0.12373874                0.25612862                0.23863972                0.05387169                0.44076283
               3.00000000                1.00000000               94.00000000                0.04021442               -0.11502739                0.03308038                0.29135505                0.31321917                0.05110969                0.55374726
               4.00000000                1.00000000               94.00000000                0.08617148               -0.08137076               -0.02679017                0.32259169                0.21113013                0.04077843                0.57699438
               5.00000000                1.00000000               94.00000000                0.13459212               -0.07044924               -0.10216369                0.34710992                0.07296646                0.02703049                0.62465481
               6.00000000                1.00000000               94.00000000                0.18016750               -0.07535880               -0.14439146                0.36063730               -0.02749608                0.00865794                0.61765028
               7.00000000                1.00000000               94.00000000                0.22034891               -0.08752840               -0.16548698                0.36099714               -0.08227262               -0.00877531                0.56495787
               8.00000000                1.00000000               94.00000000                0.25820086               -0.09832109               -0.17410898                0.35185955               -0.09085396               -0.01511968                0.49598123
               9.00000000                1.00000000               94.00000000                0.30250599               -0.10165463               -0.17792155                0.34039928               -0.06392460               -0.00719676                0.44191038
              10.00000000                1.00000000               94.00000000                0.66771288               -0.10095799               -0.15680903                0.33390748               -0.05283320                0.00007664                0.41055744
               0.00000000                2.00000000               94.00000000                0.51594686               -0.05526422               -0.04413085                0.23838039                0.01585442               -0.00442343                0.13125580
               1.00000000                2.00000000               94.00000000                0.01149930               -0.12170970               -0.16620056                0.25610145                0.23658182                0.44076241                0.05387936
               2.00000000                2.00000000               94.00000000                0.01000000               -0.10375122               -0.10429054                0.48704067                0.82430715                0.52655275                0.52521343
               3.00000000                2.00000000               94.00000000                0.01000000               -0.12856157               -0.59174949                0.73776548                0.21613153                0.17665832                2.13415837
               4.00000000                2.00000000               94.00000000                0.04596785               -0.23495050               -0.51536461                0.92614911               -0.14343287                0.00945615                2.00271245
               5.00000000                2.00000000               94.00000000                0.09516246               -0.19170388               -0.46799640                0.91931938               -0.22384370               -0.00530833                1.78673152
               6.00000000                2.00000000               94.00000000                0.14361972               -0.12794236               -0.44138262                0.84191008               -0.25290993               -0.08070354                1.56703974
               7.00000000                2.00000000               94.00000000                0.18577515               -0.09234191               -0.41638406                0.75314508               -0.25981003               -0.12775528                1.36234297
               8.00000000                2.00000000               94.00000000                0.22388202               -0.07566690               -0.39044633                0.67261107               -0.22452987               -0.12040739                1.18532173
               9.00000000                2.00000000               94.00000000                0.26963985               -0.08023697               -0.36224331                0.61136810               -0.12960218               -0.06553388                1.04889390
              10.00000000                2.00000000               94.00000000                0.65068521               -0.08922191               -0.32264998                0.58941527               -0.04033726               -0.02627484                0.97838120
               0.00000000                3.00000000               94.00000000                0.54052383               -0.06810874               -0.12243512                0.26311752                0.02349783                0.00849551                0.10701612
               1.00000000                3.00000000               94.00000000                0.04018077                0.03189461               -0.11504612                0.29136192                0.31265694                0.55222415                0.05111902
               2.00000000                3.00000000               94.00000000                0.01000000               -0.59177129               -0.12662051                0.73647864                0.21383831                2.13235528                0.17594924
               3.00000000                3.00000000               94.00000000                0.04076501               -0.76772250               -0.76895198                0.83601734               -0.24930098                1.35218214                1.35113423
               4.00000000                3.00000000               94.00000000                0.08596360               -0.13085004               -0.70775670                0.23670716                0.16298597               -0.08934974                1.66302891
               5.00000000                3.00000000               94.00000000                0.13673060               -0.02584892               -0.61388519                0.29245812                0.02097683               -0.24155789                1.49268277
               6.00000000                3.00000000               94.00000000                0.18585235               -0.00809341               -0.54785189                0.33806818               -0.08734765               -0.24660817                1.29379928
               7.00000000                3.00000000               94.00000000                0.23041408               -0.00627587               -0.48861989                0.36175748               -0.13854757               -0.23072918                1.12217426
               8.00000000                3.00000000               94.00000000                0.27327056               -0.00717444               -0.43509108                0.37005173               -0.13719342               -0.19214325                0.98773514
               9.00000000                3.00000000               94.00000000                0.32474578               -0.00749683               -0.38838468                0.37220350               -0.08116722               -0.10852922                0.88475378
              10.00000000                3.00000000               94.00000000                0.68053368               -0.00701191               -0.36372602                0.37394393               -0.01893220               -0.06179111                0.80772867
               0.00000000                4.00000000               94.00000000                0.56714900               -0.07446977               -0.16541782                0.27569135                0.02095702                0.01479376                0.04785555
               1.00000000                4.00000000               94.00000000                0.08619347               -0.02707251               -0.08138901                0.32260452                0.21105044                0.57635871                0.04075871
               2.00000000                4.00000000               94.00000000                0.04598780               -0.51519474               -0.23441538                0.92573601               -0.14220784                2.00206451                0.01093398
               3.00000000                4.00000000               94.00000000                0.08598192               -0.70731203               -0.13091582                0.23671124                0.16308681                1.66320482               -0.08918703
               4.00000000                4.00000000               94.00000000                0.12960631               -0.27900498               -0.27893781                0.33036102                0.50563279                0.10872690                0.10882091
               5.00000000                4.00000000               94.00000000                0.17841729               -0.14672543               -0.34036664                0.36317718                0.30406707               -0.11160454                0.26245186
               6.00000000                4.00000000               94.00000000                0.22298512               -0.07549402               -0.35562301                0.37009827                0.13631687               -0.18926786                0.31848016
               7.00000000                4.00000000               94.00000000                0.26304968               -0.04176992               -0.34074108                0.36624462                0.03179436               -0.20195068                0.32449143
               8.00000000                4.00000000               94.00000000                0.30257074               -0.02928142               -0.31220455                0.35733131               -0.02195663               -0.16674111                0.31222221
               9.00000000                4.00000000               94.00000000                0.35166031               -0.02676910               -0.28873128                0.34854015               -0.02741130               -0.08663445                0.29407855
              10.00000000                4.00000000               94.00000000                0.69506113               -0.02687791               -0.28839188                0.34950256               -0.02773111               -0.04177610                0.25184249
               0.00000000                5.00000000               94.00000000                0.59223022               -0.07970268               -0.17625114                0.27662818                0.01565315                0.01883588               -0.01884121
               1.00000000                5.00000000               94.00000000                0.13465531               -0.10211470               -0.07045369                0.34711339                0.07299741                0.62455980                0.02698490
               2.00000000                5.00000000               94.00000000                0.09518864               -0.46787327               -0.19167422                0.91904469               -0.22355554                1.78662868               -0.00463892
               3.00000000                5.00000000               94.00000000                0.13674864               -0.61380960               -0.02582778                0.29237779                0.02088228                1.49271075               -0.24152515
               4.00000000                5.00000000               94.00000000                0.17842974               -0.34041483               -0.14662416                0.36321216                0.30393860                0.26246323               -0.11157014
               5.00000000                5.00000000               94.00000000                0.23208422               -0.21128596               -0.21122611                0.38838896                0.22638464               -0.02501633               -0.02501910
               6.00000000                5.00000000               94.00000000                0.28027918               -0.12999040               -0.23680110                0.38283180                0.12763026               -0.14034004                0.01772788
               7.00000000                5.00000000               94.00000000                0.32241729               -0.08664682               -0.23838685                0.36573539                0.05796790               -0.16869025                0.03966310
               8.00000000                5.00000000               94.00000000                0.36341248               -0.06404555               -0.22734421                0.34590519                0.01393915               -0.14046033                0.04992705
               9.00000000                5.00000000               94.00000000                0.41501182               -0.05238822               -0.21814275                0.33014609               -0.00480739               -0.07202330                0.04832371
              10.00000000                5.00000000               94.00000000                0.72809261               -0.04813982               -0.22972699                0.32848971               -0.01701783               -0.03360217                0.02757072
               0.00000000                6.00000000               94.00000000                0.61454011               -0.08319467               -0.16161322                0.26944439                0.00657944                0.02130714               -0.07102638
               1.00000000                6.00000000               94.00000000                0.18012904               -0.14440007               -0.07535753                0.36061542               -0.02752919                0.61767774                0.00862178
               2.00000000                6.00000000               94.00000000                0.14364332               -0.44127060               -0.12798858                0.84195382               -0.25309059                1.56711819               -0.08072578
               3.00000000                6.00000000               94.00000000                0.18583565               -0.54779201               -0.00810033                0.33805753               -0.08748764                1.29389511               -0.24656475
               4.00000000                6.00000000               94.00000000                0.22300146               -0.35567215               -0.07546458                0.37011774                0.13618656                0.31850333               -0.18924017
               5.00000000                6.00000000               94.00000000                0.28025067               -0.23679808               -0.12998497                0.38284344                0.12761445                0.01771453               -0.14034502
               6.00000000                6.00000000               94.00000000                0.33246854               -0.15204167               -0.15203363                0.37142965                0.08347459               -0.11296043               -0.11296816
               7.00000000                6.00000000               94.00000000                0.37767227               -0.10742751               -0.15727364                0.35083826                0.04958581               -0.14725704               -0.09459384
               8.00000000                6.00000000               94.00000000                0.42135990               -0.08344578               -0.15460552                0.32879714                0.02533061               -0.12461941               -0.08264997
               9.00000000                6.00000000               94.00000000                0.47623524               -0.07118842               -0.15274234                0.31147860                0.00862257               -0.06481864               -0.07885976
              10.00000000                6.00000000               94.00000000                0.75966813               -0.06715710               -0.16383173                0.30706994               -0.00508469               -0.02927815               -0.08565597
               0.00000000                7.00000000               94.00000000                0.63468288               -0.08566474               -0.13193497                0.25925919               -0.00292879                0.02267484               -0.09630489
               1.00000000                7.00000000               94.00000000                0.22028334               -0.16566017               -0.08753576                0.36101653               -0.08230033                0.56491644               -0.00876809
               2.00000000                7.00000000               94.00000000                0.18573655               -0.41644321               -0.09233110                0.75313952               -0.25976192                1.36236305               -0.12771898
               3.00000000                7.00000000               94.00000000                0.23041277               -0.48843595               -0.00632929                0.36181602               -0.13864311                1.12218245               -0.23066094
               4.00000000                7.00000000               94.00000000                0.26306057               -0.34063080               -0.04178656                0.36624398                0.03175658                0.32447803               -0.20196209
               5.00000000                7.00000000               94.00000000                0.32242052               -0.23835664               -0.08665117                0.36573102                0.05795097                0.03964715               -0.16868989
               6.00000000                7.00000000               94.00000000                0.37767737               -0.15727714               -0.10743349                0.35083856                0.04959694               -0.09459373               -0.14724647
               7.00000000                7.00000000               94.00000000                0.42568646               -0.11429309               -0.11428853                0.32986942                0.03751930               -0.13121347               -0.13122217
               8.00000000                7.00000000               94.00000000                0.47200695               -0.09083457               -0.11479921                0.30819371                0.02600670               -0.11298475               -0.11949304
               9.00000000                7.00000000               94.00000000                0.52978501               -0.07850785               -0.11471664                0.29074939                0.01342307               -0.05992395               -0.11354474
              10.00000000                7.00000000               94.00000000                0.78726005               -0.07447121               -0.11982968                0.28454904                0.00402996               -0.02735453               -0.11429546
               0.00000000                8.00000000               94.00000000                0.65542213               -0.08757770               -0.09990705                0.25008940               -0.00837548                0.02365183               -0.09283887
               1.00000000                8.00000000               94.00000000                0.25825278               -0.17409789               -0.09833898                0.35190990               -0.09084988                0.49607473               -0.01507990
               2.00000000                8.00000000               94.00000000                0.22389610               -0.39047347               -0.07565722                0.67259508               -0.22431557                1.18533889               -0.12028853
               3.00000000                8.00000000               94.00000000                0.27326387               -0.43510579               -0.00719803                0.37002886               -0.13710355                0.98765764               -0.19208622
               4.00000000                8.00000000               94.00000000                0.30255417               -0.31215454               -0.02929364                0.35731585               -0.02193796                0.31219024               -0.16675613
               5.00000000                8.00000000               94.00000000                0.36341774               -0.22731800               -0.06404454                0.34588773                0.01393588                0.04994089               -0.14045990
               6.00000000                8.00000000               94.00000000                0.42134018               -0.15460142               -0.08344755                0.32880087                0.02534343               -0.08265338               -0.12461648
               7.00000000                8.00000000               94.00000000                0.47196188               -0.11480420               -0.09083376                0.30820195                0.02601236               -0.11950511               -0.11298936
               8.00000000                8.00000000               94.00000000                0.52083109               -0.09227677               -0.09227172                0.28721257                0.02162201               -0.10406698               -0.10407418
               9.00000000                8.00000000               94.00000000                0.58153533               -0.07991742               -0.09250228                0.26983621                0.01250190               -0.05599180               -0.09873672
              10.00000000                8.00000000               94.00000000                0.81406566               -0.07589648               -0.09211353                0.26271023                0.00653950               -0.02599980               -0.09768822
               0.00000000                9.00000000               94.00000000                0.68065259               -0.08996924               -0.07852826                0.24376301               -0.00776548                0.02877867               -0.06119474
               1.00000000                9.00000000               94.00000000                0.30250759               -0.17788375               -0.10166872                0.34042750               -0.06391959                0.44195192               -0.00717821
               2.00000000                9.00000000               94.00000000                0.26962977               -0.36224903               -0.08023352                0.61138304               -0.12962426                1.04894312               -0.06562484
               3.00000000                9.00000000               94.00000000                0.32475357               -0.38843349               -0.00748826                0.37217682               -0.08114870                0.88474838               -0.10848388
               4.00000000                9.00000000               94.00000000                0.35165813               -0.28871796               -0.02677105                0.34851063               -0.02739693                0.29404317               -0.08662650
               5.00000000                9.00000000               94.00000000                0.41504680               -0.21811848               -0.05238871                0.33011966               -0.00480265                0.04832835               -0.07201167
               6.00000000                9.00000000               94.00000000                0.47620074               -0.15273997               -0.07118755                0.31148613                0.00863185               -0.07886263               -0.06483797
               7.00000000                9.00000000               94.00000000                0.52982490               -0.11472603               -0.07851270                0.29076320                0.01342649               -0.11355326               -0.05991604
               8.00000000                9.00000000               94.00000000                0.58150000               -0.09250606               -0.07991979                0.26984422                0.01250057               -0.09873771               -0.05598767
               9.00000000                9.00000000               94.00000000                0.64599089               -0.07949673               -0.07949598                0.25225591                0.00730409               -0.05343386               -0.05344122
              10.00000000                9.00000000               94.00000000                0.84765328               -0.07492169               -0.07703206                0.24469799                0.00458578               -0.02519129               -0.05266261
               0.00000000               10.00000000               94.00000000                0.85015377               -0.08775323               -0.07207011                0.23962960               -0.01929895                0.02105397               -0.03613814
               1.00000000               10.00000000               94.00000000                0.66773414               -0.15682616               -0.10096458                0.33389732               -0.05282943                0.41050125                0.00007714
               2.00000000               10.00000000               94.00000000                0.65068824               -0.32267640               -0.08921936                0.58943001               -0.04043891                0.97840323               -0.02642014
               3.00000000               10.00000000               94.00000000                0.68055838               -0.36372326               -0.00700281                0.37392847               -0.01896429                0.80779257               -0.06176028
               4.00000000               10.00000000               94.00000000                0.69508724               -0.28836750               -0.02687651                0.34946493               -0.02772420                0.25181598               -0.04175775
               5.00000000               10.00000000               94.00000000                0.72810622               -0.22970679               -0.04814214                0.32846874               -0.01701576                0.02756121               -0.03358433
               6.00000000               10.00000000               94.00000000                0.75967413               -0.16383008               -0.06715643                0.30707617               -0.00508112               -0.08565752               -0.02929315
               7.00000000               10.00000000               94.00000000                0.78724314               -0.11984263               -0.07447724                0.28456279                0.00402759               -0.11429545               -0.02733830
               8.00000000               10.00000000               94.00000000                0.81407543               -0.09211630               -0.07590480                0.26272774                0.00653791               -0.09770775               -0.02598152
               9.00000000               10.00000000               94.00000000                0.84765711               -0.07703050               -0.07492217                0.24470182                0.00458811               -0.05267205               -0.02520320
              10.00000000               10.00000000               94.00000000                0.93670346               -0.07252489               -0.07252543                0.23694786                0.00328787               -0.02515231               -0.02516243
               0.00000000                0.00000000               95.00000000                0.74989573               -0.03518077               -0.03517827                0.15556556                0.02049111                0.01470370                0.01466949
               1.00000000                0.00000000               95.00000000                0.50566928               -0.01158640               -0.07957564                0.18753208                0.07847518                0.08038204                0.00622377
               2.00000000                0.00000000               95.00000000                0.51756094               -0.04772575               -0.05085158                0.22732922                0.02317717                0.13792259                0.00084574
               3.00000000                0.00000000               95.00000000                0.54284740               -0.14101751               -0.06767124                0.25234087                0.03263375                0.09689981                0.01476529
               4.00000000                0.00000000               95.00000000                0.56814776               -0.18609271               -0.07547650                0.26128029                0.02715768                0.02424465                0.02159318
               5.00000000                0.00000000               95.00000000                0.58940770               -0.19102424               -0.08142478                0.25702898                0.01620839               -0.04748432                0.02691979
               6.00000000                0.00000000               95.00000000                0.60557314               -0.16681694               -0.08519977                0.24713084                0.00059688               -0.09417174                0.03061228
               7.00000000                0.00000000               95.00000000                0.61847792               -0.12893351               -0.08768293                0.23871325               -0.01221056               -0.10770767                0.03220074
               8.00000000                0.00000000               95.00000000                0.63087790               -0.09327163               -0.08922313                0.23420071               -0.01663444               -0.09325121                0.03262099
               9.00000000                0.00000000               95.00000000                0.64676971               -0.07242604               -0.09091605                0.23271723               -0.01281604               -0.05661874                0.03685919
              10.00000000                0.00000000               95.00000000                0.82967355               -0.06698055               -0.08690570                0.22723176               -0.02357189               -0.03089420                0.03368641
               0.00000000                1.00000000               95.00000000                0.50564456               -0.07956624               -0.01159361                0.18750772                0.07843441                0.00623962                0.08033710
               1.00000000                1.00000000               95.00000000                0.01000000               -0.14728110               -0.14725278                0.21943499                0.20952417                0.04806253                0.04803722
               2.00000000                1.00000000               95.00000000                0.01131315               -0.17777550               -0.17855221                0.26849283                0.23548176                0.08033409                0.54886867
               3.00000000                1.00000000               95.00000000                0.05820262               -0.11300920                0.06487897                0.31617645                0.28922375                0.08173380                0.82682846
               4.00000000                1.00000000               95.00000000                0.11507134               -0.07542148               -0.04738252                0.35841353                0.12811242                0.06863925                0.89812369
               5.00000000                1.00000000               95.00000000                0.17010857               -0.06712415               -0.12205911                0.38858589               -0.00151958                0.04343992                0.87683780
               6.00000000                1.00000000               95.00000000                0.21372200               -0.07583125               -0.16278547                0.39777279               -0.09162687                0.00791794                0.79599956
               7.00000000                1.00000000               95.00000000                0.24423424               -0.08989751               -0.17920743                0.38684085               -0.13132281               -0.02306495                0.69280193
               8.00000000                1.00000000               95.00000000                0.26856118               -0.10074299               -0.18280184                0.36651066               -0.12198999               -0.03346636                0.59534910
               9.00000000                1.00000000               95.00000000                0.29871854               -0.10267214               -0.18287097                0.34615006               -0.07893516               -0.02058464                0.52653520
              10.00000000                1.00000000               95.00000000                0.66139282               -0.10085949               -0.16142554                0.33280475               -0.05947962               -0.00807860                0.49690008
               0.00000000                2.00000000               95.00000000                0.51758357               -0.05086177               -0.04772204                0.22732863                0.02319043                0.00086033                0.13793000
               1.00000000                2.00000000               95.00000000                0.01130093               -0.17896408               -0.17774376                0.26848554                0.23586401                0.54890196                0.08031299
               2.00000000                2.00000000               95.00000000                0.01000000               -0.17780844               -0.17791202                0.83502710                0.99233884                1.04768379                1.04860353
               3.00000000                2.00000000               95.00000000                0.03265352               -0.18352177               -0.55908651                0.97476557                0.36670139                0.24043332                1.98632916
               4.00000000                2.00000000               95.00000000                0.09234340               -0.24651905               -0.45370606                0.96771870               -0.12065101               -0.00872995                1.85348297
               5.00000000                2.00000000               95.00000000                0.15472381               -0.14015025               -0.41724890                0.85183813               -0.19122127               -0.09866028                1.66058606
               6.00000000                2.00000000               95.00000000                0.20581822               -0.08907980               -0.39879887                0.74616042               -0.24461216               -0.16461787                1.44833891
               7.00000000                2.00000000               95.00000000                0.24103488               -0.06550582               -0.37543588                0.66736919               -0.25708865               -0.19253151                1.25653920
               8.00000000                2.00000000               95.00000000                0.26786926               -0.05839161               -0.34887412                0.61073334               -0.22031019               -0.17159413                1.09994495
               9.00000000                2.00000000               95.00000000                0.30290510               -0.06909732               -0.32129980                0.56996620               -0.12637962               -0.09785481                0.98600273
              10.00000000                2.00000000               95.00000000                0.66524163               -0.08001892               -0.28782669                0.55503996               -0.04590620               -0.04572007                0.92717508
               0.00000000                3.00000000               95.00000000                0.54290685               -0.06767763               -0.14097421                0.25233568                0.03262467                0.01475465                0.09690762
               1.00000000                3.00000000               95.00000000                0.05811086                0.06434177               -0.11300984                0.31615415                0.28910367                0.82649809                0.08174320
               2.00000000                3.00000000               95.00000000                0.03263474               -0.55932449               -0.18393364                0.97668019                0.36697253                1.98782140                0.24059932
               3.00000000                3.00000000               95.00000000                0.07672567               -0.77489310               -0.77540728                0.25400260                0.07726701                1.29438795                1.29422114
               4.00000000                3.00000000               95.00000000                0.13143160               -0.14900367               -0.66560202                0.25985052                0.34364137               -0.04009197                1.29391499
               5.00000000                3.00000000               95.00000000                0.18764878               -0.04651409               -0.56639734                0.31253159                0.08985753               -0.16392544                1.14267388
               6.00000000                3.00000000               95.00000000                0.23487538               -0.02669489               -0.49244727                0.34056490               -0.05503881               -0.20083317                0.98468332
               7.00000000                3.00000000               95.00000000                0.27179717               -0.02377698               -0.42683387                0.35172436               -0.11934807               -0.20769010                0.85578730
               8.00000000                3.00000000               95.00000000                0.30419215               -0.02576387               -0.36918908                0.35478427               -0.12317406               -0.18391720                0.76200254
               9.00000000                3.00000000               95.00000000                0.34502691               -0.02837730               -0.32162186                0.35649940               -0.07358627               -0.10862363                0.69359210
              10.00000000                3.00000000               95.00000000                0.68846406               -0.02918794               -0.29908474                0.36044616               -0.02194843               -0.06714979                0.63610124
               0.00000000                4.00000000               95.00000000                0.56818721               -0.07547123               -0.18604462                0.26126654                0.02713399                0.02157831                0.02422186
               1.00000000                4.00000000               95.00000000                0.11500265               -0.04774194               -0.07542237                0.35834394                0.12810385                0.89787389                0.06861800
               2.00000000                4.00000000               95.00000000                0.09232964               -0.45382329               -0.24639710                0.96848058               -0.12006378                1.85390654               -0.00854675
               3.00000000                4.00000000               95.00000000                0.13143484               -0.66516822               -0.14929466                0.25993471                0.34394827                1.29389417               -0.04010752
               4.00000000                4.00000000               95.00000000                0.17753183               -0.33431278               -0.33450284                0.33842975                0.50877849                0.19196710                0.19215264
               5.00000000                4.00000000               95.00000000                0.22721158               -0.16819254               -0.37839577                0.36465842                0.28501925               -0.06653897                0.28694284
               6.00000000                4.00000000               95.00000000                0.26810938               -0.08576258               -0.36749521                0.36499272                0.10862517               -0.16878752                0.29776976
               7.00000000                4.00000000               95.00000000                0.30107794               -0.05217331               -0.33003630                0.35552283                0.00893007               -0.19860897                0.27691115
               8.00000000                4.00000000               95.00000000                0.33198093               -0.04126011               -0.28506780                0.34380381               -0.03421953               -0.17475780                0.25226150
               9.00000000                4.00000000               95.00000000                0.37222517               -0.03986348               -0.25077234                0.33466906               -0.03049094               -0.09718489                0.22986675
              10.00000000                4.00000000               95.00000000                0.70307676               -0.04049026               -0.24089869                0.33768218               -0.02406754               -0.05308826                0.18841916
               0.00000000                5.00000000               95.00000000                0.58933809               -0.08142012               -0.19102296                0.25705586                0.01620066                0.02692952               -0.04750324
               1.00000000                5.00000000               95.00000000                0.17019172               -0.12205537               -0.06712946                0.38856338               -0.00147686                0.87667046                0.04341702
               2.00000000                5.00000000               95.00000000                0.15476683               -0.41715748               -0.14019320                0.85188642               -0.19072249                1.66026951               -0.09841000
               3.00000000                5.00000000               95.00000000                0.18762879               -0.56635226               -0.04659130                0.31256001                0.09004723                1.14271787               -0.16398984
               4.00000000                5.00000000               95.00000000                0.22721881               -0.37841536               -0.16820430                0.36469695                0.28501298                0.28693144               -0.06650079
               5.00000000                5.00000000               95.00000000                0.27823943               -0.23264972               -0.23268367                0.38205169                0.21233148               -0.01455291               -0.01453706
               6.00000000                5.00000000               95.00000000                0.32037232               -0.13788375               -0.24709095                0.37150190                0.11294699               -0.14567074                0.00509334
               7.00000000                5.00000000               95.00000000                0.35407887               -0.09045168               -0.23481077                0.35131519                0.04535666               -0.18229336                0.01169305
               8.00000000                5.00000000               95.00000000                0.38567927               -0.06776095               -0.21170676                0.33074377                0.00648904               -0.15769388                0.01275532
               9.00000000                5.00000000               95.00000000                0.42762019               -0.05819670               -0.19279541                0.31588524               -0.00684292               -0.08527057                0.00618038
              10.00000000                5.00000000               95.00000000                0.73163336               -0.05555625               -0.19426205                0.31707208               -0.01409171               -0.04461079               -0.01973089
               0.00000000                6.00000000               95.00000000                0.60557785               -0.08519976               -0.16684092                0.24716524                0.00062249                0.03064013               -0.09417794
               1.00000000                6.00000000               95.00000000                0.21375396               -0.16267403               -0.07584729                0.39779766               -0.09162861                0.79604675                0.00790023
               2.00000000                6.00000000               95.00000000                0.20582305               -0.39872414               -0.08916618                0.74613514               -0.24452145                1.44825857               -0.16432884
               3.00000000                6.00000000               95.00000000                0.23489567               -0.49251921               -0.02670627                0.34062169               -0.05505035                0.98458914               -0.20079620
               4.00000000                6.00000000               95.00000000                0.26812386               -0.36752613               -0.08577314                0.36499533                0.10860528                0.29781927               -0.16879161
               5.00000000                6.00000000               95.00000000                0.32039979               -0.24708124               -0.13788535                0.37150517                0.11293458                0.00507766               -0.14566131
               6.00000000                6.00000000               95.00000000                0.36467248               -0.15563437               -0.15563843                0.35828217                0.07641433               -0.13042340               -0.13040644
               7.00000000                6.00000000               95.00000000                0.40014457               -0.10806800               -0.15522560                0.33735612                0.04496707               -0.16658963               -0.11797750
               8.00000000                6.00000000               95.00000000                0.43325664               -0.08383169               -0.14688720                0.31640076                0.02239152               -0.14308070               -0.10949873
               9.00000000                6.00000000               95.00000000                0.47684981               -0.07291937               -0.13950686                0.30089190                0.00756214               -0.07703916               -0.10866357
              10.00000000                6.00000000               95.00000000                0.75655408               -0.06989127               -0.14461553                0.29959134               -0.00322834               -0.03811470               -0.12102920
               0.00000000                7.00000000               95.00000000                0.61842102               -0.08769005               -0.12895353                0.23874365               -0.01221400                0.03219816               -0.10769890
               1.00000000                7.00000000               95.00000000                0.24418820               -0.17914983               -0.08991332                0.38689302               -0.13136007                0.69293437               -0.02306111
               2.00000000                7.00000000               95.00000000                0.24102114               -0.37541577               -0.06549881                0.66747382               -0.25723889                1.25679127               -0.19256704
               3.00000000                7.00000000               95.00000000                0.27177316               -0.42689643               -0.02380129                0.35180510               -0.11936819                0.85579177               -0.20767501
               4.00000000                7.00000000               95.00000000                0.30108283               -0.33003755               -0.05218710                0.35553418                0.00892517                0.27692836               -0.19862489
               5.00000000                7.00000000               95.00000000                0.35406682               -0.23478826               -0.09044548                0.35130850                0.04535031                0.01168558               -0.18230865
               6.00000000                7.00000000               95.00000000                0.40014725               -0.15522179               -0.10806449                0.33735203                0.04496549               -0.11798104               -0.16658972
               7.00000000                7.00000000               95.00000000                0.43734453               -0.11244695               -0.11245139                0.31826408                0.03561088               -0.15218881               -0.15217440
               8.00000000                7.00000000               95.00000000                0.47199684               -0.08980245               -0.11057789                0.29906213                0.02495042               -0.13095236               -0.14150526
               9.00000000                7.00000000               95.00000000                0.51679728               -0.07883929               -0.10806412                0.28410944                0.01300458               -0.07116542               -0.13743655
              10.00000000                7.00000000               95.00000000                0.77658289               -0.07559634               -0.11046878                0.28086174                0.00467904               -0.03491009               -0.14188950
               0.00000000                8.00000000               95.00000000                0.63095106               -0.08924037               -0.09327968                0.23421860               -0.01663979                0.03261723               -0.09325062
               1.00000000                8.00000000               95.00000000                0.26853765               -0.18286163               -0.10074348                0.36653205               -0.12199767                0.59534465               -0.03346831
               2.00000000                8.00000000               95.00000000                0.26786107               -0.34887550               -0.05834207                0.61065050               -0.22040951                1.09998813               -0.17170336
               3.00000000                8.00000000               95.00000000                0.30422023               -0.36912151               -0.02578174                0.35478290               -0.12319488                0.76205845               -0.18389706
               4.00000000                8.00000000               95.00000000                0.33196494               -0.28504692               -0.04127978                0.34382510               -0.03417596                0.25225377               -0.17477353
               5.00000000                8.00000000               95.00000000                0.38565424               -0.21170245               -0.06776690                0.33076122                0.00650302                0.01275517               -0.15771049
               6.00000000                8.00000000               95.00000000                0.43324174               -0.14688728               -0.08383112                0.31639383                0.02239558               -0.10948418               -0.14307915
               7.00000000                8.00000000               95.00000000                0.47199589               -0.11057881               -0.08980736                0.29907567                0.02495014               -0.14150636               -0.13095237
               8.00000000                8.00000000               95.00000000                0.50802947               -0.09033043               -0.09033549                0.28143460                0.02114054               -0.12210730               -0.12209138
               9.00000000                8.00000000               95.00000000                0.55388088               -0.07972978               -0.08973101                0.26688138                0.01228183               -0.06716851               -0.11790751
              10.00000000                8.00000000               95.00000000                0.79523767               -0.07646773               -0.08844941                0.26241012                0.00669355               -0.03316619               -0.11879115
               0.00000000                9.00000000               95.00000000                0.64670119               -0.09092214               -0.07242090                0.23272818               -0.01282032                0.03685236               -0.05663501
               1.00000000                9.00000000               95.00000000                0.29870615               -0.18290168               -0.10266488                0.34614734               -0.07891357                0.52653447               -0.02061411
               2.00000000                9.00000000               95.00000000                0.30290536               -0.32130650               -0.06908522                0.56996376               -0.12633201                0.98601313               -0.09780600
               3.00000000                9.00000000               95.00000000                0.34505276               -0.32157755               -0.02837084                0.35644627               -0.07361103                0.69361999               -0.10860783
               4.00000000                9.00000000               95.00000000                0.37223014               -0.25075768               -0.03986451                0.33466374               -0.03047663                0.22984033               -0.09719640
               5.00000000                9.00000000               95.00000000                0.42765059               -0.19280260               -0.05819994                0.31588091               -0.00682787                0.00619192               -0.08527419
               6.00000000                9.00000000               95.00000000                0.47684430               -0.13950920               -0.07292301                0.30089616                0.00756698               -0.10865444               -0.07702533
               7.00000000                9.00000000               95.00000000                0.51681799               -0.10806761               -0.07883806                0.28411373                0.01299950               -0.13743646               -0.07118165
               8.00000000                9.00000000               95.00000000                0.55388001               -0.08972984               -0.07973141                0.26687983                0.01228805               -0.11790807               -0.06716648
               9.00000000                9.00000000               95.00000000                0.60119129               -0.07911243               -0.07911355                0.25211919                0.00716735               -0.06522460               -0.06521986
              10.00000000                9.00000000               95.00000000                0.81933669               -0.07539516               -0.07662751                0.24693630                0.00441440               -0.03246178               -0.06524480
               0.00000000               10.00000000               95.00000000                0.82969878               -0.08690576               -0.06697762                0.22725918               -0.02356954                0.03368384               -0.03092617
               1.00000000               10.00000000               95.00000000                0.66138172               -0.16142538               -0.10085110                0.33281900               -0.05947134                0.49696334               -0.00812891
               2.00000000               10.00000000               95.00000000                0.66526140               -0.28784088               -0.08003983                0.55516367               -0.04585279                0.92723844               -0.04564149
               3.00000000               10.00000000               95.00000000                0.68846665               -0.29908558               -0.02917387                0.36038437               -0.02196154                0.63611839               -0.06714833
               4.00000000               10.00000000               95.00000000                0.70309898               -0.24088941               -0.04048076                0.33765587               -0.02407731                0.18839832               -0.05309502
               5.00000000               10.00000000               95.00000000                0.73163123               -0.19426507               -0.05555247                0.31705004               -0.01408616               -0.01971042               -0.04460309
               6.00000000               10.00000000               95.00000000                0.75656526               -0.14462036               -0.06989535                0.29960687               -0.00322539               -0.12103297               -0.03809856
               7.00000000               10.00000000               95.00000000                0.77658247               -0.11047028               -0.07558983                0.28084605                0.00467612               -0.14189482               -0.03492249
               8.00000000               10.00000000               95.00000000                0.79526139               -0.08844547               -0.07646161                0.26238623                0.00669753               -0.11877882               -0.03316461
               9.00000000               10.00000000               95.00000000                0.81935773               -0.07662933               -0.07539574                0.24693779                0.00441625               -0.06524644               -0.03245761
              10.00000000               10.00000000               95.00000000                0.91931826               -0.07325327               -0.07325089                0.24135196                0.00273745               -0.03251968               -0.03251656
               0.00000000                0.00000000               96.00000000                0.74642152               -0.02435444               -0.02435413                0.11265648                0.03055271                0.01716015                0.01714761
               1.00000000                0.00000000               96.00000000                0.50323621               -0.00565295               -0.07843818                0.16531361                0.09326435                0.08514765                0.01108739
               2.00000000                0.00000000               96.00000000                0.51843833               -0.05658183               -0.04787931                0.20927151                0.03317859                0.12677575                0.00999627
               3.00000000                0.00000000               96.00000000                0.54381650               -0.16058848               -0.06909630                0.23161239                0.04328123                0.06641181                0.02276227
               4.00000000                0.00000000               96.00000000                0.56653174               -0.20157089               -0.07761236                0.23253651                0.03130846               -0.01561638                0.03150963
               5.00000000                0.00000000               96.00000000                0.58219465               -0.19414172               -0.08323254                0.22206869                0.00967344               -0.08016645                0.04088091
               6.00000000                0.00000000               96.00000000                0.59121140               -0.15754328               -0.08691381                0.21366568               -0.01351337               -0.10676551                0.04628065
               7.00000000                0.00000000               96.00000000                0.59673616               -0.11422439               -0.08927918                0.21196982               -0.02523934               -0.10009172                0.04632443
               8.00000000                0.00000000               96.00000000                0.60214753               -0.08039073               -0.09003881                0.21464092               -0.02421225               -0.07399927                0.04466096
               9.00000000                0.00000000               96.00000000                0.60972874               -0.06417704               -0.09043457                0.21874632               -0.01614142               -0.03757445                0.04648034
              10.00000000                0.00000000               96.00000000                0.80805978               -0.06104126               -0.08474847                0.21270346               -0.02624706               -0.01456392                0.05273679
               0.00000000                1.00000000               96.00000000                0.50326803               -0.07844357               -0.00565196                0.16531428                0.09326478                0.01108253                0.08513850
               1.00000000                1.00000000               96.00000000                0.01280571               -0.15330004               -0.15329467                0.22073906                0.24062435                0.06260750                0.06261023
               2.00000000                1.00000000               96.00000000                0.02590520               -0.18135724                0.05191179                0.29003727                0.50824826                0.11544119                0.97730615
               3.00000000                1.00000000               96.00000000                0.08977217               -0.10482189                0.01123037                0.35355642                0.16781939                0.12295450                1.15990065
               4.00000000                1.00000000               96.00000000                0.16412812               -0.06798370               -0.07991707                0.40857552                0.05930782                0.10232258                1.10506648
               5.00000000                1.00000000               96.00000000                0.22449009               -0.06538183               -0.14280609                0.43594336               -0.05544882                0.05345356                0.97903991
               6.00000000                1.00000000               96.00000000                0.25819128               -0.07674500               -0.17240205                0.42734080               -0.13299568               -0.00765774                0.84125136
               7.00000000                1.00000000               96.00000000                0.27178336               -0.08975470               -0.17943235                0.39896574               -0.15479757               -0.05064394                0.72234871
               8.00000000                1.00000000               96.00000000                0.27935248               -0.09941616               -0.17645408                0.36924784               -0.13051241               -0.05949044                0.63145091
               9.00000000                1.00000000               96.00000000                0.29554886               -0.10083534               -0.17196010                0.34432098               -0.08061992               -0.03862198                0.57358656
              10.00000000                1.00000000               96.00000000                0.65610474               -0.09873985               -0.15265612                0.32663580               -0.06037478               -0.02141394                0.56175629
               0.00000000                2.00000000               96.00000000                0.51852123               -0.04787978               -0.05656838                0.20925835                0.03315312                0.00999320                0.12677794
               1.00000000                2.00000000               96.00000000                0.02592675                0.05265546               -0.18133814                0.29002590                0.50748583                0.97732340                0.11540183
               2.00000000                2.00000000               96.00000000                0.01724176               -0.32585055               -0.32595625                1.17635356                0.95573241                1.30094945                1.30165729
               3.00000000                2.00000000               96.00000000                0.08150794               -0.48438655               -0.46163697                0.94173390                0.23722007                0.12090481                1.75568605
               4.00000000                2.00000000               96.00000000                0.16465061               -0.13427274               -0.37531337                0.76624350               -0.03030666               -0.07797520                1.68355573
               5.00000000                2.00000000               96.00000000                0.23624061               -0.08814842               -0.35476882                0.64505412               -0.15463583               -0.14831986                1.47654887
               6.00000000                2.00000000               96.00000000                0.27929988               -0.06347091               -0.33970163                0.57157763               -0.22320792               -0.18669609                1.27125469
               7.00000000                2.00000000               96.00000000                0.29845067               -0.05454849               -0.31531416                0.53320751               -0.23430138               -0.19956568                1.10652374
               8.00000000                2.00000000               96.00000000                0.30993583               -0.05756954               -0.28792632                0.51654547               -0.19537252               -0.17748145                0.98895694
               9.00000000                2.00000000               96.00000000                0.33358252               -0.07158501               -0.26189233                0.50506962               -0.11125628               -0.10745303                0.91179668
              10.00000000                2.00000000               96.00000000                0.67889016               -0.08181874               -0.23688479                0.49948599               -0.04791598               -0.06108626                0.87547886
               0.00000000                3.00000000               96.00000000                0.54390455               -0.06907802               -0.16054202                0.23156200                0.04325847                0.02277269                0.06640502
               1.00000000                3.00000000               96.00000000                0.08975130                0.01154871               -0.10480693                0.35347362                0.16767501                1.16034423                0.12288575
               2.00000000                3.00000000               96.00000000                0.08148028               -0.46179808               -0.48367500                0.94211564                0.23672191                1.75617515                0.12111637
               3.00000000                3.00000000               96.00000000                0.12999508               -0.65889615               -0.65855231                0.25377060                0.53459984                0.89378978                0.89401952
               4.00000000                3.00000000               96.00000000                0.19238591               -0.19840132               -0.57040558                0.30839896                0.41262203                0.01830592                0.92493309
               5.00000000                3.00000000               96.00000000                0.24760761               -0.07335168               -0.48109133                0.33434003                0.10622586               -0.13206960                0.82464005
               6.00000000                3.00000000               96.00000000                0.28546313               -0.04833417               -0.40783526                0.34194607               -0.04803544               -0.18542056                0.70901498
               7.00000000                3.00000000               96.00000000                0.30984275               -0.04637956               -0.34170574                0.34254812               -0.10861777               -0.20177003                0.61699702
               8.00000000                3.00000000               96.00000000                0.33043494               -0.05136984               -0.28541913                0.34410717               -0.10718198               -0.18445709                0.55766977
               9.00000000                3.00000000               96.00000000                0.36069905               -0.05579633               -0.24252408                0.34613472               -0.06201394               -0.11337125                0.51759188
              10.00000000                3.00000000               96.00000000                0.69395714               -0.05686517               -0.22528973                0.34904895               -0.02164780               -0.07452279                0.47750034
               0.00000000                4.00000000               96.00000000                0.56648780               -0.07759447               -0.20153713                0.23253659                0.03127363                0.03149059               -0.01561582
               1.00000000                4.00000000               96.00000000                0.16407669               -0.07979686               -0.06798631                0.40849953                0.05923821                1.10528420                0.10227915
               2.00000000                4.00000000               96.00000000                0.16461396               -0.37542022               -0.13416888                0.76658690               -0.03075914                1.68392123               -0.07845333
               3.00000000                4.00000000               96.00000000                0.19237795               -0.57051103               -0.19859237                0.30839640                0.41284239                0.92486926                0.01822320
               4.00000000                4.00000000               96.00000000                0.23850428               -0.35704922               -0.35722156                0.35945464                0.44650855                0.20674540                0.20682332
               5.00000000                4.00000000               96.00000000                0.28338439               -0.18309559               -0.37459826                0.37100775                0.22458266               -0.06082197                0.25248455
               6.00000000                4.00000000               96.00000000                0.31514097               -0.10105702               -0.33879687                0.35887119                0.06415785               -0.17618394                0.23514734
               7.00000000                4.00000000               96.00000000                0.33770337               -0.07046958               -0.28397973                0.34192043               -0.01625015               -0.21289369                0.20359036
               8.00000000                4.00000000               96.00000000                0.35871558               -0.06158837               -0.23066219                0.32841158               -0.04172430               -0.19216619                0.17843272
               9.00000000                4.00000000               96.00000000                0.38936340               -0.06018966               -0.19373033                0.31970498               -0.02907220               -0.11223560                0.15839224
              10.00000000                4.00000000               96.00000000                0.70877567               -0.06030131               -0.18063030                0.32180431               -0.01815699               -0.06707323                0.12029924
               0.00000000                5.00000000               96.00000000                0.58218547               -0.08324242               -0.19415402                0.22209153                0.00967634                0.04086078               -0.08018812
               1.00000000                5.00000000               96.00000000                0.22441486               -0.14299905               -0.06538870                0.43592570               -0.05545350                0.97904950                0.05348313
               2.00000000                5.00000000               96.00000000                0.23626586               -0.35477140               -0.08812955                0.64524653               -0.15481635                1.47662506               -0.14855182
               3.00000000                5.00000000               96.00000000                0.24761919               -0.48087001               -0.07344970                0.33441019                0.10636318                0.82461797               -0.13211026
               4.00000000                5.00000000               96.00000000                0.28342533               -0.37452367               -0.18315813                0.37100415                0.22461957                0.25251730               -0.06081318
               5.00000000                5.00000000               96.00000000                0.32649685               -0.23269559               -0.23271906                0.37642343                0.16052296               -0.03644138               -0.03642039
               6.00000000                5.00000000               96.00000000                0.35833366               -0.14093641               -0.23027986                0.35853249                0.07834551               -0.16932350               -0.03187150
               7.00000000                5.00000000               96.00000000                0.38134305               -0.09651804               -0.20460567                0.33485929                0.02508419               -0.20604524               -0.03260197
               8.00000000                5.00000000               96.00000000                0.40285222               -0.07690395               -0.17382507                0.31453852               -0.00141199               -0.18014122               -0.03444544
               9.00000000                5.00000000               96.00000000                0.43405919               -0.06993359               -0.15058796                0.30111159               -0.00715492               -0.10166800               -0.04210428
              10.00000000                5.00000000               96.00000000                0.73119777               -0.06851926               -0.14562749                0.30246227               -0.00950829               -0.05785166               -0.07122801
               0.00000000                6.00000000               96.00000000                0.59118062               -0.08693516               -0.15756193                0.21369741               -0.01350283                0.04628093               -0.10679833
               1.00000000                6.00000000               96.00000000                0.25819915               -0.17249762               -0.07675918                0.42735496               -0.13297251                0.84125958               -0.00763764
               2.00000000                6.00000000               96.00000000                0.27931135               -0.33967711               -0.06349267                0.57158535               -0.22297112                1.27123540               -0.18661235
               3.00000000                6.00000000               96.00000000                0.28549377               -0.40769986               -0.04836581                0.34196360               -0.04798319                0.70900444               -0.18533288
               4.00000000                6.00000000               96.00000000                0.31512793               -0.33876931               -0.10106043                0.35886718                0.06420922                0.23513382               -0.17619475
               5.00000000                6.00000000               96.00000000                0.35829472               -0.23028378               -0.14092511                0.35853861                0.07833835               -0.03188357               -0.16932232
               6.00000000                6.00000000               96.00000000                0.39150626               -0.14894825               -0.14894371                0.34342560                0.05667559               -0.15934277               -0.15934316
               7.00000000                6.00000000               96.00000000                0.41578182               -0.10663248               -0.14079413                0.32260544                0.03382895               -0.19105388               -0.14834535
               8.00000000                6.00000000               96.00000000                0.43815637               -0.08634737               -0.12700110                0.30351572                0.01727004               -0.16378853               -0.14037934
               9.00000000                6.00000000               96.00000000                0.46965845               -0.07837548               -0.11537362                0.29015816                0.00656262               -0.09102145               -0.14096032
              10.00000000                6.00000000               96.00000000                0.74856475               -0.07655926               -0.11471091                0.28981985               -0.00033394               -0.04910719               -0.15855222
               0.00000000                7.00000000               96.00000000                0.59677974               -0.08926301               -0.11422946                0.21196740               -0.02523714                0.04632302               -0.10011167
               1.00000000                7.00000000               96.00000000                0.27177860               -0.17939070               -0.08975909                0.39894161               -0.15477559                0.72236461               -0.05063222
               2.00000000                7.00000000               96.00000000                0.29840148               -0.31530653               -0.05455094                0.53313569               -0.23416584                1.10650757               -0.19951949
               3.00000000                7.00000000               96.00000000                0.30983952               -0.34172285               -0.04637783                0.34258261               -0.10860433                0.61698630               -0.20177006
               4.00000000                7.00000000               96.00000000                0.33770088               -0.28397157               -0.07047886                0.34192679               -0.01624300                0.20355820               -0.21290773
               5.00000000                7.00000000               96.00000000                0.38134129               -0.20460516               -0.09653063                0.33486857                0.02508068               -0.03261599               -0.20603595
               6.00000000                7.00000000               96.00000000                0.41578543               -0.14079177               -0.10663823                0.32260159                0.03382245               -0.14833753               -0.19104550
               7.00000000                7.00000000               96.00000000                0.44139334               -0.10608425               -0.10608454                0.30605671                0.02930602               -0.17558817               -0.17558607
               8.00000000                7.00000000               96.00000000                0.46480731               -0.08862513               -0.10067375                0.29009586                0.02147976               -0.14947036               -0.16445948
               9.00000000                7.00000000               96.00000000                0.49615236               -0.08114536               -0.09521887                0.27803537                0.01173129               -0.08317635               -0.16174942
              10.00000000                7.00000000               96.00000000                0.76108564               -0.07924361               -0.09390018                0.27600343                0.00560621               -0.04396816               -0.17051997
               0.00000000                8.00000000               96.00000000                0.60217373               -0.09002058               -0.08038395                0.21461653               -0.02419583                0.04465561               -0.07398575
               1.00000000                8.00000000               96.00000000                0.27938138               -0.17642226               -0.09940936                0.36922114               -0.13050590                0.63144519               -0.05949456
               2.00000000                8.00000000               96.00000000                0.30991115               -0.28794239               -0.05756455                0.51652501               -0.19541409                0.98905530               -0.17747566
               3.00000000                8.00000000               96.00000000                0.33042468               -0.28544913               -0.05137059                0.34413766               -0.10718227                0.55772108               -0.18452274
               4.00000000                8.00000000               96.00000000                0.35870430               -0.23064866               -0.06160334                0.32843164               -0.04171377                0.17844329               -0.19219547
               5.00000000                8.00000000               96.00000000                0.40283475               -0.17382274               -0.07691723                0.31456035               -0.00140646               -0.03444159               -0.18014200
               6.00000000                8.00000000               96.00000000                0.43815850               -0.12700126               -0.08635418                0.30352196                0.01727390               -0.14037894               -0.16377864
               7.00000000                8.00000000               96.00000000                0.46481984               -0.10067011               -0.08862289                0.29008767                0.02148366               -0.16446415               -0.14946608
               8.00000000                8.00000000               96.00000000                0.48893623               -0.08678956               -0.08678964                0.27662339                0.01872087               -0.13978765               -0.13978263
               9.00000000                8.00000000               96.00000000                0.51986805               -0.08024345               -0.08431460                0.26550794                0.01105499               -0.07853780               -0.13664658
              10.00000000                8.00000000               96.00000000                0.77234884               -0.07843108               -0.08110756                0.26220803                0.00680077               -0.04131170               -0.14017732
               0.00000000                9.00000000               96.00000000                0.60977632               -0.09043993               -0.06417413                0.21873606               -0.01612447                0.04646632               -0.03754521
               1.00000000                9.00000000               96.00000000                0.29549257               -0.17197285               -0.10083914                0.34434012               -0.08063207                0.57363464               -0.03861541
               2.00000000                9.00000000               96.00000000                0.33362924               -0.26190092               -0.07159445                0.50508339               -0.11133198                0.91188873               -0.10740096
               3.00000000                9.00000000               96.00000000                0.36068397               -0.24252164               -0.05578985                0.34610395               -0.06199149                0.51759082               -0.11338807
               4.00000000                9.00000000               96.00000000                0.38934045               -0.19373376               -0.06019392                0.31972156               -0.02905402                0.15839458               -0.11226397
               5.00000000                9.00000000               96.00000000                0.43408123               -0.15059232               -0.06993898                0.30112610               -0.00714581               -0.04208161               -0.10169077
               6.00000000                9.00000000               96.00000000                0.46966390               -0.11537147               -0.07837628                0.29015324                0.00657820               -0.14094897               -0.09101841
               7.00000000                9.00000000               96.00000000                0.49609958               -0.09521751               -0.08114548                0.27803934                0.01174452               -0.16175510               -0.08318702
               8.00000000                9.00000000               96.00000000                0.51983086               -0.08431772               -0.08024145                0.26551372                0.01105839               -0.13665145               -0.07854771
               9.00000000                9.00000000               96.00000000                0.55006981               -0.07844497               -0.07844064                0.25449710                0.00640559               -0.07715314               -0.07715624
              10.00000000                9.00000000               96.00000000                0.78710233               -0.07641092               -0.07511961                0.25043242                0.00427717               -0.04048623               -0.07839689
               0.00000000               10.00000000               96.00000000                0.80799797               -0.08478474               -0.06104626                0.21273077               -0.02623863                0.05272780               -0.01452667
               1.00000000               10.00000000               96.00000000                0.65609792               -0.15271530               -0.09875290                0.32668997               -0.06039534                0.56183630               -0.02139592
               2.00000000               10.00000000               96.00000000                0.67888102               -0.23688016               -0.08183233                0.49948840               -0.04798033                0.87551015               -0.06100761
               3.00000000               10.00000000               96.00000000                0.69395806               -0.22525785               -0.05685085                0.34897760               -0.02161496                0.47743977               -0.07451843
               4.00000000               10.00000000               96.00000000                0.70876556               -0.18065529               -0.06029736                0.32180513               -0.01815205                0.12030062               -0.06709432
               5.00000000               10.00000000               96.00000000                0.73121349               -0.14563594               -0.06852076                0.30245980               -0.00950291               -0.07119107               -0.05786631
               6.00000000               10.00000000               96.00000000                0.74857228               -0.11470464               -0.07655678                0.28981077               -0.00032181               -0.15854362               -0.04909657
               7.00000000               10.00000000               96.00000000                0.76111984               -0.09389880               -0.07924656                0.27601726                0.00561775               -0.17053997               -0.04398792
               8.00000000               10.00000000               96.00000000                0.77234017               -0.08111350               -0.07842966                0.26221570                0.00680718               -0.14018049               -0.04133774
               9.00000000               10.00000000               96.00000000                0.78707809               -0.07512488               -0.07640697                0.25043349                0.00427711               -0.07838948               -0.04049284
              10.00000000               10.00000000               96.00000000                0.89947706               -0.07377359               -0.07377067                0.24582600                0.00276409               -0.04061790               -0.04061980
               0.00000000                0.00000000               97.00000000                0.74294777               -0.01287165               -0.01287485                0.05989787                0.04377960                0.01781631                0.01780056
               1.00000000                0.00000000               97.00000000                0.49989843               -0.00399861               -0.07534404                0.13843997                0.10349787                0.07494518                0.01703029
               2.00000000                0.00000000               97.00000000                0.51767356               -0.06928143               -0.04833195                0.17913473                0.04636990                0.08553859                0.02407297
               3.00000000                0.00000000               97.00000000                0.54215420               -0.17351591               -0.07172711                0.19280677                0.05234308                0.01064517                0.03476298
               4.00000000                0.00000000               97.00000000                0.56014130               -0.19967197               -0.07823495                0.18237853                0.02598813               -0.06453336                0.05107729
               5.00000000                0.00000000               97.00000000                0.56853194               -0.17348985               -0.08283727                0.17350277               -0.01074489               -0.09959443                0.06634226
               6.00000000                0.00000000               97.00000000                0.57056876               -0.12788883               -0.08680523                0.17502168               -0.03255767               -0.09355474                0.06773248
               7.00000000                0.00000000               97.00000000                0.57057548               -0.08833855               -0.08853137                0.18177227               -0.03301800               -0.06854406                0.06169915
               8.00000000                0.00000000               97.00000000                0.57103071               -0.06396546               -0.08722846                0.18941197               -0.02420838               -0.03856594                0.05687061
               9.00000000                0.00000000               97.00000000                0.57303060               -0.05480302               -0.08598421                0.19566609               -0.01467761               -0.00932573                0.05493443
              10.00000000                0.00000000               97.00000000                0.78743036               -0.05380487               -0.08020320                0.18955800               -0.02829271                0.00955090                0.07313047
               0.00000000                1.00000000               97.00000000                0.49986801               -0.07533710               -0.00399781                0.13843525                0.10350366                0.01703474                0.07491490
               1.00000000                1.00000000               97.00000000                0.01652919               -0.14829455               -0.14830397                0.22613327                0.25270012                0.07779425                0.07776133
               2.00000000                1.00000000               97.00000000                0.04976910               -0.16828427               -0.10061932                0.32296772                0.36161431                0.16284416                1.36823198
               3.00000000                1.00000000               97.00000000                0.14362693               -0.08857235               -0.04752334                0.40920813                0.13881566                0.17560359                1.30676616
               4.00000000                1.00000000               97.00000000                0.23670264               -0.06044215               -0.10554036                0.46484758                0.03032887                0.13082875                1.11034374
               5.00000000                1.00000000               97.00000000                0.28716845               -0.06383283               -0.14990588                0.46153653               -0.08412715                0.04213853                0.91456470
               6.00000000                1.00000000               97.00000000                0.29611824               -0.07335511               -0.16302154                0.42325026               -0.14022876               -0.04156472                0.76677496
               7.00000000                1.00000000               97.00000000                0.28783683               -0.08388496               -0.16053198                0.38479728               -0.13871890               -0.08319366                0.67502502
               8.00000000                1.00000000               97.00000000                0.28097037               -0.09437188               -0.15035475                0.35759660               -0.10736545               -0.08230713                0.61978951
               9.00000000                1.00000000               97.00000000                0.28669209               -0.09810450               -0.14185473                0.33756855               -0.06610195               -0.05395253                0.58754626
              10.00000000                1.00000000               97.00000000                0.64928118               -0.09713444               -0.13046864                0.32104524               -0.05730797               -0.03646525                0.60000754
               0.00000000                2.00000000               97.00000000                0.51768978               -0.04832743               -0.06925676                0.17908104                0.04636808                0.02404244                0.08553807
               1.00000000                2.00000000               97.00000000                0.04969930               -0.10134780               -0.16827944                0.32294538                0.36234721                1.36824779                0.16278194
               2.00000000                2.00000000               97.00000000                0.06827868               -0.33279385               -0.33282063                1.01882288                0.82762309                1.20848886                1.20917176
               3.00000000                2.00000000               97.00000000                0.16237680               -0.30716889               -0.35752712                0.69107754                0.41159408               -0.01239519                1.59386436
               4.00000000                2.00000000               97.00000000                0.26765844               -0.09173353               -0.28820385                0.53127524                0.02465174               -0.14449404                1.45380540
               5.00000000                2.00000000               97.00000000                0.33056366               -0.06889568               -0.27568453                0.45492236               -0.12802209               -0.17088082                1.23046368
               6.00000000                2.00000000               97.00000000                0.34844593               -0.05521355               -0.25795317                0.42469128               -0.18523196               -0.17857322                1.04854809
               7.00000000                2.00000000               97.00000000                0.34581586               -0.05903797               -0.23260210                0.42781068               -0.18187336               -0.17346156                0.93841733
               8.00000000                2.00000000               97.00000000                0.34372180               -0.07422601               -0.20589721                0.44588292               -0.14230390               -0.15370080                0.87645195
               9.00000000                2.00000000               97.00000000                0.35856992               -0.09177162               -0.18412883                0.45594990               -0.08232188               -0.09958211                0.83874221
              10.00000000                2.00000000               97.00000000                0.69006553               -0.10018262               -0.17334017                0.45031075               -0.04512467               -0.07076025                0.82190741
               0.00000000                3.00000000               97.00000000                0.54219767               -0.07172793               -0.17346896                0.19274096                0.05233639                0.03473946                0.01070714
               1.00000000                3.00000000               97.00000000                0.14357804               -0.04761469               -0.08855802                0.40917326                0.13877318                1.30691712                0.17554599
               2.00000000                3.00000000               97.00000000                0.16235326               -0.35758878               -0.30789902                0.69056579                0.41224996                1.59389507               -0.01225040
               3.00000000                3.00000000               97.00000000                0.20223569               -0.49811162               -0.49818248                0.31702508                0.64109563                0.53056022                0.53039297
               4.00000000                3.00000000               97.00000000                0.26361416               -0.20595057               -0.43154517                0.32509181                0.36146593               -0.01068497                0.62978029
               5.00000000                3.00000000               97.00000000                0.30535754               -0.08761314               -0.35285760                0.32477654                0.06569120               -0.15200531                0.56504120
               6.00000000                3.00000000               97.00000000                0.32657694               -0.06601380               -0.28495419                0.31920234               -0.05970732               -0.19886383                0.48075605
               7.00000000                3.00000000               97.00000000                0.33809655               -0.06970235               -0.22541674                0.32161759               -0.09479102               -0.20863824                0.42303773
               8.00000000                3.00000000               97.00000000                0.35014436               -0.08119296               -0.18046840                0.33064393               -0.08043470               -0.18737498                0.38995703
               9.00000000                3.00000000               97.00000000                0.37279925               -0.08753885               -0.15066728                0.33692391               -0.04216302               -0.11684804                0.36693895
              10.00000000                3.00000000               97.00000000                0.69759888               -0.08794114               -0.14279198                0.33253787               -0.01345667               -0.07952208                0.33852797
               0.00000000                4.00000000               97.00000000                0.56018092               -0.07826557               -0.19965792                0.18236144                0.02595371                0.05104206               -0.06450350
               1.00000000                4.00000000               97.00000000                0.23656688               -0.10569176               -0.06043089                0.46485059                0.03033120                1.11057125                0.13085160
               2.00000000                4.00000000               97.00000000                0.26758273               -0.28828000               -0.09170268                0.53116893                0.02482253                1.45405991               -0.14456244
               3.00000000                4.00000000               97.00000000                0.26360895               -0.43141074               -0.20603105                0.32507065                0.36150012                0.62994514               -0.01077106
               4.00000000                4.00000000               97.00000000                0.30314418               -0.32189060               -0.32198777                0.37099546                0.33154062                0.15133367                0.15128591
               5.00000000                4.00000000               97.00000000                0.33409607               -0.17615697               -0.30803601                0.36376344                0.13561720               -0.10598116                0.17385672
               6.00000000                4.00000000               97.00000000                0.35218249               -0.11023405               -0.25304365                0.33979503                0.01648910               -0.21502200                0.14887950
               7.00000000                4.00000000               97.00000000                0.36433149               -0.08871893               -0.19279814                0.32064830               -0.03213169               -0.24104294                0.12144628
               8.00000000                4.00000000               97.00000000                0.37759694               -0.08497658               -0.14547839                0.31009186               -0.03738476               -0.21151703                0.10111040
               9.00000000                4.00000000               97.00000000                0.40010806               -0.08492372               -0.11679992                0.30340821               -0.02018112               -0.12563717                0.08410391
              10.00000000                4.00000000               97.00000000                0.71083598               -0.08477619               -0.10669357                0.29993192               -0.00860293               -0.07916757                0.05135296
               0.00000000                5.00000000               97.00000000                0.56852484               -0.08281815               -0.17350949                0.17351486               -0.01075659                0.06636840               -0.09962955
               1.00000000                5.00000000               97.00000000                0.28724810               -0.14987467               -0.06383071                0.46152038               -0.08410228                0.91466158                0.04219076
               2.00000000                5.00000000               97.00000000                0.33052987               -0.27575515               -0.06889766                0.45500595               -0.12783126                1.23072995               -0.17096539
               3.00000000                5.00000000               97.00000000                0.30534540               -0.35291079               -0.08765386                0.32484933                0.06576596                0.56511307               -0.15205089
               4.00000000                5.00000000               97.00000000                0.33411900               -0.30796288               -0.17618814                0.36373665                0.13562831                0.17390119               -0.10597908
               5.00000000                5.00000000               97.00000000                0.36373230               -0.19867727               -0.19870968                0.36127554                0.08861885               -0.09083217               -0.09081205
               6.00000000                5.00000000               97.00000000                0.38285581               -0.13046492               -0.17822189                0.33911103                0.03690283               -0.21033041               -0.08654614
               7.00000000                5.00000000               97.00000000                0.39572085               -0.09963026               -0.14481085                0.31577069                0.00658596               -0.23510503               -0.08446368
               8.00000000                5.00000000               97.00000000                0.40899057               -0.08880559               -0.11421888                0.29886424               -0.00414351               -0.20091664               -0.08373827
               9.00000000                5.00000000               97.00000000                0.43061168               -0.08637176               -0.09313334                0.28790212               -0.00357836               -0.11605395               -0.08996330
              10.00000000                5.00000000               97.00000000                0.72523912               -0.08613425               -0.08583622                0.28515417               -0.00265176               -0.07089199               -0.11928953
               0.00000000                6.00000000               97.00000000                0.57055357               -0.08677104               -0.12789943                0.17504386               -0.03257398                0.06777013               -0.09359686
               1.00000000                6.00000000               97.00000000                0.29610102               -0.16296975               -0.07335897                0.42322511               -0.14025081                0.76684223               -0.04158276
               2.00000000                6.00000000               97.00000000                0.34847410               -0.25798006               -0.05523054                0.42475241               -0.18528586                1.04862348               -0.17857056
               3.00000000                6.00000000               97.00000000                0.32657799               -0.28500419               -0.06602457                0.31921543               -0.05965807                0.48075483               -0.19879998
               4.00000000                6.00000000               97.00000000                0.35218395               -0.25301954               -0.11025180                0.33979731                0.01652084                0.14890928               -0.21500835
               5.00000000                6.00000000               97.00000000                0.38283606               -0.17821330               -0.13047004                0.33913585                0.03690794               -0.08655700               -0.21033346
               6.00000000                6.00000000               97.00000000                0.40385234               -0.12542635               -0.12542867                0.32547764                0.03134789               -0.19629988               -0.19628608
               7.00000000                6.00000000               97.00000000                0.41796917               -0.09947920               -0.10991173                0.30717103                0.02019679               -0.21621634               -0.18106845
               8.00000000                6.00000000               97.00000000                0.43177932               -0.08973904               -0.09283314                0.29209891                0.01232242               -0.18146338               -0.17025069
               9.00000000                6.00000000               97.00000000                0.45241347               -0.08777658               -0.07935006                0.28164429                0.00657567               -0.10300739               -0.17026875
              10.00000000                6.00000000               97.00000000                0.73493214               -0.08778503               -0.07403468                0.27833323                0.00350149               -0.06032034               -0.19159194
               0.00000000                7.00000000               97.00000000                0.57054589               -0.08852554               -0.08833198                0.18177788               -0.03301595                0.06168310               -0.06858606
               1.00000000                7.00000000               97.00000000                0.28780063               -0.16053465               -0.08388876                0.38475365               -0.13874283                0.67509078               -0.08321259
               2.00000000                7.00000000               97.00000000                0.34575135               -0.23259540               -0.05906169                0.42788807               -0.18191072                0.93850568               -0.17353843
               3.00000000                7.00000000               97.00000000                0.33809504               -0.22538868               -0.06972986                0.32160871               -0.09476971                0.42304429               -0.20858637
               4.00000000                7.00000000               97.00000000                0.36433802               -0.19278299               -0.08873267                0.32064985               -0.03211546                0.12141644               -0.24103558
               5.00000000                7.00000000               97.00000000                0.39569829               -0.14481748               -0.09963686                0.31580244                0.00659757               -0.08447592               -0.23512028
               6.00000000                7.00000000               97.00000000                0.41798725               -0.10991506               -0.09948727                0.30718451                0.02020966               -0.18108005               -0.21621868
               7.00000000                7.00000000               97.00000000                0.43343032               -0.09248843               -0.09249270                0.29441827                0.02011875               -0.19693761               -0.19693259
               8.00000000                7.00000000               97.00000000                0.44798781               -0.08636954               -0.08311614                0.28302847                0.01628802               -0.16380328               -0.18341914
               9.00000000                7.00000000               97.00000000                0.46738423               -0.08572415               -0.07471677                0.27442418                0.00987011               -0.09263800               -0.18087193
              10.00000000                7.00000000               97.00000000                0.74103141               -0.08605525               -0.06910387                0.27001074                0.00693826               -0.05276694               -0.19376099
               0.00000000                8.00000000               97.00000000                0.57104503               -0.08721481               -0.06395863                0.18942788               -0.02420417                0.05687243               -0.03859490
               1.00000000                8.00000000               97.00000000                0.28105303               -0.15032131               -0.09438324                0.35755377               -0.10735792                0.61975547               -0.08227352
               2.00000000                8.00000000               97.00000000                0.34372572               -0.20588507               -0.07424117                0.44590570               -0.14224860                0.87646690               -0.15374840
               3.00000000                8.00000000               97.00000000                0.35017966               -0.18048207               -0.08120595                0.33066331               -0.08039437                0.39003402               -0.18741921
               4.00000000                8.00000000               97.00000000                0.37760517               -0.14547850               -0.08498136                0.31009279               -0.03736071                0.10109146               -0.21151431
               5.00000000                8.00000000               97.00000000                0.40896660               -0.11422282               -0.08880761                0.29887502               -0.00413427               -0.08375068               -0.20092536
               6.00000000                8.00000000               97.00000000                0.43177035               -0.09283698               -0.08974127                0.29210173                0.01233288               -0.17025181               -0.18146264
               7.00000000                8.00000000               97.00000000                0.44800508               -0.08311814               -0.08636993                0.28302609                0.01629270               -0.18341997               -0.16379741
               8.00000000                8.00000000               97.00000000                0.46273420               -0.08078874               -0.08078663                0.27455765                0.01456235               -0.15217821               -0.15216568
               9.00000000                8.00000000               97.00000000                0.48059972               -0.08154002               -0.07538527                0.26740757                0.00885505               -0.08662867               -0.14935122
              10.00000000                8.00000000               97.00000000                0.74638250               -0.08217535               -0.06913259                0.26201556                0.00696973               -0.04851376               -0.15572661
               0.00000000                9.00000000               97.00000000                0.57305300               -0.08595448               -0.05480432                0.19566235               -0.01466868                0.05495828               -0.00933291
               1.00000000                9.00000000               97.00000000                0.28676412               -0.14179964               -0.09811296                0.33755209               -0.06608320                0.58752567               -0.05392614
               2.00000000                9.00000000               97.00000000                0.35855634               -0.18412355               -0.09175241                0.45586393               -0.08230299                0.83869995               -0.09952778
               3.00000000                9.00000000               97.00000000                0.37279911               -0.15071949               -0.08752170                0.33693231               -0.04214069                0.36695723               -0.11692645
               4.00000000                9.00000000               97.00000000                0.40008132               -0.11682540               -0.08492425                0.30343244               -0.02016560                0.08410712               -0.12564648
               5.00000000                9.00000000               97.00000000                0.43064527               -0.09314229               -0.08637494                0.28791832               -0.00357255               -0.08996789               -0.11606841
               6.00000000                9.00000000               97.00000000                0.45239472               -0.07935279               -0.08777797                0.28164726                0.00658505               -0.17026031               -0.10300677
               7.00000000                9.00000000               97.00000000                0.46736865               -0.07472345               -0.08572489                0.27443111                0.00987517               -0.18086399               -0.09263620
               8.00000000                9.00000000               97.00000000                0.48058554               -0.07539119               -0.08154323                0.26742048                0.00885442               -0.14936011               -0.08662176
               9.00000000                9.00000000               97.00000000                0.49626176               -0.07729810               -0.07729946                0.26101427                0.00502217               -0.08526381               -0.08525199
              10.00000000                9.00000000               97.00000000                0.75319421               -0.07802560               -0.07192980                0.25520837                0.00439643               -0.04701020               -0.08779818
               0.00000000               10.00000000               97.00000000                0.78743430               -0.08016722               -0.05380476                0.18953128               -0.02829200                0.07311954                0.00955420
               1.00000000               10.00000000               97.00000000                0.64931039               -0.13043891               -0.09713973                0.32104399               -0.05727483                0.60001104               -0.03645831
               2.00000000               10.00000000               97.00000000                0.69006111               -0.17336303               -0.10013822                0.45019031               -0.04514143                0.82188976               -0.07069155
               3.00000000               10.00000000               97.00000000                0.69760690               -0.14283888               -0.08791800                0.33254084               -0.01348581                0.33849748               -0.07960254
               4.00000000               10.00000000               97.00000000                0.71082709               -0.10671688               -0.08477668                0.29996119               -0.00860603                0.05138140               -0.07918929
               5.00000000               10.00000000               97.00000000                0.72525693               -0.08584616               -0.08613629                0.28515635               -0.00264813               -0.11926380               -0.07090517
               6.00000000               10.00000000               97.00000000                0.73493377               -0.07403563               -0.08778693                0.27833134                0.00350794               -0.19157190               -0.06031378
               7.00000000               10.00000000               97.00000000                0.74104045               -0.06911305               -0.08605913                0.27003817                0.00693936               -0.19376367               -0.05276674
               8.00000000               10.00000000               97.00000000                0.74636964               -0.06914220               -0.08218357                0.26204770                0.00696861               -0.15574077               -0.04851678
               9.00000000               10.00000000               97.00000000                0.75319353               -0.07193238               -0.07803080                0.25522343                0.00440001               -0.08781299               -0.04700829
              10.00000000               10.00000000               97.00000000                0.87888627               -0.07365607               -0.07365579                0.24909994                0.00399527               -0.04692306               -0.04691704
               0.00000000                0.00000000               98.00000000                0.74020891               -0.00381458               -0.00380434                0.01337930                0.05621843                0.01483201                0.01483262
               1.00000000                0.00000000               98.00000000                0.49468142               -0.00754476               -0.06690375                0.10797821                0.10147958                0.03673049                0.02189517
               2.00000000                0.00000000               98.00000000                0.51407096               -0.07650280               -0.05931413                0.12985584                0.06341827               -0.00289840                0.03665539
               3.00000000                0.00000000               98.00000000                0.53503458               -0.15927259               -0.08267573                0.11667637                0.04848317               -0.06730950                0.03909643
               4.00000000                0.00000000               98.00000000                0.54523157               -0.16143987               -0.07855127                0.11154075               -0.00472049               -0.09757642                0.07762377
               5.00000000                0.00000000               98.00000000                0.54651874               -0.12208428               -0.08062592                0.12401656               -0.03759150               -0.08108772                0.08842913
               6.00000000                0.00000000               98.00000000                0.54450708               -0.08202857               -0.08443972                0.13670413               -0.03621115               -0.05030542                0.07554202
               7.00000000                0.00000000               98.00000000                0.54221967               -0.05932568               -0.08195311                0.14607507               -0.02273617               -0.02430676                0.06444953
               8.00000000                0.00000000               98.00000000                0.54113814               -0.04985924               -0.07751194                0.15262938               -0.01283311               -0.00196538                0.05836794
               9.00000000                0.00000000               98.00000000                0.54076046               -0.04522172               -0.07538284                0.15574052               -0.00794871                0.01547571                0.05288262
              10.00000000                0.00000000               98.00000000                0.77012580               -0.04342253               -0.07225790                0.14952548               -0.03498636                0.02860538                0.07893899
               0.00000000                1.00000000               98.00000000                0.49480139               -0.06690479               -0.00751303                0.10795323                0.10145565                0.02189041                0.03669491
               1.00000000                1.00000000               98.00000000                0.01592818               -0.11982310               -0.11981637                0.22259685                0.21741477                0.09783483                0.09780798
               2.00000000                1.00000000               98.00000000                0.09003938               -0.12615983               -0.12564354                0.36615404                0.27044104                0.24190033                1.54277121
               3.00000000                1.00000000               98.00000000                0.22727767               -0.06450655               -0.07940825                0.47573646                0.11545259                0.23397107                1.26238085
               4.00000000                1.00000000               98.00000000                0.31389829               -0.04999485               -0.10995105                0.48262402               -0.00743923                0.12540685                0.95312008
               5.00000000                1.00000000               98.00000000                0.32231243               -0.05262204               -0.12364067                0.42612725               -0.09382910               -0.00415860                0.73983476
               6.00000000                1.00000000               98.00000000                0.29921631               -0.06010028               -0.12457869                0.37698987               -0.10507595               -0.08132680                0.63383800
               7.00000000                1.00000000               98.00000000                0.27705280               -0.07367196               -0.11058854                0.35120832               -0.08173635               -0.10257602                0.59512179
               8.00000000                1.00000000               98.00000000                0.26480147               -0.08923132               -0.09218729                0.34030315               -0.05834605               -0.08892225                0.58109274
               9.00000000                1.00000000               98.00000000                0.26612174               -0.09883632               -0.08199883                0.33335370               -0.03742447               -0.05792522                0.57167204
              10.00000000                1.00000000               98.00000000                0.63749688               -0.10104260               -0.08776338                0.32339759               -0.05104574               -0.04606821                0.59658451
               0.00000000                2.00000000               98.00000000                0.51409667               -0.05928809               -0.07646057                0.12983166                0.06341591                0.03664193               -0.00292763
               1.00000000                2.00000000               98.00000000                0.09004287               -0.12552930               -0.12615839                0.36603278                0.27037601                1.54274614                0.24184947
               2.00000000                2.00000000               98.00000000                0.17252398               -0.24291895               -0.24298629                0.76330774                0.60082825                1.33517197                1.33440167
               3.00000000                2.00000000               98.00000000                0.29982145               -0.18839291               -0.23183132                0.47733947                0.34487517               -0.26061009                1.40618904
               4.00000000                2.00000000               98.00000000                0.39592755               -0.06843120               -0.17112102                0.32685153                0.01601450               -0.25030324                1.17524509
               5.00000000                2.00000000               98.00000000                0.41323331               -0.04761737               -0.15986902                0.30320099               -0.10188336               -0.18671960                0.94794698
               6.00000000                2.00000000               98.00000000                0.39738951               -0.04734269               -0.14210492                0.32305934               -0.12042482               -0.14277040                0.83629737
               7.00000000                2.00000000               98.00000000                0.38099442               -0.06861511               -0.11669216                0.36567389               -0.09382246               -0.11775330                0.80251725
               8.00000000                2.00000000               98.00000000                0.37388383               -0.09824210               -0.09185379                0.40557663               -0.06643354               -0.10411968                0.79032422
               9.00000000                2.00000000               98.00000000                0.38369698               -0.12283717               -0.07751761                0.42527153               -0.04464922               -0.07233035                0.77799693
              10.00000000                2.00000000               98.00000000                0.70132605               -0.13282574               -0.08733614                0.41268589               -0.03789230               -0.06037751                0.76380617
               0.00000000                3.00000000               98.00000000                0.53506647               -0.08263965               -0.15926417                0.11664668                0.04852576                0.03913410               -0.06725914
               1.00000000                3.00000000               98.00000000                0.22740239               -0.07918206               -0.06452060                0.47571615                0.11548518                1.26233166                0.23394383
               2.00000000                3.00000000               98.00000000                0.29979989               -0.23180131               -0.18836592                0.47728109                0.34494510                1.40632845               -0.26059974
               3.00000000                3.00000000               98.00000000                0.29203950               -0.30700892               -0.30677677                0.30052285                0.49013956                0.24747725                0.24727729
               4.00000000                3.00000000               98.00000000                0.32831402               -0.15746854               -0.23702539                0.28650097                0.22500200               -0.09351301                0.37640938
               5.00000000                3.00000000               98.00000000                0.34526328               -0.07593077               -0.17494793                0.26625940               -0.00370419               -0.19400072                0.33633345
               6.00000000                3.00000000               98.00000000                0.35190318               -0.07005718               -0.11889923                0.26901520               -0.06163782               -0.21560527                0.29514095
               7.00000000                3.00000000               98.00000000                0.35753345               -0.08728887               -0.08086337                0.28720745               -0.05745521               -0.20399851                0.26854272
               8.00000000                3.00000000               98.00000000                0.36696286               -0.10562220               -0.05897731                0.30586450               -0.03757156               -0.17292125                0.24658891
               9.00000000                3.00000000               98.00000000                0.38528140               -0.11525221               -0.04832894                0.31548946               -0.01601784               -0.10510237                0.22689656
              10.00000000                3.00000000               98.00000000                0.70146685               -0.11678755               -0.04965215                0.30156371                0.00202533               -0.06739449                0.20736320
               0.00000000                4.00000000               98.00000000                0.54519881               -0.07850084               -0.16146483                0.11148533               -0.00472792                0.07764125               -0.09749893
               1.00000000                4.00000000               98.00000000                0.31392522               -0.10980260               -0.04999445                0.48270161               -0.00749496                0.95328250                0.12537721
               2.00000000                4.00000000               98.00000000                0.39592193               -0.17110952               -0.06839315                0.32665065                0.01580417                1.17550593               -0.25023036
               3.00000000                4.00000000               98.00000000                0.32829899               -0.23721130               -0.15740647                0.28650463                0.22502123                0.37650862               -0.09356444
               4.00000000                4.00000000               98.00000000                0.34464743               -0.21713543               -0.21705030                0.34593384                0.17963685                0.05013210                0.05009094
               5.00000000                4.00000000               98.00000000                0.35784027               -0.13336811               -0.16904942                0.32699855                0.04091289               -0.18508476                0.07360481
               6.00000000                4.00000000               98.00000000                0.36546867               -0.09973561               -0.10694379                0.30332630               -0.01746449               -0.25917071                0.06351709
               7.00000000                4.00000000               98.00000000                0.37221410               -0.09656588               -0.06259763                0.29240773               -0.02610889               -0.25640935                0.04598502
               8.00000000                4.00000000               98.00000000                0.38198428               -0.10376600               -0.03680595                0.28866290               -0.01688634               -0.21209068                0.02909000
               9.00000000                4.00000000               98.00000000                0.39896164               -0.10934441               -0.02403774                0.28443898               -0.00517111               -0.12425329                0.01245204
              10.00000000                4.00000000               98.00000000                0.70697943               -0.11059063               -0.02055128                0.27266095                0.00115571               -0.08449859               -0.01082127
               0.00000000                5.00000000               98.00000000                0.54656467               -0.08065099               -0.12209679                0.12398583               -0.03761259                0.08838248               -0.08105549
               1.00000000                5.00000000               98.00000000                0.32215215               -0.12367798               -0.05260415                0.42615021               -0.09391063                0.73994900               -0.00417836
               2.00000000                5.00000000               98.00000000                0.41322086               -0.15986806               -0.04756919                0.30318924               -0.10212394                0.94809165               -0.18678130
               3.00000000                5.00000000               98.00000000                0.34524877               -0.17494986               -0.07594469                0.26630353               -0.00379228                0.33641210               -0.19402948
               4.00000000                5.00000000               98.00000000                0.35787866               -0.16907767               -0.13335954                0.32701356                0.04088273                0.07362628               -0.18509439
               5.00000000                5.00000000               98.00000000                0.37361742               -0.12215725               -0.12215979                0.33041142                0.02002388               -0.16047243               -0.16045293
               6.00000000                5.00000000               98.00000000                0.38325248               -0.09689253               -0.08823070                0.31287919                0.00322869               -0.24847811               -0.14183520
               7.00000000                5.00000000               98.00000000                0.39025756               -0.09276878               -0.05733682                0.29786501               -0.00094584               -0.25009211               -0.13042472
               8.00000000                5.00000000               98.00000000                0.39939527               -0.09965178               -0.03503277                0.28805006                0.00209015               -0.20442218               -0.12369750
               9.00000000                5.00000000               98.00000000                0.41450559               -0.10698645               -0.02082241                0.28058358                0.00409375               -0.11773673               -0.12551176
              10.00000000                5.00000000               98.00000000                0.71309946               -0.10944957               -0.01515235                0.26975267                0.00479557               -0.07794971               -0.15198016
               0.00000000                6.00000000               98.00000000                0.54438472               -0.08449035               -0.08202980                0.13672912               -0.03622733                0.07552038               -0.05033511
               1.00000000                6.00000000               98.00000000                0.29918340               -0.12465380               -0.06009680                0.37699746               -0.10509992                0.63392043               -0.08134257
               2.00000000                6.00000000               98.00000000                0.39742756               -0.14210729               -0.04735399                0.32311575               -0.12043150                0.83638023               -0.14273557
               3.00000000                6.00000000               98.00000000                0.35188906               -0.11884899               -0.07008848                0.26904844               -0.06166339                0.29518448               -0.21561414
               4.00000000                6.00000000               98.00000000                0.36547138               -0.10694341               -0.09974061                0.30334290               -0.01746361                0.06355593               -0.25916652
               5.00000000                6.00000000               98.00000000                0.38327128               -0.08822781               -0.09689279                0.31285908                0.00322418               -0.14183759               -0.24845350
               6.00000000                6.00000000               98.00000000                0.39492741               -0.07937857               -0.07938522                0.30455164                0.00751392               -0.22422102               -0.22420279
               7.00000000                6.00000000               98.00000000                0.40284636               -0.08182953               -0.05971330                0.29378067                0.00828618               -0.22634247               -0.20190159
               8.00000000                6.00000000               98.00000000                0.41211107               -0.09180448               -0.04282051                0.28552618                0.00961437               -0.18295233               -0.18603615
               9.00000000                6.00000000               98.00000000                0.42552664               -0.10115616               -0.03019321                0.27904252                0.00803504               -0.10323389               -0.18287212
              10.00000000                6.00000000               98.00000000                0.71695922               -0.10447475               -0.02227559                0.26806557                0.00845651               -0.06559066               -0.20592219
               0.00000000                7.00000000               98.00000000                0.54220446               -0.08195809               -0.05934209                0.14611163               -0.02273716                0.06445972               -0.02433253
               1.00000000                7.00000000               98.00000000                0.27697136               -0.11058435               -0.07368724                0.35125457               -0.08176082                0.59529583               -0.10259761
               2.00000000                7.00000000               98.00000000                0.38100549               -0.11669654               -0.06863265                0.36571578               -0.09383155                0.80266766               -0.11780501
               3.00000000                7.00000000               98.00000000                0.35753298               -0.08088103               -0.08729364                0.28719488               -0.05744456                0.26850690               -0.20399304
               4.00000000                7.00000000               98.00000000                0.37221486               -0.06261008               -0.09656734                0.29242308               -0.02609055                0.04597288               -0.25640758
               5.00000000                7.00000000               98.00000000                0.39023231               -0.05734294               -0.09276518                0.29787602               -0.00094287               -0.13043358               -0.25008574
               6.00000000                7.00000000               98.00000000                0.40287965               -0.05971317               -0.08182937                0.29377373                0.00828930               -0.20190700               -0.22633343
               7.00000000                7.00000000               98.00000000                0.41172971               -0.06841784               -0.06841986                0.28722475                0.01049830               -0.20265937               -0.20265360
               8.00000000                7.00000000               98.00000000                0.42124789               -0.08155277               -0.05573116                0.28177471                0.01085229               -0.16222615               -0.18591869
               9.00000000                7.00000000               98.00000000                0.43263863               -0.09274628               -0.04509758                0.27713105                0.00802895               -0.09051185               -0.18173278
              10.00000000                7.00000000               98.00000000                0.71872998               -0.09684167               -0.03523123                0.26562515                0.00901471               -0.05507586               -0.19750785
               0.00000000                8.00000000               98.00000000                0.54115302               -0.07755073               -0.04986669                0.15266122               -0.01283649                0.05833621               -0.00200237
               1.00000000                8.00000000               98.00000000                0.26467582               -0.09223036               -0.08924292                0.34031753               -0.05838597                0.58117542               -0.08891400
               2.00000000                8.00000000               98.00000000                0.37389587               -0.09184470               -0.09824597                0.40566347               -0.06650278                0.79045018               -0.10427642
               3.00000000                8.00000000               98.00000000                0.36695890               -0.05893972               -0.10561629                0.30583325               -0.03756618                0.24660296               -0.17293992
               4.00000000                8.00000000               98.00000000                0.38200647               -0.03680788               -0.10376145                0.28866009               -0.01687598                0.02907974               -0.21207783
               5.00000000                8.00000000               98.00000000                0.39939052               -0.03503742               -0.09965023                0.28805636                0.00209643               -0.12370367               -0.20442951
               6.00000000                8.00000000               98.00000000                0.41209616               -0.04281996               -0.09180574                0.28553505                0.00961711               -0.18604589               -0.18295329
               7.00000000                8.00000000               98.00000000                0.42124198               -0.05573226               -0.08155573                0.28177919                0.01085299               -0.18592277               -0.16222301
               8.00000000                8.00000000               98.00000000                0.43030964               -0.07133211               -0.07133358                0.27870297                0.00966173               -0.14831695               -0.14830898
               9.00000000                8.00000000               98.00000000                0.43937580               -0.08382606               -0.06229944                0.27589728                0.00615804               -0.08281897               -0.14452069
              10.00000000                8.00000000               98.00000000                0.72048188               -0.08837162               -0.05201326                0.26432810                0.00751794               -0.04863775               -0.15276019
               0.00000000                9.00000000               98.00000000                0.54078347               -0.07541846               -0.04521611                0.15575673               -0.00794955                0.05286570                0.01541711
               1.00000000                9.00000000               98.00000000                0.26612839               -0.08203675               -0.09883492                0.33333219               -0.03742983                0.57163855               -0.05787626
               2.00000000                9.00000000               98.00000000                0.38373411               -0.07749762               -0.12282273                0.42523334               -0.04461598                0.77798337               -0.07236788
               3.00000000                9.00000000               98.00000000                0.38528603               -0.04828815               -0.11524948                0.31546885               -0.01597928                0.22692665               -0.10511122
               4.00000000                9.00000000               98.00000000                0.39892112               -0.02404011               -0.10934263                0.28444309               -0.00516032                0.01243826               -0.12424518
               5.00000000                9.00000000               98.00000000                0.41449096               -0.02082991               -0.10698635                0.28059850                0.00410150               -0.12551399               -0.11776210
               6.00000000                9.00000000               98.00000000                0.42552071               -0.03019950               -0.10116014                0.27906350                0.00803265               -0.18287465               -0.10323866
               7.00000000                9.00000000               98.00000000                0.43262131               -0.04509969               -0.09275067                0.27714393                0.00802649               -0.18173049               -0.09050622
               8.00000000                9.00000000               98.00000000                0.43938922               -0.06229927               -0.08382709                0.27589786                0.00615564               -0.14452300               -0.08281160
               9.00000000                9.00000000               98.00000000                0.44562658               -0.07590246               -0.07590333                0.27475595                0.00325126               -0.08075610               -0.08074633
              10.00000000                9.00000000               98.00000000                0.72234651               -0.08082245               -0.06703038                0.26390315                0.00510061               -0.04595371               -0.08385567
               0.00000000               10.00000000               98.00000000                0.77007922               -0.07227070               -0.04341622                0.14952093               -0.03497938                0.07893476                0.02855429
               1.00000000               10.00000000               98.00000000                0.63746466               -0.08775805               -0.10103770                0.32337421               -0.05101990                0.59649858               -0.04599933
               2.00000000               10.00000000               98.00000000                0.70133488               -0.08731163               -0.13279514                0.41254583               -0.03781282                0.76371988               -0.06035557
               3.00000000               10.00000000               98.00000000                0.70142773               -0.04965524               -0.11678479                0.30156374                0.00205965                0.20738645               -0.06738517
               4.00000000               10.00000000               98.00000000                0.70697675               -0.02056445               -0.11059385                0.27269292                0.00116462               -0.01084889               -0.08450624
               5.00000000               10.00000000               98.00000000                0.71313827               -0.01516235               -0.10945102                0.26979316                0.00480599               -0.15197648               -0.07799502
               6.00000000               10.00000000               98.00000000                0.71693785               -0.02229397               -0.10447720                0.26807953                0.00845236               -0.20589423               -0.06559639
               7.00000000               10.00000000               98.00000000                0.71872701               -0.03523677               -0.09684779                0.26563675                0.00901052               -0.19749941               -0.05506157
               8.00000000               10.00000000               98.00000000                0.72050662               -0.05201379               -0.08837163                0.26433206                0.00751630               -0.15276055               -0.04862870
               9.00000000               10.00000000               98.00000000                0.72235900               -0.06702947               -0.08082334                0.26389884                0.00509669               -0.08385909               -0.04593941
              10.00000000               10.00000000               98.00000000                0.86062622               -0.07304538               -0.07304853                0.25383472                0.00717324               -0.04563341               -0.04562329
               0.00000000                0.00000000               99.00000000                0.73858220               -0.00704589               -0.00704544                0.00409430                0.04633833                0.00723009                0.00722199
               1.00000000                0.00000000               99.00000000                0.48860269               -0.02103943               -0.04057011                0.08235343                0.06360125               -0.02880225                0.02334915
               2.00000000                0.00000000               99.00000000                0.50830069               -0.06014819               -0.07224480                0.08893944                0.07252337               -0.13108435                0.05333762
               3.00000000                0.00000000               99.00000000                0.51927175               -0.08462938               -0.03442698                0.06501328                0.02643898               -0.12702032                0.09899785
               4.00000000                0.00000000               99.00000000                0.52100034               -0.06985053               -0.04503173                0.07588509               -0.02040837               -0.06314726                0.10717502
               5.00000000                0.00000000               99.00000000                0.51930513               -0.04510884               -0.06846065                0.09692444               -0.03097087               -0.01865988                0.07586764
               6.00000000                0.00000000               99.00000000                0.51800237               -0.03400163               -0.06818502                0.10832189               -0.01535864               -0.00061034                0.05567589
               7.00000000                0.00000000               99.00000000                0.51741177               -0.03779411               -0.06006063                0.11475381               -0.00463813                0.00952017                0.04747701
               8.00000000                0.00000000               99.00000000                0.51739397               -0.04314984               -0.05356748                0.11827895               -0.00194631                0.01844780                0.04432412
               9.00000000                0.00000000               99.00000000                0.51720122               -0.03993459               -0.05064379                0.11693391               -0.00196117                0.02343653                0.03929129
              10.00000000                0.00000000               99.00000000                0.75801419               -0.03566646               -0.05180520                0.11107335               -0.04573909                0.02970599                0.06078891
               0.00000000                1.00000000               99.00000000                0.48864177               -0.04054192               -0.02102352                0.08231855                0.06354350                0.02337189               -0.02880560
               1.00000000                1.00000000               99.00000000                0.01873013               -0.04133557               -0.04136870                0.18288617                0.08261468                0.13043060                0.13028542
               2.00000000                1.00000000               99.00000000                0.19563414               -0.04035120               -0.09653327                0.38999677                0.09139526                0.31681524                1.53088551
               3.00000000                1.00000000               99.00000000                0.34701018               -0.03676390               -0.00077105                0.42568097                0.00478540                0.23895201                0.99836798
               4.00000000                1.00000000               99.00000000                0.35131514               -0.03061438               -0.01342915                0.38189959               -0.06580568                0.05359324                0.62889767
               5.00000000                1.00000000               99.00000000                0.30215118               -0.02822719               -0.04107526                0.33357483               -0.06122593               -0.05588294                0.49615948
               6.00000000                1.00000000               99.00000000                0.26732456               -0.04114256               -0.02697122                0.31584008               -0.01862446               -0.08743208                0.46634311
               7.00000000                1.00000000               99.00000000                0.24969948               -0.06314568                0.00524160                0.31546676                0.00336490               -0.08593487                0.47827667
               8.00000000                1.00000000               99.00000000                0.24211593               -0.08447423                0.03307458                0.32021371                0.00540858               -0.06790002                0.49237638
               9.00000000                1.00000000               99.00000000                0.24287639               -0.10294146                0.04340903                0.32474259                0.00542659               -0.04288747                0.49315806
              10.00000000                1.00000000               99.00000000                0.62482206               -0.11112095                0.01409522                0.32390740               -0.02598711               -0.03798361                0.50775264
               0.00000000                2.00000000               99.00000000                0.50835525               -0.07227140               -0.06010927                0.08893589                0.07246852                0.05319901               -0.13109713
               1.00000000                2.00000000               99.00000000                0.19541542               -0.09656121               -0.04035459                0.38982159                0.09145573                1.53102782                0.31670398
               2.00000000                2.00000000               99.00000000                0.48049388               -0.10742743               -0.10756831                0.54580972                0.26110294                1.52193852                1.52146453
               3.00000000                2.00000000               99.00000000                0.52861699               -0.03307923               -0.04091250                0.21886906                0.17281030               -0.37352578                1.12736126
               4.00000000                2.00000000               99.00000000                0.52228174                0.02520348               -0.01010245                0.14596686               -0.05489972               -0.27544990                0.78384492
               5.00000000                2.00000000               99.00000000                0.47448004                0.00956911               -0.01064309                0.18046318               -0.06720425               -0.12010733                0.63888293
               6.00000000                2.00000000               99.00000000                0.44513481               -0.02891081                0.01099769                0.25383279               -0.00493259               -0.05431474                0.63255374
               7.00000000                2.00000000               99.00000000                0.43308892               -0.07838494                0.04220511                0.31718185                0.02517964               -0.02881957                0.65975280
               8.00000000                2.00000000               99.00000000                0.43079505               -0.11998628                0.06861902                0.35693917                0.02180666               -0.02997415                0.67511245
               9.00000000                2.00000000               99.00000000                0.43860698               -0.14768141                0.07708685                0.37331479               -0.00062257               -0.02703937                0.67470975
              10.00000000                2.00000000               99.00000000                0.72657926               -0.15776191                0.04731257                0.36277566               -0.01685550               -0.03720778                0.65795434
               0.00000000                3.00000000               99.00000000                0.51929038               -0.03444661               -0.08460945                0.06501399                0.02649528                0.09895778               -0.12706462
               1.00000000                3.00000000               99.00000000                0.34706290               -0.00076646               -0.03676289                0.42559693                0.00483500                0.99844772                0.23907452
               2.00000000                3.00000000               99.00000000                0.52862353               -0.04085424               -0.03322790                0.21901274                0.17291344                1.12725628               -0.37363745
               3.00000000                3.00000000               99.00000000                0.35611726               -0.08320201               -0.08325561                0.12832664                0.21652259                0.07670972                0.07679869
               4.00000000                3.00000000               99.00000000                0.35610800               -0.03810057               -0.02431066                0.15248544                0.00374492               -0.10665233                0.12593055
               5.00000000                3.00000000               99.00000000                0.35597404               -0.03616756                0.03714530                0.16053132               -0.06045557               -0.17803498                0.13177678
               6.00000000                3.00000000               99.00000000                0.35702883               -0.06296114                0.06190937                0.18901975               -0.01942907               -0.16887929                0.13022209
               7.00000000                3.00000000               99.00000000                0.36262535               -0.09237245                0.06506875                0.22000389                0.00902079               -0.14438037                0.11604699
               8.00000000                3.00000000               99.00000000                0.37258544               -0.11657704                0.06236933                0.24171353                0.01753598               -0.11558271                0.09590455
               9.00000000                3.00000000               99.00000000                0.38710800               -0.12702954                0.05652401                0.24989231                0.01223911               -0.06804039                0.07984256
              10.00000000                3.00000000               99.00000000                0.69953358               -0.12764344                0.05292930                0.23568025                0.00936588               -0.04544137                0.06974664
               0.00000000                4.00000000               99.00000000                0.52093131               -0.04502301               -0.06987644                0.07587644               -0.02039676                0.10724621               -0.06314744
               1.00000000                4.00000000               99.00000000                0.35147174               -0.01344930               -0.03062829                0.38195813               -0.06575583                0.62876508                0.05365118
               2.00000000                4.00000000               99.00000000                0.52227484               -0.01011470                0.02524094                0.14577527               -0.05481783                0.78356601               -0.27542451
               3.00000000                4.00000000               99.00000000                0.35612732               -0.02432398               -0.03809609                0.15248860                0.00379393                0.12589900               -0.10665548
               4.00000000                4.00000000               99.00000000                0.35534619               -0.01434361               -0.01431184                0.23271547               -0.03721092               -0.03299422               -0.03293700
               5.00000000                4.00000000               99.00000000                0.35789058               -0.02868693                0.06006648                0.23709543               -0.05331033               -0.20341542                0.00969062
               6.00000000                4.00000000               99.00000000                0.35999037               -0.05545565                0.09473938                0.24708641               -0.01865068               -0.22646720                0.00863932
               7.00000000                4.00000000               99.00000000                0.36509426               -0.08807731                0.10138645                0.26055471                0.01065246               -0.19998031               -0.00481971
               8.00000000                4.00000000               99.00000000                0.37406214               -0.11673831                0.09814169                0.26879145                0.02164812               -0.15628006               -0.01827987
               9.00000000                4.00000000               99.00000000                0.38645368               -0.13777234                0.09368257                0.26774644                0.01522131               -0.08934566               -0.03049247
              10.00000000                4.00000000               99.00000000                0.69763483               -0.14629219                0.08811641                0.25433391                0.00272236               -0.07656694               -0.04365054
               0.00000000                5.00000000               99.00000000                0.51933284               -0.06842072               -0.04513879                0.09689105               -0.03098166                0.07590586               -0.01858840
               1.00000000                5.00000000               99.00000000                0.30218369               -0.04106701               -0.02822111                0.33364191               -0.06122938                0.49617998               -0.05592300
               2.00000000                5.00000000               99.00000000                0.47440830               -0.01069780                0.00960973                0.18036371               -0.06717814                0.63882716               -0.11998479
               3.00000000                5.00000000               99.00000000                0.35600712                0.03707583               -0.03614518                0.16055466               -0.06046310                0.13176320               -0.17812318
               4.00000000                5.00000000               99.00000000                0.35788813                0.06002075               -0.02867974                0.23709522               -0.05328954                0.00964304               -0.20341115
               5.00000000                5.00000000               99.00000000                0.36205715                0.01696266                0.01698496                0.25723251               -0.04022900               -0.16480128               -0.16479932
               6.00000000                5.00000000               99.00000000                0.36541494               -0.02744074                0.04925300                0.26743935               -0.01712365               -0.21266751               -0.13965957
               7.00000000                5.00000000               99.00000000                0.37131078               -0.07157147                0.06474369                0.27551687                0.00410508               -0.19553885               -0.12417841
               8.00000000                5.00000000               99.00000000                0.38070626               -0.10840882                0.07101097                0.27875652                0.01697320               -0.15222986               -0.11317720
               9.00000000                5.00000000               99.00000000                0.39257815               -0.13273657                0.07501328                0.27506545                0.01520285               -0.08576615               -0.10824722
              10.00000000                5.00000000               99.00000000                0.69944249               -0.14119919                0.07409988                0.26070420                0.01437983               -0.06803058               -0.12887152
               0.00000000                6.00000000               99.00000000                0.51794316               -0.06819164               -0.03401304                0.10831838               -0.01537278                0.05567723               -0.00058522
               1.00000000                6.00000000               99.00000000                0.26727044               -0.02698793               -0.04112871                0.31590148               -0.01866593                0.46646913               -0.08747182
               2.00000000                6.00000000               99.00000000                0.44515250                0.01094687               -0.02892076                0.25389759               -0.00498531                0.63269684               -0.05429735
               3.00000000                6.00000000               99.00000000                0.35706518                0.06185801               -0.06294974                0.18904108               -0.01945002                0.13024998               -0.16890379
               4.00000000                6.00000000               99.00000000                0.35997941                0.09471757               -0.05544274                0.24707137               -0.01864287                0.00859779               -0.22646089
               5.00000000                6.00000000               99.00000000                0.36536597                0.04923951               -0.02743873                0.26745732               -0.01711366               -0.13968182               -0.21266156
               6.00000000                6.00000000               99.00000000                0.36998135               -0.00149386               -0.00148462                0.28014772               -0.01079985               -0.18730578               -0.18733609
               7.00000000                6.00000000               99.00000000                0.37675162               -0.05161403                0.01682502                0.28722141               -0.00057652               -0.17399110               -0.16495927
               8.00000000                6.00000000               99.00000000                0.38649433               -0.09218329                0.02856210                0.28835388                0.00967399               -0.13398814               -0.14759718
               9.00000000                6.00000000               99.00000000                0.39706680               -0.11885810                0.03670367                0.28361488                0.01122461               -0.07298989               -0.14021309
              10.00000000                6.00000000               99.00000000                0.70031538               -0.12850798                0.04502942                0.26673258                0.01496730               -0.05267411               -0.16039987
               0.00000000                7.00000000               99.00000000                0.51732815               -0.06008930               -0.03781172                0.11480149               -0.00464442                0.04752283                0.00949184
               1.00000000                7.00000000               99.00000000                0.24978914                0.00520040               -0.06314388                0.31556955                0.00334058                0.47838562               -0.08595940
               2.00000000                7.00000000               99.00000000                0.43310604                0.04216277               -0.07839585                0.31712966                0.02517147                0.65980362               -0.02885340
               3.00000000                7.00000000               99.00000000                0.36262120                0.06503499               -0.09235856                0.21999133                0.00903189                0.11602364               -0.14436484
               4.00000000                7.00000000               99.00000000                0.36511467                0.10136050               -0.08805822                0.26054653                0.01064888               -0.00483574               -0.19997762
               5.00000000                7.00000000               99.00000000                0.37128676                0.06474705               -0.07157354                0.27552894                0.00409145               -0.12423218               -0.19551885
               6.00000000                7.00000000               99.00000000                0.37675224                0.01682876               -0.05161432                0.28723855               -0.00058441               -0.16496259               -0.17398697
               7.00000000                7.00000000               99.00000000                0.38396734               -0.03310631               -0.03309997                0.29364214                0.00061602               -0.15278867               -0.15279972
               8.00000000                7.00000000               99.00000000                0.39325134               -0.07433925               -0.01875171                0.29435976                0.00552784               -0.11606466               -0.13698377
               9.00000000                7.00000000               99.00000000                0.40155355               -0.10212812               -0.00739978                0.29027161                0.00669106               -0.06163863               -0.13092141
              10.00000000                7.00000000               99.00000000                0.70087405               -0.11244026                0.00670708                0.27292282                0.01266966               -0.03994906               -0.14516532
               0.00000000                8.00000000               99.00000000                0.51737053               -0.05354207               -0.04317379                0.11829699               -0.00196742                0.04435857                0.01842352
               1.00000000                8.00000000               99.00000000                0.24221300                0.03307553               -0.08448000                0.32028851                0.00538761                0.49249576               -0.06791190
               2.00000000                8.00000000               99.00000000                0.43081452                0.06854775               -0.11995299                0.35683185                0.02179881                0.67505213               -0.03006233
               3.00000000                8.00000000               99.00000000                0.37258548                0.06229676               -0.11655998                0.24172092                0.01752630                0.09584197               -0.11559325
               4.00000000                8.00000000               99.00000000                0.37400194                0.09812411               -0.11673721                0.26881880                0.02162863               -0.01830300               -0.15628225
               5.00000000                8.00000000               99.00000000                0.38070788                0.07101404               -0.10841204                0.27877290                0.01696105               -0.11317637               -0.15223904
               6.00000000                8.00000000               99.00000000                0.38650403                0.02856980               -0.09218926                0.28835442                0.00965064               -0.14759635               -0.13397030
               7.00000000                8.00000000               99.00000000                0.39327725               -0.01875025               -0.07434118                0.29434934                0.00552085               -0.13698450               -0.11605433
               8.00000000                8.00000000               99.00000000                0.40127837               -0.05907158               -0.05907375                0.29582196                0.00459671               -0.10348319               -0.10347468
               9.00000000                8.00000000               99.00000000                0.40691063               -0.08698149               -0.04669883                0.29400839                0.00349306               -0.05435551               -0.09887637
              10.00000000                8.00000000               99.00000000                0.70198410               -0.09748888               -0.03168872                0.27805470                0.00903848               -0.03165712               -0.10562872
               0.00000000                9.00000000               99.00000000                0.51727361               -0.05062192               -0.03994356                0.11692915               -0.00198428                0.03931386                0.02341235
               1.00000000                9.00000000               99.00000000                0.24292897                0.04339694               -0.10293036                0.32472838                0.00538758                0.49318815               -0.04286778
               2.00000000                9.00000000               99.00000000                0.43860616                0.07702438               -0.14764371                0.37325019               -0.00069605                0.67461797               -0.02714765
               3.00000000                9.00000000               99.00000000                0.38712125                0.05648181               -0.12701561                0.24988230                0.01221258                0.07982840               -0.06805498
               4.00000000                9.00000000               99.00000000                0.38642999                0.09369236               -0.13778846                0.26777019                0.01520370               -0.03052477               -0.08933475
               5.00000000                9.00000000               99.00000000                0.39257816                0.07502189               -0.13275132                0.27509687                0.01519797               -0.10823710               -0.08576305
               6.00000000                9.00000000               99.00000000                0.39703746                0.03670221               -0.11886353                0.28363202                0.01121009               -0.14020600               -0.07299086
               7.00000000                9.00000000               99.00000000                0.40158292               -0.00739554               -0.10212971                0.29026731                0.00668551               -0.13091727               -0.06163390
               8.00000000                9.00000000               99.00000000                0.40688208               -0.04669477               -0.08698207                0.29400230                0.00349159               -0.09888618               -0.05435071
               9.00000000                9.00000000               99.00000000                0.40979003               -0.07488473               -0.07488604                0.29551192                0.00130498               -0.05206866               -0.05207044
              10.00000000                9.00000000               99.00000000                0.70245083               -0.08558567               -0.06223822                0.28242408                0.00587753               -0.02890361               -0.05381199
               0.00000000               10.00000000               99.00000000                0.75796149               -0.05178522               -0.03566355                0.11104438               -0.04575176                0.06078769                0.02968208
               1.00000000               10.00000000               99.00000000                0.62476190                0.01407890               -0.11110062                0.32381337               -0.02602027                0.50767322               -0.03793467
               2.00000000               10.00000000               99.00000000                0.72654612                0.04728735               -0.15773499                0.36270230               -0.01692979                0.65783122               -0.03730439
               3.00000000               10.00000000               99.00000000                0.69956016                0.05292993               -0.12762840                0.23564663                0.00933816                0.06980160               -0.04545137
               4.00000000               10.00000000               99.00000000                0.69766170                0.08812430               -0.14631225                0.25434892                0.00269896               -0.04363761               -0.07655391
               5.00000000               10.00000000               99.00000000                0.69945294                0.07410533               -0.14122430                0.26075435                0.01437461               -0.12890039               -0.06802150
               6.00000000               10.00000000               99.00000000                0.70028515                0.04502887               -0.12851476                0.26677078                0.01497034               -0.16041485               -0.05269235
               7.00000000               10.00000000               99.00000000                0.70089216                0.00671128               -0.11244140                0.27291857                0.01267082               -0.14514952               -0.03994884
               8.00000000               10.00000000               99.00000000                0.70199346               -0.03168498               -0.09748845                0.27805364                0.00904133               -0.10563970               -0.03165802
               9.00000000               10.00000000               99.00000000                0.70245723               -0.06223863               -0.08558373                0.28243514                0.00588053               -0.05381336               -0.02892413
              10.00000000               10.00000000               99.00000000                0.84981510               -0.07455223               -0.07454762                0.27205034                0.00958389               -0.02904187               -0.02905504
               0.00000000                0.00000000              100.00000000                1.00000000               -0.02415459               -0.02414741                0.01314220               -0.01083197                0.01718523                0.01718177
               1.00000000                0.00000000              100.00000000                1.00000000               -0.03497365               -0.02059343                0.07259897               -0.10459151               -0.05261099                0.03961822
               2.00000000                0.00000000              100.00000000                1.00000000                0.00444980               -0.12568219                0.07840538               -0.08500379               -0.18523121                0.20145270
               3.00000000                0.00000000              100.00000000                1.00000000                0.06141030               -0.12660715                0.06418764               -0.05659426               -0.13448772                0.17147370
               4.00000000                0.00000000              100.00000000                1.00000000                0.05381272               -0.10086629                0.07986448               -0.02490457               -0.02746506                0.13410887
               5.00000000                0.00000000              100.00000000                1.00000000                0.02681316               -0.08380660                0.09264146                0.01226728                0.01473028                0.11931085
               6.00000000                0.00000000              100.00000000                1.00000000               -0.00014606               -0.07028361                0.09889087                0.02762980                0.02118715                0.12096784
               7.00000000                0.00000000              100.00000000                1.00000000               -0.02796458               -0.05834411                0.10343271                0.02811410                0.02285544                0.12333512
               8.00000000                0.00000000              100.00000000                1.00000000               -0.04560056               -0.04991778                0.10615024                0.02199204                0.02299255                0.12497625
               9.00000000                0.00000000              100.00000000                1.00000000               -0.04102953               -0.04643053                0.10312255                0.01226114                0.01975816                0.12731664
              10.00000000                0.00000000              100.00000000                1.00000000               -0.03236580               -0.05042639                0.09770258               -0.05054086                0.02260377                0.14884848
               0.00000000                1.00000000              100.00000000                1.00000000               -0.02059475               -0.03497634                0.07257768               -0.10453039                0.03965401               -0.05257953
               1.00000000                1.00000000              100.00000000                1.00000000                0.03743540                0.03738309                0.15017514               -0.30689243                0.22469100                0.22452343
               2.00000000                1.00000000              100.00000000                1.00000000                0.08148048                0.34129860                0.39014486               -0.00343289                0.35190644                1.52084316
               3.00000000                1.00000000              100.00000000                1.00000000                0.04735103                0.19254893                0.34242138                0.03180333                0.16078211                0.71644830
               4.00000000                1.00000000              100.00000000                1.00000000                0.02872823                0.07224633                0.29080537                0.04642208                0.01693343                0.39522176
               5.00000000                1.00000000              100.00000000                1.00000000                0.01681564                0.05850784                0.27842103                0.07655491               -0.04645245                0.35842018
               6.00000000                1.00000000              100.00000000                1.00000000               -0.01712273                0.10785306                0.28674239                0.09498592               -0.06132214                0.39832964
               7.00000000                1.00000000              100.00000000                1.00000000               -0.05437908                0.16808024                0.29866421                0.09773727               -0.05860963                0.44249067
               8.00000000                1.00000000              100.00000000                1.00000000               -0.08502136                0.21307269                0.30834471                0.08302898               -0.04473975                0.46931096
               9.00000000                1.00000000              100.00000000                1.00000000               -0.11070517                0.23266373                0.31652742                0.06028336               -0.02563070                0.47341262
              10.00000000                1.00000000              100.00000000                1.00000000               -0.12249886                0.19509594                0.32041852                0.00142966               -0.02352242                0.47970803
               0.00000000                2.00000000              100.00000000                1.00000000               -0.12559717                0.00439466                0.07840661               -0.08502905                0.20133402               -0.18521146
               1.00000000                2.00000000              100.00000000                1.00000000                0.34167460                0.08141155                0.39004614               -0.00377879                1.52118687                0.35178613
               2.00000000                2.00000000              100.00000000                1.00000000                0.38603433                0.38605210                0.42607620               -0.13844508                1.59882515                1.59767797
               3.00000000                2.00000000              100.00000000                1.00000000               -0.05135963                0.40427617                0.05229298               -0.43242171               -0.37732895                0.85976426
               4.00000000                2.00000000              100.00000000                1.00000000               -0.02334960                0.20689613                0.06988086               -0.11216536               -0.16475387                0.46952676
               5.00000000                2.00000000              100.00000000                1.00000000                0.01151663                0.17555846                0.12934679                0.10053029               -0.00977285                0.42281997
               6.00000000                2.00000000              100.00000000                1.00000000               -0.02365544                0.21147793                0.22633637                0.17939245                0.04333376                0.47346474
               7.00000000                2.00000000              100.00000000                1.00000000               -0.08033830                0.26455244                0.29078346                0.18123836                0.03864188                0.52441778
               8.00000000                2.00000000              100.00000000                1.00000000               -0.13560590                0.30744038                0.32339885                0.14224941                0.01683901                0.55112973
               9.00000000                2.00000000              100.00000000                1.00000000               -0.17949459                0.32451248                0.33491651                0.07187732                0.00131598                0.55520896
              10.00000000                2.00000000              100.00000000                1.00000000               -0.19725221                0.28887143                0.32999999                0.02376780               -0.02434660                0.53725804
               0.00000000                3.00000000              100.00000000                1.00000000               -0.12656765                0.06135925                0.06418506               -0.05661940                0.17142247               -0.13457424
               1.00000000                3.00000000              100.00000000                1.00000000                0.19256229                0.04732851                0.34234538                0.03171543                0.71669119                0.16093508
               2.00000000                3.00000000              100.00000000                1.00000000                0.40422889               -0.05099279                0.05237733               -0.43289074                0.85998991               -0.37744401
               3.00000000                3.00000000              100.00000000                1.00000000                0.27461989                0.27462315               -0.01062240               -0.75117776                0.05474244                0.05487121
               4.00000000                3.00000000              100.00000000                1.00000000                0.13799071                0.34545674                0.05187601               -0.42492500               -0.00964239               -0.00892633
               5.00000000                3.00000000              100.00000000                1.00000000               -0.00776945                0.33459025                0.09693247               -0.03089552               -0.09934137                0.03537402
               6.00000000                3.00000000              100.00000000                1.00000000               -0.05582772                0.29395232                0.13924987                0.10945723               -0.09911613                0.03938491
               7.00000000                3.00000000              100.00000000                1.00000000               -0.09372443                0.25771911                0.17272399                0.14097085               -0.08196552                0.02674390
               8.00000000                3.00000000              100.00000000                1.00000000               -0.13417469                0.23278953                0.19399145                0.11857631               -0.06605012                0.01112567
               9.00000000                3.00000000              100.00000000                1.00000000               -0.15628612                0.21234392                0.20059117                0.06522059               -0.04160764                0.00032349
              10.00000000                3.00000000              100.00000000                1.00000000               -0.15906236                0.20491218                0.19005442                0.02814632               -0.03785838               -0.00719233
               0.00000000                4.00000000              100.00000000                1.00000000               -0.10089333                0.05383026                0.07989438               -0.02490296                0.13411634               -0.02752323
               1.00000000                4.00000000              100.00000000                1.00000000                0.07212316                0.02872809                0.29081376                0.04640353                0.39500144                0.01703575
               2.00000000                4.00000000              100.00000000                1.00000000                0.20684332               -0.02337198                0.06981373               -0.11227376                0.46925057               -0.16481992
               3.00000000                4.00000000              100.00000000                1.00000000                0.34556354                0.13792275                0.05184302               -0.42486902               -0.00898034               -0.00957621
               4.00000000                4.00000000              100.00000000                1.00000000                0.39128097                0.39121186                0.14557528               -0.42054998               -0.00935860               -0.00930318
               5.00000000                4.00000000              100.00000000                1.00000000                0.16432678                0.43371359                0.17477398               -0.15341637               -0.13944083                0.02310951
               6.00000000                4.00000000              100.00000000                1.00000000                0.01213854                0.40137144                0.21337919                0.01348055               -0.14125158                0.02314671
               7.00000000                4.00000000              100.00000000                1.00000000               -0.08260206                0.35142137                0.24419990                0.08354744               -0.12302133                0.01367663
               8.00000000                4.00000000              100.00000000                1.00000000               -0.14937619                0.30788683                0.26052343                0.08764262               -0.10013023                0.00344137
               9.00000000                4.00000000              100.00000000                1.00000000               -0.19554820                0.27903123                0.26152086                0.05259011               -0.06054190               -0.00586398
              10.00000000                4.00000000              100.00000000                1.00000000               -0.21315348                0.26329751                0.25068837                0.01605551               -0.06925800               -0.01587385
               0.00000000                5.00000000              100.00000000                1.00000000               -0.08384698                0.02682938                0.09264156                0.01228336                0.11931488                0.01476273
               1.00000000                5.00000000              100.00000000                1.00000000                0.05837829                0.01682147                0.27845308                0.07656211                0.35822738               -0.04647014
               2.00000000                5.00000000              100.00000000                1.00000000                0.17554609                0.01150805                0.12919790                0.10068128                0.42251803               -0.00963827
               3.00000000                5.00000000              100.00000000                1.00000000                0.33466035               -0.00776975                0.09697117               -0.03070704                0.03537974               -0.09939990
               4.00000000                5.00000000              100.00000000                1.00000000                0.43370778                0.16431249                0.17474528               -0.15338614                0.02300019               -0.13945136
               5.00000000                5.00000000              100.00000000                1.00000000                0.24695643                0.24692488                0.20370416               -0.11947967               -0.10850175               -0.10849099
               6.00000000                5.00000000              100.00000000                1.00000000                0.07138141                0.26597808                0.23648144               -0.04820110               -0.13315006               -0.09230243
               7.00000000                5.00000000              100.00000000                1.00000000               -0.05326063                0.25360500                0.26101000                0.00658536               -0.12252827               -0.08304446
               8.00000000                5.00000000              100.00000000                1.00000000               -0.13820972                0.23426422                0.27289898                0.03280017               -0.09926701               -0.07558040
               9.00000000                5.00000000              100.00000000                1.00000000               -0.18548427                0.22214185                0.27097958                0.03184268               -0.05954097               -0.07043320
              10.00000000                5.00000000              100.00000000                1.00000000               -0.19850378                0.21383482                0.25783345                0.03834456               -0.06019624               -0.09014305
               0.00000000                6.00000000              100.00000000                1.00000000               -0.07030584               -0.00014923                0.09886704                0.02763481                0.12097624                0.02123960
               1.00000000                6.00000000              100.00000000                1.00000000                0.10784198               -0.01709169                0.28678553                0.09500920                0.39838539               -0.06132579
               2.00000000                6.00000000              100.00000000                1.00000000                0.21149026               -0.02359349                0.22635143                0.17952012                0.47348746                0.04337910
               3.00000000                6.00000000              100.00000000                1.00000000                0.29385738               -0.05575833                0.13927767                0.10949392                0.03940387               -0.09917509
               4.00000000                6.00000000              100.00000000                1.00000000                0.40128092                0.01216112                0.21333261                0.01349874                0.02307635               -0.14124307
               5.00000000                6.00000000              100.00000000                1.00000000                0.26602280                0.07139149                0.23656096               -0.04824466               -0.09232603               -0.13316838
               6.00000000                6.00000000              100.00000000                1.00000000                0.10577537                0.10576034                0.26691284               -0.04854619               -0.11723901               -0.11721827
               7.00000000                6.00000000              100.00000000                1.00000000               -0.02288570                0.11858956                0.28638873               -0.02463052               -0.11109514               -0.10342960
               8.00000000                6.00000000              100.00000000                1.00000000               -0.11103419                0.12092088                0.29280437                0.00058157               -0.08974946               -0.09184789
               9.00000000                6.00000000              100.00000000                1.00000000               -0.15655011                0.12097042                0.28753470                0.01446194               -0.05307156               -0.08504462
              10.00000000                6.00000000              100.00000000                1.00000000               -0.16814620                0.12747949                0.26968482                0.03217616               -0.04684837               -0.10424632
               0.00000000                7.00000000              100.00000000                1.00000000               -0.05837950               -0.02796724                0.10347894                0.02814056                0.12339079                0.02286361
               1.00000000                7.00000000              100.00000000                1.00000000                0.16802579               -0.05433797                0.29876462                0.09774320                0.44251063               -0.05860194
               2.00000000                7.00000000              100.00000000                1.00000000                0.26449482               -0.08029250                0.29072338                0.18105347                0.52440011                0.03849470
               3.00000000                7.00000000              100.00000000                1.00000000                0.25766983               -0.09366230                0.17271176                0.14086202                0.02671632               -0.08192809
               4.00000000                7.00000000              100.00000000                1.00000000                0.35137246               -0.08258171                0.24415771                0.08353389                0.01366718               -0.12297436
               5.00000000                7.00000000              100.00000000                1.00000000                0.25362134               -0.05324318                0.26103411                0.00657402               -0.08306859               -0.12254098
               6.00000000                7.00000000              100.00000000                1.00000000                0.11862032               -0.02287338                0.28645109               -0.02465353               -0.10345307               -0.11110939
               7.00000000                7.00000000              100.00000000                1.00000000                0.00031216                0.00031928                0.30180109               -0.02428230               -0.09802589               -0.09801977
               8.00000000                7.00000000              100.00000000                1.00000000               -0.08347944                0.01485043                0.30544360               -0.01045023               -0.07780112               -0.08657360
               9.00000000                7.00000000              100.00000000                1.00000000               -0.12634984                0.02436545                0.29986219                0.00257110               -0.04474721               -0.07964937
              10.00000000                7.00000000              100.00000000                1.00000000               -0.13707825                0.03993802                0.28140080                0.02129286               -0.03401734               -0.09091125
               0.00000000                8.00000000              100.00000000                1.00000000               -0.04995187               -0.04560970                0.10618684                0.02199503                0.12502507                0.02295826
               1.00000000                8.00000000              100.00000000                1.00000000                0.21285753               -0.08500793                0.30842865                0.08302435                0.46916992               -0.04479911
               2.00000000                8.00000000              100.00000000                1.00000000                0.30732630               -0.13556692                0.32310426                0.14210024                0.55075555                0.01673368
               3.00000000                8.00000000              100.00000000                1.00000000                0.23288259               -0.13415773                0.19403390                0.11848282                0.01117384               -0.06602532
               4.00000000                8.00000000              100.00000000                1.00000000                0.30792090               -0.14938145                0.26056490                0.08754544                0.00339752               -0.10010344
               5.00000000                8.00000000              100.00000000                1.00000000                0.23429809               -0.13821880                0.27293467                0.03280714               -0.07559315               -0.09927549
               6.00000000                8.00000000              100.00000000                1.00000000                0.12092954               -0.11103419                0.29279862                0.00056054               -0.09187242               -0.08976555
               7.00000000                8.00000000              100.00000000                1.00000000                0.01484991               -0.08347818                0.30541710               -0.01044801               -0.08656761               -0.07780537
               8.00000000                8.00000000              100.00000000                1.00000000               -0.06249417               -0.06249417                0.30875970               -0.00934176               -0.06722846               -0.06724156
               9.00000000                8.00000000              100.00000000                1.00000000               -0.10199059               -0.04820005                0.30572483               -0.00344595               -0.03726097               -0.06044558
              10.00000000                8.00000000              100.00000000                1.00000000               -0.11161819               -0.03077254                0.28944234                0.01015753               -0.02369240               -0.06315073
               0.00000000                9.00000000              100.00000000                1.00000000               -0.04643457               -0.04103192                0.10310792                0.01224570                0.12730106                0.01972537
               1.00000000                9.00000000              100.00000000                1.00000000                0.23247606               -0.11067510                0.31648459                0.06028389                0.47331758               -0.02570185
               2.00000000                9.00000000              100.00000000                1.00000000                0.32438124               -0.17945733                0.33475489                0.07192173                0.55493585                0.00135196
               3.00000000                9.00000000              100.00000000                1.00000000                0.21240243               -0.15629970                0.20060841                0.06515973                0.00037042               -0.04164186
               4.00000000                9.00000000              100.00000000                1.00000000                0.27910250               -0.19556769                0.26155731                0.05253010               -0.00590866               -0.06056190
               5.00000000                9.00000000              100.00000000                1.00000000                0.22220293               -0.18550319                0.27102738                0.03181879               -0.07042588               -0.05956056
               6.00000000                9.00000000              100.00000000                1.00000000                0.12097445               -0.15655723                0.28754281                0.01444411               -0.08506781               -0.05304682
               7.00000000                9.00000000              100.00000000                1.00000000                0.02437118               -0.12634748                0.29983203                0.00257306               -0.07964442               -0.04473382
               8.00000000                9.00000000              100.00000000                1.00000000               -0.04820333               -0.10199024                0.30571047               -0.00344982               -0.06043647               -0.03725662
               9.00000000                9.00000000              100.00000000                1.00000000               -0.08640968               -0.08641760                0.30713460               -0.00421649               -0.03233206               -0.03231855
              10.00000000                9.00000000              100.00000000                1.00000000               -0.09598931               -0.07276217                0.29503174                0.00253763               -0.01875072               -0.03019705
               0.00000000               10.00000000              100.00000000                1.00000000               -0.05040528               -0.03235832                0.09764674               -0.05052603                0.14877676                0.02258025
               1.00000000               10.00000000              100.00000000                1.00000000                0.19498953               -0.12244663                0.32027039                0.00142106                0.47964947               -0.02354535
               2.00000000               10.00000000              100.00000000                1.00000000                0.28877665               -0.19722913                0.32997393                0.02381761                0.53716061               -0.02429772
               3.00000000               10.00000000              100.00000000                1.00000000                0.20494702               -0.15907791                0.19005098                0.02809899               -0.00714572               -0.03790717
               4.00000000               10.00000000              100.00000000                1.00000000                0.26334615               -0.21317671                0.25067332                0.01604048               -0.01586833               -0.06929230
               5.00000000               10.00000000              100.00000000                1.00000000                0.21387314               -0.19852968                0.25784752                0.03830137               -0.09013092               -0.06022134
               6.00000000               10.00000000              100.00000000                1.00000000                0.12750154               -0.16816174                0.26974014                0.03217362               -0.10427305               -0.04682645
               7.00000000               10.00000000              100.00000000                1.00000000                0.03995077               -0.13707395                0.28138882                0.02130279               -0.09091201               -0.03399730
               8.00000000               10.00000000              100.00000000                1.00000000               -0.03077872               -0.11161681                0.28944337                0.01014565               -0.06313236               -0.02367864
               9.00000000               10.00000000              100.00000000                1.00000000               -0.07276361               -0.09600294                0.29507832                0.00253904               -0.03020254               -0.01873468
              10.00000000               10.00000000              100.00000000                1.00000000               -0.08529226               -0.08528780                0.28673832                0.00437788               -0.01703512               -0.01700206
         1          2         13         12        122        123        134        133  
         2          3         14         13        123        124        135        134  
         3          4         15         14        124        125        136        135  
         4          5         16         15        125        126        137        136  
         5          6         17         16        126        127        138        137  
         6          7         18         17        127        128        139        138  
         7          8         19         18        128        129        140        139  
         8          9         20         19        129        130        141        140  
         9         10         21         20        130        131        142        141  
        10         11         22         21        131        132        143        142  
        12         13         24         23        133        134        145        144  
        13         14         25         24        134        135        146        145  
        14         15         26         25        135        136        147        146  
        15         16         27         26        136        137        148        147  
        16         17         28         27        137        138        149        148  
        17         18         29         28        138        139        150        149  
        18         19         30         29        139        140        151        150  
        19         20         31         30        140        141        152        151  
        20         21         32         31        141        142        153        152  
        21         22         33         32        142        143        154        153  
        23         24         35         34        144        145        156        155  
        24         25         36         35        145        146        157        156  
        25         26         37         36        146        147        158        157  
        26         27         38         37        147        148        159        158  
        27         28         39         38        148        149        160        159  
        28         29         40         39        149        150        161        160  
        29         30         41         40        150        151        162        161  
        30         31         42         41        151        152        163        162  
        31         32         43         42        152        153        164        163  
        32         33         44         43        153        154        165        164  
        34         35         46         45        155        156        167        166  
        35         36         47         46        156        157        168        167  
        36         37         48         47        157        158        169        168  
        37         38         49         48        158        159        170        169  
        38         39         50         49        159        160        171        170  
        39         40         51         50        160        161        172        171  
        40         41         52         51        161        162        173        172  
        41         42         53         52        162        163        174        173  
        42         43         54         53        163        164        175        174  
        43         44         55         54        164        165        176        175  
        45         46         57         56        166        167        178        177  
        46         47         58         57        167        168        179        178  
        47         48         59         58        168        169        180        179  
        48         49         60         59        169        170        181        180  
        49         50         61         60        170        171        182        181  
        50         51         62         61        171        172        183        182  
        51         52         63         62        172        173        184        183  
        52         53         64         63        173        174        185        184  
        53         54         65         64        174        175        186        185  
        54         55         66         65        175        176        187        186  
        56         57         68         67        177        178        189        188  
        57         58         69         68        178        179        190        189  
        58         59         70         69        179        180        191        190  
        59         60         71         70        180        181        192        191  
        60         61         72         71        181        182        193        192  
        61         62         73         72        182        183        194        193  
        62         63         74         73        183        184        195        194  
        63         64         75         74        184        185        196        195  
        64         65         76         75        185        186        197        196  
        65         66         77         76        186        187        198        197  
        67         68         79         78        188        189        200        199  
        68         69         80         79        189        190        201        200  
        69         70         81         80        190        191        202        201  
        70         71         82         81        191        192        203        202  
        71         72         83         82        192        193        204        203  
        72         73         84         83        193        194        205        204  
        73         74         85         84        194        195        206        205  
        74         75         86         85        195        196        207        206  
        75         76         87         86        196        197        208        207  
        76         77         88         87        197        198        209        208  
        78         79         90         89        199        200        211        210  
        79         80         91         90        200        201        212        211  
        80         81         92         91        201        202        213        212  
        81         82         93         92        202        203        214        213  
        82         83         94         93        203        204        215        214  
        83         84         95         94        204        205        216        215  
        84         85         96         95        205        206        217        216  
        85         86         97         96        206        207        218        217  
        86         87         98         97        207        208        219        218  
        87         88         99         98        208        209        220        219  
        89         90        101        100        210        211        222        221  
        90         91        102        101        211        212        223        222  
        91         92        103        102        212        213        224        223  
        92         93        104        103        213        214        225        224  
        93         94        105        104        214        215        226        225  
        94         95        106        105        215        216        227        226  
        95         96        107        106        216        217        228        227  
        96         97        108        107        217        218        229        228  
        97         98        109        108        218        219        230        229  
        98         99        110        109        219        220        231        230  
       100        101        112        111        221        222        233        232  
       101        102        113        112        222        223        234        233  
       102        103        114        113        223        224        235        234  
       103        104        115        114        224        225        236        235  
       104        105        116        115        225        226        237        236  
       105        106        117        116        226        227        238        237  
       106        107        118        117        227        228        239        238  
       107        108        119        118        228        229        240        239  
       108        109        120        119        229        230        241        240  
       109        110        121        120        230        231        242        241  
       122        123        134        133        243        244        255        254  
       123        124        135        134        244        245        256        255  
       124        125        136        135        245        246        257        256  
       125        126        137        136        246        247        258        257  
       126        127        138        137        247        248        259        258  
       127        128        139        138        248        249        260        259  
       128        129        140        139        249        250        261        260  
       129        130        141        140        250        251        262        261  
       130        131        142        141        251        252        263        262  
       131        132        143        142        252        253        264        263  
       133        134        145        144        254        255        266        265  
       134        135        146        145        255        256        267        266  
       135        136        147        146        256        257        268        267  
       136        137        148        147        257        258        269        268  
       137        138        149        148        258        259        270        269  
       138        139        150        149        259        260        271        270  
       139        140        151        150        260        261        272        271  
       140        141        152        151        261        262        273        272  
       141        142        153        152        262        263        274        273  
       142        143        154        153        263        264        275        274  
       144        145        156        155        265        266        277        276  
       145        146        157        156        266        267        278        277  
       146        147        158        157        267        268        279        278  
       147        148        159        158        268        269        280        279  
       148        149        160        159        269        270        281        280  
       149        150        161        160        270        271        282        281  
       150        151        162        161        271        272        283        282  
       151        152        163        162        272        273        284        283  
       152        153        164        163        273        274        285        284  
       153        154        165        164        274        275        286        285  
       155        156        167        166        276        277        288        287  
       156        157        168        167        277        278        289        288  
       157        158        169        168        278        279        290        289  
       158        159        170        169        279        280        291        290  
       159        160        171        170        280        281        292        291  
       160        161        172        171        281        282        293        292  
       161        162        173        172        282        283        294        293  
       162        163        174        173        283        284        295        294  
       163        164        175        174        284        285        296        295  
       164        165        176        175        285        286        297        296  
       166        167        178        177        287        288        299        298  
       167        168        179        178        288        289        300        299  
       168        169        180        179        289        290        301        300  
       169        170        181        180        290        291        302        301  
       170        171        182        181        291        292        303        302  
       171        172        183        182        292        293        304        303  
       172        173        184        183        293        294        305        304  
       173        174        185        184        294        295        306        305  
       174        175        186        185        295        296        307        306  
       175        176        187        186        296        297        308        307  
       177        178        189        188        298        299        310        309  
       178        179        190        189        299        300        311        310  
       179        180        191        190        300        301        312        311  
       180        181        192        191        301        302        313        312  
       181        182        193        192        302        303        314        313  
       182        183        194        193        303        304        315        314  
       183        184        195        194        304        305        316        315  
       184        185        196        195        305        306        317        316  
       185        186        197        196        306        307        318        317  
       186        187        198        197        307        308        319        318  
       188        189        200        199        309        310        321        320  
       189        190        201        200        310        311        322        321  
       190        191        202        201        311        312        323        322  
       191        192        203        202        312        313        324        323  
       192        193        204        203        313        314        325        324  
       193        194        205        204        314        315        326        325  
       194        195        206        205        315        316        327        326  
       195        196        207        206        316        317        328        327  
       196        197        208        207        317        318        329        328  
       197        198        209        208        318        319        330        329  
       199        200        211        210        320        321        332        331  
       200        201        212        211        321        322        333        332  
       201        202        213        212        322        323        334        333  
       202        203        214        213        323        324        335        334  
       203        204        215        214        324        325        336        335  
       204        205        216        215        325        326        337        336  
       205        206        217        216        326        327        338        337  
       206        207        218        217        327        328        339        338  
       207        208        219        218        328        329        340        339  
       208        209        220        219        329        330        341        340  
       210        211        222        221        331        332        343        342  
       211        212        223        222        332        333        344        343  
       212        213        224        223        333        334        345        344  
       213        214        225        224        334        335        346        345  
       214        215        226        225        335        336        347        346  
       215        216        227        226        336        337        348        347  
       216        217        228        227        337        338        349        348  
       217        218        229        228        338        339        350        349  
       218        219        230        229        339        340        351        350  
       219        220        231        230        340        341        352        351  
       221        222        233        232        342        343        354        353  
       222        223        234        233        343        344        355        354  
       223        224        235        234        344        345        356        355  
       224        225        236        235        345        346        357        356  
       225        226        237        236        346        347        358        357  
       226        227        238        237        347        348        359        358  
       227        228        239        238        348        349        360        359  
       228        229        240        239        349        350        361        360  
       229        230        241        240        350        351        362        361  
       230        231        242        241        351        352        363        362  
       243        244        255        254        364        365        376        375  
       244        245        256        255        365        366        377        376  
       245        246        257        256        366        367        378        377  
       246        247        258        257        367        368        379        378  
       247        248        259        258        368        369        380        379  
       248        249        260        259        369        370        381        380  
       249        250        261        260        370        371        382        381  
       250        251        262        261        371        372        383        382  
       251        252        263        262        372        373        384        383  
       252        253        264        263        373        374        385        384  
       254        255        266        265        375        376        387        386  
       255        256        267        266        376        377        388        387  
       256        257        268        267        377        378        389        388  
       257        258        269        268        378        379        390        389  
       258        259        270        269        379        380        391        390  
       259        260        271        270        380        381        392        391  
       260        261        272        271        381        382        393        392  
       261        262        273        272        382        383        394        393  
       262        263        274        273        383        384        395        394  
       263        264        275        274        384        385        396        395  
       265        266        277        276        386        387        398        397  
       266        267        278        277        387        388        399        398  
       267        268        279        278        388        389        400        399  
       268        269        280        279        389        390        401        400  
       269        270        281        280        390        391        402        401  
       270        271        282        281        391        392        403        402  
       271        272        283        282        392        393        404        403  
       272        273        284        283        393        394        405        404  
       273        274        285        284        394        395        406        405  
       274        275        286        285        395        396        407        406  
       276        277        288        287        397        398        409        408  
       277        278        289        288        398        399        410        409  
       278        279        290        289        399        400        411        410  
       279        280        291        290        400        401        412        411  
       280        281        292        291        401        402        413        412  
       281        282        293        292        402        403        414        413  
       282        283        294        293        403        404        415        414  
       283        284        295        294        404        405        416        415  
       284        285        296        295        405        406        417        416  
       285        286        297        296        406        407        418        417  
       287        288        299        298        408        409        420        419  
       288        289        300        299        409        410        421        420  
       289        290        301        300        410        411        422        421  
       290        291        302        301        411        412        423        422  
       291        292        303        302        412        413        424        423  
       292        293        304        303        413        414        425        424  
       293        294        305        304        414        415        426        425  
       294        295        306        305        415        416        427        426  
       295        296        307        306        416        417        428        427  
       296        297        308        307        417        418        429        428  
       298        299        310        309        419        420        431        430  
       299        300        311        310        420        421        432        431  
       300        301        312        311        421        422        433        432  
       301        302        313        312        422        423        434        433  
       302        303        314        313        423        424        435        434  
       303        304        315        314        424        425        436        435  
       304        305        316        315        425        426        437        436  
       305        306        317        316        426        427        438        437  
       306        307        318        317        427        428        439        438  
       307        308        319        318        428        429        440        439  
       309        310        321        320        430        431        442        441  
       310        311        322        321        431        432        443        442  
       311        312        323        322        432        433        444        443  
       312        313        324        323        433        434        445        444  
       313        314        325        324        434        435        446        445  
       314        315        326        325        435        436        447        446  
       315        316        327        326        436        437        448        447  
       316        317        328        327        437        438        449        448  
       317        318        329        328        438        439        450        449  
       318        319        330        329        439        440        451        450  
       320        321        332        331        441        442        453        452  
       321        322        333        332        442        443        454        453  
       322        323        334        333        443        444        455        454  
       323        324        335        334        444        445        456        455  
       324        325        336        335        445        446        457        456  
       325        326        337        336        446        447        458        457  
       326        327        338        337        447        448        459        458  
       327        328        339        338        448        449        460        459  
       328        329        340        339        449        450        461        460  
       329        330        341        340        450        451        462        461  
       331        332        343        342        452        453        464        463  
       332        333        344        343        453        454        465        464  
       333        334        345        344        454        455        466        465  
       334        335        346        345        455        456        467        466  
       335        336        347        346        456        457        468        467  
       336        337        348        347        457        458        469        468  
       337        338        349        348        458        459        470        469  
       338        339        350        349        459        460        471        470  
       339        340        351        350        460        461        472        471  
       340        341        352        351        461        462        473        472  
       342        343        354        353        463        464        475        474  
       343        344        355        354        464        465        476        475  
       344        345        356        355        465        466        477        476  
       345        346        357        356        466        467        478        477  
       346        347        358        357        467        468        479        478  
       347        348        359        358        468        469        480        479  
       348        349        360        359        469        470        481        480  
       349        350        361        360        470        471        482        481  
       350        351        362        361        471        472        483        482  
       351        352        363        362        472        473        484        483  
       364        365        376        375        485        486        497        496  
       365        366        377        376        486        487        498        497  
       366        367        378        377        487        488        499        498  
       367        368        379        378        488        489        500        499  
       368        369        380        379        489        490        501        500  
       369        370        381        380        490        491        502        501  
       370        371        382        381        491        492        503        502  
       371        372        383        382        492        493        504        503  
       372        373        384        383        493        494        505        504  
       373        374        385        384        494        495        506        505  
       375        376        387        386        496        497        508        507  
       376        377        388        387        497        498        509        508  
       377        378        389        388        498        499        510        509  
       378        379        390        389        499        500        511        510  
       379        380        391        390        500        501        512        511  
       380        381        392        391        501        502        513        512  
       381        382        393        392        502        503        514        513  
       382        383        394        393        503        504        515        514  
       383        384        395        394        504        505        516        515  
       384        385        396        395        505        506        517        516  
       386        387        398        397        507        508        519        518  
       387        388        399        398        508        509        520        519  
       388        389        400        399        509        510        521        520  
       389        390        401        400        510        511        522        521  
       390        391        402        401        511        512        523        522  
       391        392        403        402        512        513        524        523  
       392        393        404        403        513        514        525        524  
       393        394        405        404        514        515        526        525  
       394        395        406        405        515        516        527        526  
       395        396        407        406        516        517        528        527  
       397        398        409        408        518        519        530        529  
       398        399        410        409        519        520        531        530  
       399        400        411        410        520        521        532        531  
       400        401        412        411        521        522        533        532  
       401        402        413        412        522        523        534        533  
       402        403        414        413        523        524        535        534  
       403        404        415        414        524        525        536        535  
       404        405        416        415        525        526        537        536  
       405        406        417        416        526        527        538        537  
       406        407        418        417        527        528        539        538  
       408        409        420        419        529        530        541        540  
       409        410        421        420        530        531        542        541  
       410        411        422        421        531        532        543        542  
       411        412        423        422        532        533        544        543  
       412        413        424        423        533        534        545        544  
       413        414        425        424        534        535        546        545  
       414        415        426        425        535        536        547        546  
       415        416        427        426        536        537        548        547  
       416        417        428        427        537        538        549        548  
       417        418        429        428        538        539        550        549  
       419        420        431        430        540        541        552        551  
       420        421        432        431        541        542        553        552  
       421        422        433        432        542        543        554        553  
       422        423        434        433        543        544        555        554  
       423        424        435        434        544        545        556        555  
       424        425        436        435        545        546        557        556  
       425        426        437        436        546        547        558        557  
       426        427        438        437        547        548        559        558  
       427        428        439        438        548        549        560        559  
       428        429        440        439        549        550        561        560  
       430        431        442        441        551        552        563        562  
       431        432        443        442        552        553        564        563  
       432        433        444        443        553        554        565        564  
       433        434        445        444        554        555        566        565  
       434        435        446        445        555        556        567        566  
       435        436        447        446        556        557        568        567  
       436        437        448        447        557        558        569        568  
       437        438        449        448        558        559        570        569  
       438        439        450        449        559        560        571        570  
       439        440        451        450        560        561        572        571  
       441        442        453        452        562        563        574        573  
       442        443        454        453        563        564        575        574  
       443        444        455        454        564        565        576        575  
       444        445        456        455        565        566        577        576  
       445        446        457        456        566        567        578        577  
       446        447        458        457        567        568        579        578  
       447        448        459        458        568        569        580        579  
       448        449        460        459        569        570        581        580  
       449        450        461        460        570        571        582        581  
       450        451        462        461        571        572        583        582  
       452        453        464        463        573        574        585        584  
       453        454        465        464        574        575        586        585  
       454        455        466        465        575        576        587        586  
       455        456        467        466        576        577        588        587  
       456        457        468        467        577        578        589        588  
       457        458        469        468        578        579        590        589  
       458        459        470        469        579        580        591        590  
       459        460        471        470        580        581        592        591  
       460        461        472        471        581        582        593        592  
       461        462        473        472        582        583        594        593  
       463        464        475        474        584        585        596        595  
       464        465        476        475        585        586        597        596  
       465        466        477        476        586        587        598        597  
       466        467        478        477        587        588        599        598  
       467        468        479        478        588        589        600        599  
       468        469        480        479        589        590        601        600  
       469        470        481        480        590        591        602        601  
       470        471        482        481        591        592        603        602  
       471        472        483        482        592        593        604        603  
       472        473        484        483        593        594        605        604  
       485        486        497        496        606        607        618        617  
       486        487        498        497        607        608        619        618  
       487        488        499        498        608        609        620        619  
       488        489        500        499        609        610        621        620  
       489        490        501        500        610        611        622        621  
       490        491        502        501        611        612        623        622  
       491        492        503        502        612        613        624        623  
       492        493        504        503        613        614        625        624  
       493        494        505        504        614        615        626        625  
       494        495        506        505        615        616        627        626  
       496        497        508        507        617        618        629        628  
       497        498        509        508        618        619        630        629  
       498        499        510        509        619        620        631        630  
       499        500        511        510        620        621        632        631  
       500        501        512        511        621        622        633        632  
       501        502        513        512        622        623        634        633  
       502        503        514        513        623        624        635        634  
       503        504        515        514        624        625        636        635  
       504        505        516        515        625        626        637        636  
       505        506        517        516        626        627        638        637  
       507        508        519        518        628        629        640        639  
       508        509        520        519        629        630        641        640  
       509        510        521        520        630        631        642        641  
       510        511        522        521        631        632        643        642  
       511        512        523        522        632        633        644        643  
       512        513        524        523        633        634        645        644  
       513        514        525        524        634        635        646        645  
       514        515        526        525        635        636        647        646  
       515        516        527        526        636        637        648        647  
       516        517        528        527        637        638        649        648  
       518        519        530        529        639        640        651        650  
       519        520        531        530        640        641        652        651  
       520        521        532        531        641        642        653        652  
       521        522        533        532        642        643        654        653  
       522        523        534        533        643        644        655        654  
       523        524        535        534        644        645        656        655  
       524        525        536        535        645        646        657        656  
       525        526        537        536        646        647        658        657  
       526        527        538        537        647        648        659        658  
       527        528        539        538        648        649        660        659  
       529        530        541        540        650        651        662        661  
       530        531        542        541        651        652        663        662  
       531        532        543        542        652        653        664        663  
       532        533        544        543        653        654        665        664  
       533        534        545        544        654        655        666        665  
       534        535        546        545        655        656        667        666  
       535        536        547        546        656        657        668        667  
       536        537        548        547        657        658        669        668  
       537        538        549        548        658        659        670        669  
       538        539        550        549        659        660        671        670  
       540        541        552        551        661        662        673        672  
       541        542        553        552        662        663        674        673  
       542        543        554        553        663        664        675        674  
       543        544        555        554        664        665        676        675  
       544        545        556        555        665        666        677        676  
       545        546        557        556        666        667        678        677  
       546        547        558        557        667        668        679        678  
       547        548        559        558        668        669        680        679  
       548        549        560        559        669        670        681        680  
       549        550        561        560        670        671        682        681  
       551        552        563        562        672        673        684        683  
       552        553        564        563        673        674        685        684  
       553        554        565        564        674        675        686        685  
       554        555        566        565        675        676        687        686  
       555        556        567        566        676        677        688        687  
       556        557        568        567        677        678        689        688  
       557        558        569        568        678        679        690        689  
       558        559        570        569        679        680        691        690  
       559        560        571        570        680        681        692        691  
       560        561        572        571        681        682        693        692  
       562        563        574        573        683        684        695        694  
       563        564        575        574        684        685        696        695  
       564        565        576        575        685        686        697        696  
       565        566        577        576        686        687        698        697  
       566        567        578        577        687        688        699        698  
       567        568        579        578        688        689        700        699  
       568        569        580        579        689        690        701        700  
       569        570        581        580        690        691        702        701  
       570        571        582        581        691        692        703        702  
       571        572        583        582        692        693        704        703  
       573        574        585        584        694        695        706        705  
       574        575        586        585        695        696        707        706  
       575        576        587        586        696        697        708        707  
       576        577        588        587        697        698        709        708  
       577        578        589        588        698        699        710        709  
       578        579        590        589        699        700        711        710  
       579        580        591        590        700        701        712        711  
       580        581        592        591        701        702        713        712  
       581        582        593        592        702        703        714        713  
       582        583        594        593        703        704        715        714  
       584        585        596        595        705        706        717        716  
       585        586        597        596        706        707        718        717  
       586        587        598        597        707        708        719        718  
       587        588        599        598        708        709        720        719  
       588        589        600        599        709        710        721        720  
       589        590        601        600        710        711        722        721  
       590        591        602        601        711        712        723        722  
       591        592        603        602        712        713        724        723  
       592        593        604        603        713        714        725        724  
       593        594        605        604        714        715        726        725  
       606        607        618        617        727        728        739        738  
       607        608        619        618        728        729        740        739  
       608        609        620        619        729        730        741        740  
       609        610        621        620        730        731        742        741  
       610        611        622        621        731        732        743        742  
       611        612        623        622        732        733        744        743  
       612        613        624        623        733        734        745        744  
       613        614        625        624        734        735        746        745  
       614        615        626        625        735        736        747        746  
       615        616        627        626        736        737        748        747  
       617        618        629        628        738        739        750        749  
       618        619        630        629        739        740        751        750  
       619        620        631        630        740        741        752        751  
       620        621        632        631        741        742        753        752  
       621        622        633        632        742        743        754        753  
       622        623        634        633        743        744        755        754  
       623        624        635        634        744        745        756        755  
       624        625        636        635        745        746        757        756  
       625        626        637        636        746        747        758        757  
       626        627        638        637        747        748        759        758  
       628        629        640        639        749        750        761        760  
       629        630        641        640        750        751        762        761  
       630        631        642        641        751        752        763        762  
       631        632        643        642        752        753        764        763  
       632        633        644        643        753        754        765        764  
       633        634        645        644        754        755        766        765  
       634        635        646        645        755        756        767        766  
       635        636        647        646        756        757        768        767  
       636        637        648        647        757        758        769        768  
       637        638        649        648        758        759        770        769  
       639        640        651        650        760        761        772        771  
       640        641        652        651        761        762        773        772  
       641        642        653        652        762        763        774        773  
       642        643        654        653        763        764        775        774  
       643        644        655        654        764        765        776        775  
       644        645        656        655        765        766        777        776  
       645        646        657        656        766        767        778        777  
       646        647        658        657        767        768        779        778  
       647        648        659        658        768        769        780        779  
       648        649        660        659        769        770        781        780  
       650        651        662        661        771        772        783        782  
       651        652        663        662        772        773        784        783  
       652        653        664        663        773        774        785        784  
       653        654        665        664        774        775        786        785  
       654        655        666        665        775        776        787        786  
       655        656        667        666        776        777        788        787  
       656        657        668        667        777        778        789        788  
       657        658        669        668        778        779        790        789  
       658        659        670        669        779        780        791        790  
       659        660        671        670        780        781        792        791  
       661        662        673        672        782        783        794        793  
       662        663        674        673        783        784        795        794  
       663        664        675        674        784        785        796        795  
       664        665        676        675        785        786        797        796  
       665        666        677        676        786        787        798        797  
       666        667        678        677        787        788        799        798  
       667        668        679        678        788        789        800        799  
       668        669        680        679        789        790        801        800  
       669        670        681        680        790        791        802        801  
       670        671        682        681        791        792        803        802  
       672        673        684        683        793        794        805        804  
       673        674        685        684        794        795        806        805  
       674        675        686        685        795        796        807        806  
       675        676        687        686        796        797        808        807  
       676        677        688        687        797        798        809        808  
       677        678        689        688        798        799        810        809  
       678        679        690        689        799        800        811        810  
       679        680        691        690        800        801        812        811  
       680        681        692        691        801        802        813        812  
       681        682        693        692        802        803        814        813  
       683        684        695        694        804        805        816        815  
       684        685        696        695        805        806        817        816  
       685        686        697        696        806        807        818        817  
       686        687        698        697        807        808        819        818  
       687        688        699        698        808        809        820        819  
       688        689        700        699        809        810        821        820  
       689        690        701        700        810        811        822        821  
       690        691        702        701        811        812        823        822  
       691        692        703        702        812        813        824        823  
       692        693        704        703        813        814        825        824  
       694        695        706        705        815        816        827        826  
       695        696        707        706        816        817        828        827  
       696        697        708        707        817        818        829        828  
       697        698        709        708        818        819        830        829  
       698        699        710        709        819        820        831        830  
       699        700        711        710        820        821        832        831  
       700        701        712        711        821        822        833        832  
       701        702        713        712        822        823        834        833  
       702        703        714        713        823        824        835        834  
       703        704        715        714        824        825        836        835  
       705        706        717        716        826        827        838        837  
       706        707        718        717        827        828        839        838  
       707        708        719        718        828        829        840        839  
       708        709        720        719        829        830        841        840  
       709        710        721        720        830        831        842        841  
       710        711        722        721        831        832        843        842  
       711        712        723        722        832        833        844        843  
       712        713        724        723        833        834        845        844  
       713        714        725        724        834        835        846        845  
       714        715        726        725        835        836        847        846  
       727        728        739        738        848        849        860        859  
       728        729        740        739        849        850        861        860  
       729        730        741        740        850        851        862        861  
       730        731        742        741        851        852        863        862  
       731        732        743        742        852        853        864        863  
       732        733        744        743        853        854        865        864  
       733        734        745        744        854        855        866        865  
       734        735        746        745        855        856        867        866  
       735        736        747        746        856        857        868        867  
       736        737        748        747        857        858        869        868  
       738        739        750        749        859        860        871        870  
       739        740        751        750        860        861        872        871  
       740        741        752        751        861        862        873        872  
       741        742        753        752        862        863        874        873  
       742        743        754        753        863        864        875        874  
       743        744        755        754        864        865        876        875  
       744        745        756        755        865        866        877        876  
       745        746        757        756        866        867        878        877  
       746        747        758        757        867        868        879        878  
       747        748        759        758        868        869        880        879  
       749        750        761        760        870        871        882        881  
       750        751        762        761        871        872        883        882  
       751        752        763        762        872        873        884        883  
       752        753        764        763        873        874        885        884  
       753        754        765        764        874        875        886        885  
       754        755        766        765        875        876        887        886  
       755        756        767        766        876        877        888        887  
       756        757        768        767        877        878        889        888  
       757        758        769        768        878        879        890        889  
       758        759        770        769        879        880        891        890  
       760        761        772        771        881        882        893        892  
       761        762        773        772        882        883        894        893  
       762        763        774        773        883        884        895        894  
       763        764        775        774        884        885        896        895  
       764        765        776        775        885        886        897        896  
       765        766        777        776        886        887        898        897  
       766        767        778        777        887        888        899        898  
       767        768        779        778        888        889        900        899  
       768        769        780        779        889        890        901        900  
       769        770        781        780        890        891        902        901  
       771        772        783        782        892        893        904        903  
       772        773        784        783        893        894        905        904  
       773        774        785        784        894        895        906        905  
       774        775        786        785        895        896        907        906  
       775        776        787        786        896        897        908        907  
       776        777        788        787        897        898        909        908  
       777        778        789        788        898        899        910        909  
       778        779        790        789        899        900        911        910  
       779        780        791        790        900        901        912        911  
       780        781        792        791        901        902        913        912  
       782        783        794        793        903        904        915        914  
       783        784        795        794        904        905        916        915  
       784        785        796        795        905        906        917        916  
       785        786        797        796        906        907        918        917  
       786        787        798        797        907        908        919        918  
       787        788        799        798        908        909        920        919  
       788        789        800        799        909        910        921        920  
       789        790        801        800        910        911        922        921  
       790        791        802        801        911        912        923        922  
       791        792        803        802        912        913        924        923  
       793        794        805        804        914        915        926        925  
       794        795        806        805        915        916        927        926  
       795        796        807        806        916        917        928        927  
       796        797        808        807        917        918        929        928  
       797        798        809        808        918        919        930        929  
       798        799        810        809        919        920        931        930  
       799        800        811        810        920        921        932        931  
       800        801        812        811        921        922        933        932  
       801        802        813        812        922        923        934        933  
       802        803        814        813        923        924        935        934  
       804        805        816        815        925        926        937        936  
       805        806        817        816        926        927        938        937  
       806        807        818        817        927        928        939        938  
       807        808        819        818        928        929        940        939  
       808        809        820        819        929        930        941        940  
       809        810        821        820        930        931        942        941  
       810        811        822        821        931        932        943        942  
       811        812        823        822        932        933        944        943  
       812        813        824        823        933        934        945        944  
       813        814        825        824        934        935        946        945  
       815        816        827        826        936        937        948        947  
       816        817        828        827        937        938        949        948  
       817        818        829        828        938        939        950        949  
       818        819        830        829        939        940        951        950  
       819        820        831        830        940        941        952        951  
       820        821        832        831        941        942        953        952  
       821        822        833        832        942        943        954        953  
       822        823        834        833        943        944        955        954  
       823        824        835        834        944        945        956        955  
       824        825        836        835        945        946        957        956  
       826        827        838        837        947        948        959        958  
       827        828        839        838        948        949        960        959  
       828        829        840        839        949        950        961        960  
       829        830        841        840        950        951        962        961  
       830        831        842        841        951        952        963        962  
       831        832        843        842        952        953        964        963  
       832        833        844        843        953        954        965        964  
       833        834        845        844        954        955        966        965  
       834        835        846        845        955        956        967        966  
       835        836        847        846        956        957        968        967  
       848        849        860        859        969        970        981        980  
       849        850        861        860        970        971        982        981  
       850        851        862        861        971        972        983        982  
       851        852        863        862        972        973        984        983  
       852        853        864        863        973        974        985        984  
       853        854        865        864        974        975        986        985  
       854        855        866        865        975        976        987        986  
       855        856        867        866        976        977        988        987  
       856        857        868        867        977        978        989        988  
       857        858        869        868        978        979        990        989  
       859        860        871        870        980        981        992        991  
       860        861        872        871        981        982        993        992  
       861        862        873        872        982        983        994        993  
       862        863        874        873        983        984        995        994  
       863        864        875        874        984        985        996        995  
       864        865        876        875        985        986        997        996  
       865        866        877        876        986        987        998        997  
       866        867        878        877        987        988        999        998  
       867        868        879        878        988        989       1000        999  
       868        869        880        879        989        990       1001       1000  
       870        871        882        881        991        992       1003       1002  
       871        872        883        882        992        993       1004       1003  
       872        873        884        883        993        994       1005       1004  
       873        874        885        884        994        995       1006       1005  
       874        875        886        885        995        996       1007       1006  
       875        876        887        886        996        997       1008       1007  
       876        877        888        887        997        998       1009       1008  
       877        878        889        888        998        999       1010       1009  
       878        879        890        889        999       1000       1011       1010  
       879        880        891        890       1000       1001       1012       1011  
       881        882        893        892       1002       1003       1014       1013  
       882        883        894        893       1003       1004       1015       1014  
       883        884        895        894       1004       1005       1016       1015  
       884        885        896        895       1005       1006       1017       1016  
       885        886        897        896       1006       1007       1018       1017  
       886        887        898        897       1007       1008       1019       1018  
       887        888        899        898       1008       1009       1020       1019  
       888        889        900        899       1009       1010       1021       1020  
       889        890        901        900       1010       1011       1022       1021  
       890        891        902        901       1011       1012       1023       1022  
       892        893        904        903       1013       1014       1025       1024  
       893        894        905        904       1014       1015       1026       1025  
       894        895        906        905       1015       1016       1027       1026  
       895        896        907        906       1016       1017       1028       1027  
       896        897        908        907       1017       1018       1029       1028  
       897        898        909        908       1018       1019       1030       1029  
       898        899        910        909       1019       1020       1031       1030  
       899        900        911        910       1020       1021       1032       1031  
       900        901        912        911       1021       1022       1033       1032  
       901        902        913        912       1022       1023       1034       1033  
       903        904        915        914       1024       1025       1036       1035  
       904        905        916        915       1025       1026       1037       1036  
       905        906        917        916       1026       1027       1038       1037  
       906        907        918        917       1027       1028       1039       1038  
       907        908        919        918       1028       1029       1040       1039  
       908        909        920        919       1029       1030       1041       1040  
       909        910        921        920       1030       1031       1042       1041  
       910        911        922        921       1031       1032       1043       1042  
       911        912        923        922       1032       1033       1044       1043  
       912        913        924        923       1033       1034       1045       1044  
       914        915        926        925       1035       1036       1047       1046  
       915        916        927        926       1036       1037       1048       1047  
       916        917        928        927       1037       1038       1049       1048  
       917        918        929        928       1038       1039       1050       1049  
       918        919        930        929       1039       1040       1051       1050  
       919        920        931        930       1040       1041       1052       1051  
       920        921        932        931       1041       1042       1053       1052  
       921        922        933        932       1042       1043       1054       1053  
       922        923        934        933       1043       1044       1055       1054  
       923        924        935        934       1044       1045       1056       1055  
       925        926        937        936       1046       1047       1058       1057  
       926        927        938        937       1047       1048       1059       1058  
       927        928        939        938       1048       1049       1060       1059  
       928        929        940        939       1049       1050       1061       1060  
       929        930        941        940       1050       1051       1062       1061  
       930        931        942        941       1051       1052       1063       1062  
       931        932        943        942       1052       1053       1064       1063  
       932        933        944        943       1053       1054       1065       1064  
       933        934        945        944       1054       1055       1066       1065  
       934        935        946        945       1055       1056       1067       1066  
       936        937        948        947       1057       1058       1069       1068  
       937        938        949        948       1058       1059       1070       1069  
       938        939        950        949       1059       1060       1071       1070  
       939        940        951        950       1060       1061       1072       1071  
       940        941        952        951       1061       1062       1073       1072  
       941        942        953        952       1062       1063       1074       1073  
       942        943        954        953       1063       1064       1075       1074  
       943        944        955        954       1064       1065       1076       1075  
       944        945        956        955       1065       1066       1077       1076  
       945        946        957        956       1066       1067       1078       1077  
       947        948        959        958       1068       1069       1080       1079  
       948        949        960        959       1069       1070       1081       1080  
       949        950        961        960       1070       1071       1082       1081  
       950        951        962        961       1071       1072       1083       1082  
       951        952        963        962       1072       1073       1084       1083  
       952        953        964        963       1073       1074       1085       1084  
       953        954        965        964       1074       1075       1086       1085  
       954        955        966        965       1075       1076       1087       1086  
       955        956        967        966       1076       1077       1088       1087  
       956        957        968        967       1077       1078       1089       1088  
       969        970        981        980       1090       1091       1102       1101  
       970        971        982        981       1091       1092       1103       1102  
       971        972        983        982       1092       1093       1104       1103  
       972        973        984        983       1093       1094       1105       1104  
       973        974        985        984       1094       1095       1106       1105  
       974        975        986        985       1095       1096       1107       1106  
       975        976        987        986       1096       1097       1108       1107  
       976        977        988        987       1097       1098       1109       1108  
       977        978        989        988       1098       1099       1110       1109  
       978        979        990        989       1099       1100       1111       1110  
       980        981        992        991       1101       1102       1113       1112  
       981        982        993        992       1102       1103       1114       1113  
       982        983        994        993       1103       1104       1115       1114  
       983        984        995        994       1104       1105       1116       1115  
       984        985        996        995       1105       1106       1117       1116  
       985        986        997        996       1106       1107       1118       1117  
       986        987        998        997       1107       1108       1119       1118  
       987        988        999        998       1108       1109       1120       1119  
       988        989       1000        999       1109       1110       1121       1120  
       989        990       1001       1000       1110       1111       1122       1121  
       991        992       1003       1002       1112       1113       1124       1123  
       992        993       1004       1003       1113       1114       1125       1124  
       993        994       1005       1004       1114       1115       1126       1125  
       994        995       1006       1005       1115       1116       1127       1126  
       995        996       1007       1006       1116       1117       1128       1127  
       996        997       1008       1007       1117       1118       1129       1128  
       997        998       1009       1008       1118       1119       1130       1129  
       998        999       1010       1009       1119       1120       1131       1130  
       999       1000       1011       1010       1120       1121       1132       1131  
      1000       1001       1012       1011       1121       1122       1133       1132  
      1002       1003       1014       1013       1123       1124       1135       1134  
      1003       1004       1015       1014       1124       1125       1136       1135  
      1004       1005       1016       1015       1125       1126       1137       1136  
      1005       1006       1017       1016       1126       1127       1138       1137  
      1006       1007       1018       1017       1127       1128       1139       1138  
      1007       1008       1019       1018       1128       1129       1140       1139  
      1008       1009       1020       1019       1129       1130       1141       1140  
      1009       1010       1021       1020       1130       1131       1142       1141  
      1010       1011       1022       1021       1131       1132       1143       1142  
      1011       1012       1023       1022       1132       1133       1144       1143  
      1013       1014       1025       1024       1134       1135       1146       1145  
      1014       1015       1026       1025       1135       1136       1147       1146  
      1015       1016       1027       1026       1136       1137       1148       1147  
      1016       1017       1028       1027       1137       1138       1149       1148  
      1017       1018       1029       1028       1138       1139       1150       1149  
      1018       1019       1030       1029       1139       1140       1151       1150  
      1019       1020       1031       1030       1140       1141       1152       1151  
      1020       1021       1032       1031       1141       1142       1153       1152  
      1021       1022       1033       1032       1142       1143       1154       1153  
      1022       1023       1034       1033       1143       1144       1155       1154  
      1024       1025       1036       1035       1145       1146       1157       1156  
      1025       1026       1037       1036       1146       1147       1158       1157  
      1026       1027       1038       1037       1147       1148       1159       1158  
      1027       1028       1039       1038       1148       1149       1160       1159  
      1028       1029       1040       1039       1149       1150       1161       1160  
      1029       1030       1041       1040       1150       1151       1162       1161  
      1030       1031       1042       1041       1151       1152       1163       1162  
      1031       1032       1043       1042       1152       1153       1164       1163  
      1032       1033       1044       1043       1153       1154       1165       1164  
      1033       1034       1045       1044       1154       1155       1166       1165  
      1035       1036       1047       1046       1156       1157       1168       1167  
      1036       1037       1048       1047       1157       1158       1169       1168  
      1037       1038       1049       1048       1158       1159       1170       1169  
      1038       1039       1050       1049       1159       1160       1171       1170  
      1039       1040       1051       1050       1160       1161       1172       1171  
      1040       1041       1052       1051       1161       1162       1173       1172  
      1041       1042       1053       1052       1162       1163       1174       1173  
      1042       1043       1054       1053       1163       1164       1175       1174  
      1043       1044       1055       1054       1164       1165       1176       1175  
      1044       1045       1056       1055       1165       1166       1177       1176  
      1046       1047       1058       1057       1167       1168       1179       1178  
      1047       1048       1059       1058       1168       1169       1180       1179  
      1048       1049       1060       1059       1169       1170       1181       1180  
      1049       1050       1061       1060       1170       1171       1182       1181  
      1050       1051       1062       1061       1171       1172       1183       1182  
      1051       1052       1063       1062       1172       1173       1184       1183  
      1052       1053       1064       1063       1173       1174       1185       1184  
      1053       1054       1065       1064       1174       1175       1186       1185  
      1054       1055       1066       1065       1175       1176       1187       1186  
      1055       1056       1067       1066       1176       1177       1188       1187  
      1057       1058       1069       1068       1178       1179       1190       1189  
      1058       1059       1070       1069       1179       1180       1191       1190  
      1059       1060       1071       1070       1180       1181       1192       1191  
      1060       1061       1072       1071       1181       1182       1193       1192  
      1061       1062       1073       1072       1182       1183       1194       1193  
      1062       1063       1074       1073       1183       1184       1195       1194  
      1063       1064       1075       1074       1184       1185       1196       1195  
      1064       1065       1076       1075       1185       1186       1197       1196  
      1065       1066       1077       1076       1186       1187       1198       1197  
      1066       1067       1078       1077       1187       1188       1199       1198  
      1068       1069       1080       1079       1189       1190       1201       1200  
      1069       1070       1081       1080       1190       1191       1202       1201  
      1070       1071       1082       1081       1191       1192       1203       1202  
      1071       1072       1083       1082       1192       1193       1204       1203  
      1072       1073       1084       1083       1193       1194       1205       1204  
      1073       1074       1085       1084       1194       1195       1206       1205  
      1074       1075       1086       1085       1195       1196       1207       1206  
      1075       1076       1087       1086       1196       1197       1208       1207  
      1076       1077       1088       1087       1197       1198       1209       1208  
      1077       1078       1089       1088       1198       1199       1210       1209  
      1090       1091       1102       1101       1211       1212       1223       1222  
      1091       1092       1103       1102       1212       1213       1224       1223  
      1092       1093       1104       1103       1213       1214       1225       1224  
      1093       1094       1105       1104       1214       1215       1226       1225  
      1094       1095       1106       1105       1215       1216       1227       1226  
      1095       1096       1107       1106       1216       1217       1228       1227  
      1096       1097       1108       1107       1217       1218       1229       1228  
      1097       1098       1109       1108       1218       1219       1230       1229  
      1098       1099       1110       1109       1219       1220       1231       1230  
      1099       1100       1111       1110       1220       1221       1232       1231  
      1101       1102       1113       1112       1222       1223       1234       1233  
      1102       1103       1114       1113       1223       1224       1235       1234  
      1103       1104       1115       1114       1224       1225       1236       1235  
      1104       1105       1116       1115       1225       1226       1237       1236  
      1105       1106       1117       1116       1226       1227       1238       1237  
      1106       1107       1118       1117       1227       1228       1239       1238  
      1107       1108       1119       1118       1228       1229       1240       1239  
      1108       1109       1120       1119       1229       1230       1241       1240  
      1109       1110       1121       1120       1230       1231       1242       1241  
      1110       1111       1122       1121       1231       1232       1243       1242  
      1112       1113       1124       1123       1233       1234       1245       1244  
      1113       1114       1125       1124       1234       1235       1246       1245  
      1114       1115       1126       1125       1235       1236       1247       1246  
      1115       1116       1127       1126       1236       1237       1248       1247  
      1116       1117       1128       1127       1237       1238       1249       1248  
      1117       1118       1129       1128       1238       1239       1250       1249  
      1118       1119       1130       1129       1239       1240       1251       1250  
      1119       1120       1131       1130       1240       1241       1252       1251  
      1120       1121       1132       1131       1241       1242       1253       1252  
      1121       1122       1133       1132       1242       1243       1254       1253  
      1123       1124       1135       1134       1244       1245       1256       1255  
      1124       1125       1136       1135       1245       1246       1257       1256  
      1125       1126       1137       1136       1246       1247       1258       1257  
      1126       1127       1138       1137       1247       1248       1259       1258  
      1127       1128       1139       1138       1248       1249       1260       1259  
      1128       1129       1140       1139       1249       1250       1261       1260  
      1129       1130       1141       1140       1250       1251       1262       1261  
      1130       1131       1142       1141       1251       1252       1263       1262  
      1131       1132       1143       1142       1252       1253       1264       1263  
      1132       1133       1144       1143       1253       1254       1265       1264  
      1134       1135       1146       1145       1255       1256       1267       1266  
      1135       1136       1147       1146       1256       1257       1268       1267  
      1136       1137       1148       1147       1257       1258       1269       1268  
      1137       1138       1149       1148       1258       1259       1270       1269  
      1138       1139       1150       1149       1259       1260       1271       1270  
      1139       1140       1151       1150       1260       1261       1272       1271  
      1140       1141       1152       1151       1261       1262       1273       1272  
      1141       1142       1153       1152       1262       1263       1274       1273  
      1142       1143       1154       1153       1263       1264       1275       1274  
      1143       1144       1155       1154       1264       1265       1276       1275  
      1145       1146       1157       1156       1266       1267       1278       1277  
      1146       1147       1158       1157       1267       1268       1279       1278  
      1147       1148       1159       1158       1268       1269       1280       1279  
      1148       1149       1160       1159       1269       1270       1281       1280  
      1149       1150       1161       1160       1270       1271       1282       1281  
      1150       1151       1162       1161       1271       1272       1283       1282  
      1151       1152       1163       1162       1272       1273       1284       1283  
      1152       1153       1164       1163       1273       1274       1285       1284  
      1153       1154       1165       1164       1274       1275       1286       1285  
      1154       1155       1166       1165       1275       1276       1287       1286  
      1156       1157       1168       1167       1277       1278       1289       1288  
      1157       1158       1169       1168       1278       1279       1290       1289  
      1158       1159       1170       1169       1279       1280       1291       1290  
      1159       1160       1171       1170       1280       1281       1292       1291  
      1160       1161       1172       1171       1281       1282       1293       1292  
      1161       1162       1173       1172       1282       1283       1294       1293  
      1162       1163       1174       1173       1283       1284       1295       1294  
      1163       1164       1175       1174       1284       1285       1296       1295  
      1164       1165       1176       1175       1285       1286       1297       1296  
      1165       1166       1177       1176       1286       1287       1298       1297  
      1167       1168       1179       1178       1288       1289       1300       1299  
      1168       1169       1180       1179       1289       1290       1301       1300  
      1169       1170       1181       1180       1290       1291       1302       1301  
      1170       1171       1182       1181       1291       1292       1303       1302  
      1171       1172       1183       1182       1292       1293       1304       1303  
      1172       1173       1184       1183       1293       1294       1305       1304  
      1173       1174       1185       1184       1294       1295       1306       1305  
      1174       1175       1186       1185       1295       1296       1307       1306  
      1175       1176       1187       1186       1296       1297       1308       1307  
      1176       1177       1188       1187       1297       1298       1309       1308  
      1178       1179       1190       1189       1299       1300       1311       1310  
      1179       1180       1191       1190       1300       1301       1312       1311  
      1180       1181       1192       1191       1301       1302       1313       1312  
      1181       1182       1193       1192       1302       1303       1314       1313  
      1182       1183       1194       1193       1303       1304       1315       1314  
      1183       1184       1195       1194       1304       1305       1316       1315  
      1184       1185       1196       1195       1305       1306       1317       1316  
      1185       1186       1197       1196       1306       1307       1318       1317  
      1186       1187       1198       1197       1307       1308       1319       1318  
      1187       1188       1199       1198       1308       1309       1320       1319  
      1189       1190       1201       1200       1310       1311       1322       1321  
      1190       1191       1202       1201       1311       1312       1323       1322  
      1191       1192       1203       1202       1312       1313       1324       1323  
      1192       1193       1204       1203       1313       1314       1325       1324  
      1193       1194       1205       1204       1314       1315       1326       1325  
      1194       1195       1206       1205       1315       1316       1327       1326  
      1195       1196       1207       1206       1316       1317       1328       1327  
      1196       1197       1208       1207       1317       1318       1329       1328  
      1197       1198       1209       1208       1318       1319       1330       1329  
      1198       1199       1210       1209       1319       1320       1331       1330  
      1211       1212       1223       1222       1332       1333       1344       1343  
      1212       1213       1224       1223       1333       1334       1345       1344  
      1213       1214       1225       1224       1334       1335       1346       1345  
      1214       1215       1226       1225       1335       1336       1347       1346  
      1215       1216       1227       1226       1336       1337       1348       1347  
      1216       1217       1228       1227       1337       1338       1349       1348  
      1217       1218       1229       1228       1338       1339       1350       1349  
      1218       1219       1230       1229       1339       1340       1351       1350  
      1219       1220       1231       1230       1340       1341       1352       1351  
      1220       1221       1232       1231       1341       1342       1353       1352  
      1222       1223       1234       1233       1343       1344       1355       1354  
      1223       1224       1235       1234       1344       1345       1356       1355  
      1224       1225       1236       1235       1345       1346       1357       1356  
      1225       1226       1237       1236       1346       1347       1358       1357  
      1226       1227       1238       1237       1347       1348       1359       1358  
      1227       1228       1239       1238       1348       1349       1360       1359  
      1228       1229       1240       1239       1349       1350       1361       1360  
      1229       1230       1241       1240       1350       1351       1362       1361  
      1230       1231       1242       1241       1351       1352       1363       1362  
      1231       1232       1243       1242       1352       1353       1364       1363  
      1233       1234       1245       1244       1354       1355       1366       1365  
      1234       1235       1246       1245       1355       1356       1367       1366  
      1235       1236       1247       1246       1356       1357       1368       1367  
      1236       1237       1248       1247       1357       1358       1369       1368  
      1237       1238       1249       1248       1358       1359       1370       1369  
      1238       1239       1250       1249       1359       1360       1371       1370  
      1239       1240       1251       1250       1360       1361       1372       1371  
      1240       1241       1252       1251       1361       1362       1373       1372  
      1241       1242       1253       1252       1362       1363       1374       1373  
      1242       1243       1254       1253       1363       1364       1375       1374  
      1244       1245       1256       1255       1365       1366       1377       1376  
      1245       1246       1257       1256       1366       1367       1378       1377  
      1246       1247       1258       1257       1367       1368       1379       1378  
      1247       1248       1259       1258       1368       1369       1380       1379  
      1248       1249       1260       1259       1369       1370       1381       1380  
      1249       1250       1261       1260       1370       1371       1382       1381  
      1250       1251       1262       1261       1371       1372       1383       1382  
      1251       1252       1263       1262       1372       1373       1384       1383  
      1252       1253       1264       1263       1373       1374       1385       1384  
      1253       1254       1265       1264       1374       1375       1386       1385  
      1255       1256       1267       1266       1376       1377       1388       1387  
      1256       1257       1268       1267       1377       1378       1389       1388  
      1257       1258       1269       1268       1378       1379       1390       1389  
      1258       1259       1270       1269       1379       1380       1391       1390  
      1259       1260       1271       1270       1380       1381       1392       1391  
      1260       1261       1272       1271       1381       1382       1393       1392  
      1261       1262       1273       1272       1382       1383       1394       1393  
      1262       1263       1274       1273       1383       1384       1395       1394  
      1263       1264       1275       1274       1384       1385       1396       1395  
      1264       1265       1276       1275       1385       1386       1397       1396  
      1266       1267       1278       1277       1387       1388       1399       1398  
      1267       1268       1279       1278       1388       1389       1400       1399  
      1268       1269       1280       1279       1389       1390       1401       1400  
      1269       1270       1281       1280       1390       1391       1402       1401  
      1270       1271       1282       1281       1391       1392       1403       1402  
      1271       1272       1283       1282       1392       1393       1404       1403  
      1272       1273       1284       1283       1393       1394       1405       1404  
      1273       1274       1285       1284       1394       1395       1406       1405  
      1274       1275       1286       1285       1395       1396       1407       1406  
      1275       1276       1287       1286       1396       1397       1408       1407  
      1277       1278       1289       1288       1398       1399       1410       1409  
      1278       1279       1290       1289       1399       1400       1411       1410  
      1279       1280       1291       1290       1400       1401       1412       1411  
      1280       1281       1292       1291       1401       1402       1413       1412  
      1281       1282       1293       1292       1402       1403       1414       1413  
      1282       1283       1294       1293       1403       1404       1415       1414  
      1283       1284       1295       1294       1404       1405       1416       1415  
      1284       1285       1296       1295       1405       1406       1417       1416  
      1285       1286       1297       1296       1406       1407       1418       1417  
      1286       1287       1298       1297       1407       1408       1419       1418  
      1288       1289       1300       1299       1409       1410       1421       1420  
      1289       1290       1301       1300       1410       1411       1422       1421  
      1290       1291       1302       1301       1411       1412       1423       1422  
      1291       1292       1303       1302       1412       1413       1424       1423  
      1292       1293       1304       1303       1413       1414       1425       1424  
      1293       1294       1305       1304       1414       1415       1426       1425  
      1294       1295       1306       1305       1415       1416       1427       1426  
      1295       1296       1307       1306       1416       1417       1428       1427  
      1296       1297       1308       1307       1417       1418       1429       1428  
      1297       1298       1309       1308       1418       1419       1430       1429  
      1299       1300       1311       1310       1420       1421       1432       1431  
      1300       1301       1312       1311       1421       1422       1433       1432  
      1301       1302       1313       1312       1422       1423       1434       1433  
      1302       1303       1314       1313       1423       1424       1435       1434  
      1303       1304       1315       1314       1424       1425       1436       1435  
      1304       1305       1316       1315       1425       1426       1437       1436  
      1305       1306       1317       1316       1426       1427       1438       1437  
      1306       1307       1318       1317       1427       1428       1439       1438  
      1307       1308       1319       1318       1428       1429       1440       1439  
      1308       1309       1320       1319       1429       1430       1441       1440  
      1310       1311       1322       1321       1431       1432       1443       1442  
      1311       1312       1323       1322       1432       1433       1444       1443  
      1312       1313       1324       1323       1433       1434       1445       1444  
      1313       1314       1325       1324       1434       1435       1446       1445  
      1314       1315       1326       1325       1435       1436       1447       1446  
      1315       1316       1327       1326       1436       1437       1448       1447  
      1316       1317       1328       1327       1437       1438       1449       1448  
      1317       1318       1329       1328       1438       1439       1450       1449  
      1318       1319       1330       1329       1439       1440       1451       1450  
      1319       1320       1331       1330       1440       1441       1452       1451  
      1332       1333       1344       1343       1453       1454       1465       1464  
      1333       1334       1345       1344       1454       1455       1466       1465  
      1334       1335       1346       1345       1455       1456       1467       1466  
      1335       1336       1347       1346       1456       1457       1468       1467  
      1336       1337       1348       1347       1457       1458       1469       1468  
      1337       1338       1349       1348       1458       1459       1470       1469  
      1338       1339       1350       1349       1459       1460       1471       1470  
      1339       1340       1351       1350       1460       1461       1472       1471  
      1340       1341       1352       1351       1461       1462       1473       1472  
      1341       1342       1353       1352       1462       1463       1474       1473  
      1343       1344       1355       1354       1464       1465       1476       1475  
      1344       1345       1356       1355       1465       1466       1477       1476  
      1345       1346       1357       1356       1466       1467       1478       1477  
      1346       1347       1358       1357       1467       1468       1479       1478  
      1347       1348       1359       1358       1468       1469       1480       1479  
      1348       1349       1360       1359       1469       1470       1481       1480  
      1349       1350       1361       1360       1470       1471       1482       1481  
      1350       1351       1362       1361       1471       1472       1483       1482  
      1351       1352       1363       1362       1472       1473       1484       1483  
      1352       1353       1364       1363       1473       1474       1485       1484  
      1354       1355       1366       1365       1475       1476       1487       1486  
      1355       1356       1367       1366       1476       1477       1488       1487  
      1356       1357       1368       1367       1477       1478       1489       1488  
      1357       1358       1369       1368       1478       1479       1490       1489  
      1358       1359       1370       1369       1479       1480       1491       1490  
      1359       1360       1371       1370       1480       1481       1492       1491  
      1360       1361       1372       1371       1481       1482       1493       1492  
      1361       1362       1373       1372       1482       1483       1494       1493  
      1362       1363       1374       1373       1483       1484       1495       1494  
      1363       1364       1375       1374       1484       1485       1496       1495  
      1365       1366       1377       1376       1486       1487       1498       1497  
      1366       1367       1378       1377       1487       1488       1499       1498  
      1367       1368       1379       1378       1488       1489       1500       1499  
      1368       1369       1380       1379       1489       1490       1501       1500  
      1369       1370       1381       1380       1490       1491       1502       1501  
      1370       1371       1382       1381       1491       1492       1503       1502  
      1371       1372       1383       1382       1492       1493       1504       1503  
      1372       1373       1384       1383       1493       1494       1505       1504  
      1373       1374       1385       1384       1494       1495       1506       1505  
      1374       1375       1386       1385       1495       1496       1507       1506  
      1376       1377       1388       1387       1497       1498       1509       1508  
      1377       1378       1389       1388       1498       1499       1510       1509  
      1378       1379       1390       1389       1499       1500       1511       1510  
      1379       1380       1391       1390       1500       1501       1512       1511  
      1380       1381       1392       1391       1501       1502       1513       1512  
      1381       1382       1393       1392       1502       1503       1514       1513  
      1382       1383       1394       1393       1503       1504       1515       1514  
      1383       1384       1395       1394       1504       1505       1516       1515  
      1384       1385       1396       1395       1505       1506       1517       1516  
      1385       1386       1397       1396       1506       1507       1518       1517  
      1387       1388       1399       1398       1508       1509       1520       1519  
      1388       1389       1400       1399       1509       1510       1521       1520  
      1389       1390       1401       1400       1510       1511       1522       1521  
      1390       1391       1402       1401       1511       1512       1523       1522  
      1391       1392       1403       1402       1512       1513       1524       1523  
      1392       1393       1404       1403       1513       1514       1525       1524  
      1393       1394       1405       1404       1514       1515       1526       1525  
      1394       1395       1406       1405       1515       1516       1527       1526  
      1395       1396       1407       1406       1516       1517       1528       1527  
      1396       1397       1408       1407       1517       1518       1529       1528  
      1398       1399       1410       1409       1519       1520       1531       1530  
      1399       1400       1411       1410       1520       1521       1532       1531  
      1400       1401       1412       1411       1521       1522       1533       1532  
      1401       1402       1413       1412       1522       1523       1534       1533  
      1402       1403       1414       1413       1523       1524       1535       1534  
      1403       1404       1415       1414       1524       1525       1536       1535  
      1404       1405       1416       1415       1525       1526       1537       1536  
      1405       1406       1417       1416       1526       1527       1538       1537  
      1406       1407       1418       1417       1527       1528       1539       1538  
      1407       1408       1419       1418       1528       1529       1540       1539  
      1409       1410       1421       1420       1530       1531       1542       1541  
      1410       1411       1422       1421       1531       1532       1543       1542  
      1411       1412       1423       1422       1532       1533       1544       1543  
      1412       1413       1424       1423       1533       1534       1545       1544  
      1413       1414       1425       1424       1534       1535       1546       1545  
      1414       1415       1426       1425       1535       1536       1547       1546  
      1415       1416       1427       1426       1536       1537       1548       1547  
      1416       1417       1428       1427       1537       1538       1549       1548  
      1417       1418       1429       1428       1538       1539       1550       1549  
      1418       1419       1430       1429       1539       1540       1551       1550  
      1420       1421       1432       1431       1541       1542       1553       1552  
      1421       1422       1433       1432       1542       1543       1554       1553  
      1422       1423       1434       1433       1543       1544       1555       1554  
      1423       1424       1435       1434       1544       1545       1556       1555  
      1424       1425       1436       1435       1545       1546       1557       1556  
      1425       1426       1437       1436       1546       1547       1558       1557  
      1426       1427       1438       1437       1547       1548       1559       1558  
      1427       1428       1439       1438       1548       1549       1560       1559  
      1428       1429       1440       1439       1549       1550       1561       1560  
      1429       1430       1441       1440       1550       1551       1562       1561  
      1431       1432       1443       1442       1552       1553       1564       1563  
      1432       1433       1444       1443       1553       1554       1565       1564  
      1433       1434       1445       1444       1554       1555       1566       1565  
      1434       1435       1446       1445       1555       1556       1567       1566  
      1435       1436       1447       1446       1556       1557       1568       1567  
      1436       1437       1448       1447       1557       1558       1569       1568  
      1437       1438       1449       1448       1558       1559       1570       1569  
      1438       1439       1450       1449       1559       1560       1571       1570  
      1439       1440       1451       1450       1560       1561       1572       1571  
      1440       1441       1452       1451       1561       1562       1573       1572  
      1453       1454       1465       1464       1574       1575       1586       1585  
      1454       1455       1466       1465       1575       1576       1587       1586  
      1455       1456       1467       1466       1576       1577       1588       1587  
      1456       1457       1468       1467       1577       1578       1589       1588  
      1457       1458       1469       1468       1578       1579       1590       1589  
      1458       1459       1470       1469       1579       1580       1591       1590  
      1459       1460       1471       1470       1580       1581       1592       1591  
      1460       1461       1472       1471       1581       1582       1593       1592  
      1461       1462       1473       1472       1582       1583       1594       1593  
      1462       1463       1474       1473       1583       1584       1595       1594  
      1464       1465       1476       1475       1585       1586       1597       1596  
      1465       1466       1477       1476       1586       1587       1598       1597  
      1466       1467       1478       1477       1587       1588       1599       1598  
      1467       1468       1479       1478       1588       1589       1600       1599  
      1468       1469       1480       1479       1589       1590       1601       1600  
      1469       1470       1481       1480       1590       1591       1602       1601  
      1470       1471       1482       1481       1591       1592       1603       1602  
      1471       1472       1483       1482       1592       1593       1604       1603  
      1472       1473       1484       1483       1593       1594       1605       1604  
      1473       1474       1485       1484       1594       1595       1606       1605  
      1475       1476       1487       1486       1596       1597       1608       1607  
      1476       1477       1488       1487       1597       1598       1609       1608  
      1477       1478       1489       1488       1598       1599       1610       1609  
      1478       1479       1490       1489       1599       1600       1611       1610  
      1479       1480       1491       1490       1600       1601       1612       1611  
      1480       1481       1492       1491       1601       1602       1613       1612  
      1481       1482       1493       1492       1602       1603       1614       1613  
      1482       1483       1494       1493       1603       1604       1615       1614  
      1483       1484       1495       1494       1604       1605       1616       1615  
      1484       1485       1496       1495       1605       1606       1617       1616  
      1486       1487       1498       1497       1607       1608       1619       1618  
      1487       1488       1499       1498       1608       1609       1620       1619  
      1488       1489       1500       1499       1609       1610       1621       1620  
      1489       1490       1501       1500       1610       1611       1622       1621  
      1490       1491       1502       1501       1611       1612       1623       1622  
      1491       1492       1503       1502       1612       1613       1624       1623  
      1492       1493       1504       1503       1613       1614       1625       1624  
      1493       1494       1505       1504       1614       1615       1626       1625  
      1494       1495       1506       1505       1615       1616       1627       1626  
      1495       1496       1507       1506       1616       1617       1628       1627  
      1497       1498       1509       1508       1618       1619       1630       1629  
      1498       1499       1510       1509       1619       1620       1631       1630  
      1499       1500       1511       1510       1620       1621       1632       1631  
      1500       1501       1512       1511       1621       1622       1633       1632  
      1501       1502       1513       1512       1622       1623       1634       1633  
      1502       1503       1514       1513       1623       1624       1635       1634  
      1503       1504       1515       1514       1624       1625       1636       1635  
      1504       1505       1516       1515       1625       1626       1637       1636  
      1505       1506       1517       1516       1626       1627       1638       1637  
      1506       1507       1518       1517       1627       1628       1639       1638  
      1508       1509       1520       1519       1629       1630       1641       1640  
      1509       1510       1521       1520       1630       1631       1642       1641  
      1510       1511       1522       1521       1631       1632       1643       1642  
      1511       1512       1523       1522       1632       1633       1644       1643  
      1512       1513       1524       1523       1633       1634       1645       1644  
      1513       1514       1525       1524       1634       1635       1646       1645  
      1514       1515       1526       1525       1635       1636       1647       1646  
      1515       1516       1527       1526       1636       1637       1648       1647  
      1516       1517       1528       1527       1637       1638       1649       1648  
      1517       1518       1529       1528       1638       1639       1650       1649  
      1519       1520       1531       1530       1640       1641       1652       1651  
      1520       1521       1532       1531       1641       1642       1653       1652  
      1521       1522       1533       1532       1642       1643       1654       1653  
      1522       1523       1534       1533       1643       1644       1655       1654  
      1523       1524       1535       1534       1644       1645       1656       1655  
      1524       1525       1536       1535       1645       1646       1657       1656  
      1525       1526       1537       1536       1646       1647       1658       1657  
      1526       1527       1538       1537       1647       1648       1659       1658  
      1527       1528       1539       1538       1648       1649       1660       1659  
      1528       1529       1540       1539       1649       1650       1661       1660  
      1530       1531       1542       1541       1651       1652       1663       1662  
      1531       1532       1543       1542       1652       1653       1664       1663  
      1532       1533       1544       1543       1653       1654       1665       1664  
      1533       1534       1545       1544       1654       1655       1666       1665  
      1534       1535       1546       1545       1655       1656       1667       1666  
      1535       1536       1547       1546       1656       1657       1668       1667  
      1536       1537       1548       1547       1657       1658       1669       1668  
      1537       1538       1549       1548       1658       1659       1670       1669  
      1538       1539       1550       1549       1659       1660       1671       1670  
      1539       1540       1551       1550       1660       1661       1672       1671  
      1541       1542       1553       1552       1662       1663       1674       1673  
      1542       1543       1554       1553       1663       1664       1675       1674  
      1543       1544       1555       1554       1664       1665       1676       1675  
      1544       1545       1556       1555       1665       1666       1677       1676  
      1545       1546       1557       1556       1666       1667       1678       1677  
      1546       1547       1558       1557       1667       1668       1679       1678  
      1547       1548       1559       1558       1668       1669       1680       1679  
      1548       1549       1560       1559       1669       1670       1681       1680  
      1549       1550       1561       1560       1670       1671       1682       1681  
      1550       1551       1562       1561       1671       1672       1683       1682  
      1552       1553       1564       1563       1673       1674       1685       1684  
      1553       1554       1565       1564       1674       1675       1686       1685  
      1554       1555       1566       1565       1675       1676       1687       1686  
      1555       1556       1567       1566       1676       1677       1688       1687  
      1556       1557       1568       1567       1677       1678       1689       1688  
      1557       1558       1569       1568       1678       1679       1690       1689  
      1558       1559       1570       1569       1679       1680       1691       1690  
      1559       1560       1571       1570       1680       1681       1692       1691  
      1560       1561       1572       1571       1681       1682       1693       1692  
      1561       1562       1573       1572       1682       1683       1694       1693  
      1574       1575       1586       1585       1695       1696       1707       1706  
      1575       1576       1587       1586       1696       1697       1708       1707  
      1576       1577       1588       1587       1697       1698       1709       1708  
      1577       1578       1589       1588       1698       1699       1710       1709  
      1578       1579       1590       1589       1699       1700       1711       1710  
      1579       1580       1591       1590       1700       1701       1712       1711  
      1580       1581       1592       1591       1701       1702       1713       1712  
      1581       1582       1593       1592       1702       1703       1714       1713  
      1582       1583       1594       1593       1703       1704       1715       1714  
      1583       1584       1595       1594       1704       1705       1716       1715  
      1585       1586       1597       1596       1706       1707       1718       1717  
      1586       1587       1598       1597       1707       1708       1719       1718  
      1587       1588       1599       1598       1708       1709       1720       1719  
      1588       1589       1600       1599       1709       1710       1721       1720  
      1589       1590       1601       1600       1710       1711       1722       1721  
      1590       1591       1602       1601       1711       1712       1723       1722  
      1591       1592       1603       1602       1712       1713       1724       1723  
      1592       1593       1604       1603       1713       1714       1725       1724  
      1593       1594       1605       1604       1714       1715       1726       1725  
      1594       1595       1606       1605       1715       1716       1727       1726  
      1596       1597       1608       1607       1717       1718       1729       1728  
      1597       1598       1609       1608       1718       1719       1730       1729  
      1598       1599       1610       1609       1719       1720       1731       1730  
      1599       1600       1611       1610       1720       1721       1732       1731  
      1600       1601       1612       1611       1721       1722       1733       1732  
      1601       1602       1613       1612       1722       1723       1734       1733  
      1602       1603       1614       1613       1723       1724       1735       1734  
      1603       1604       1615       1614       1724       1725       1736       1735  
      1604       1605       1616       1615       1725       1726       1737       1736  
      1605       1606       1617       1616       1726       1727       1738       1737  
      1607       1608       1619       1618       1728       1729       1740       1739  
      1608       1609       1620       1619       1729       1730       1741       1740  
      1609       1610       1621       1620       1730       1731       1742       1741  
      1610       1611       1622       1621       1731       1732       1743       1742  
      1611       1612       1623       1622       1732       1733       1744       1743  
      1612       1613       1624       1623       1733       1734       1745       1744  
      1613       1614       1625       1624       1734       1735       1746       1745  
      1614       1615       1626       1625       1735       1736       1747       1746  
      1615       1616       1627       1626       1736       1737       1748       1747  
      1616       1617       1628       1627       1737       1738       1749       1748  
      1618       1619       1630       1629       1739       1740       1751       1750  
      1619       1620       1631       1630       1740       1741       1752       1751  
      1620       1621       1632       1631       1741       1742       1753       1752  
      1621       1622       1633       1632       1742       1743       1754       1753  
      1622       1623       1634       1633       1743       1744       1755       1754  
      1623       1624       1635       1634       1744       1745       1756       1755  
      1624       1625       1636       1635       1745       1746       1757       1756  
      1625       1626       1637       1636       1746       1747       1758       1757  
      1626       1627       1638       1637       1747       1748       1759       1758  
      1627       1628       1639       1638       1748       1749       1760       1759  
      1629       1630       1641       1640       1750       1751       1762       1761  
      1630       1631       1642       1641       1751       1752       1763       1762  
      1631       1632       1643       1642       1752       1753       1764       1763  
      1632       1633       1644       1643       1753       1754       1765       1764  
      1633       1634       1645       1644       1754       1755       1766       1765  
      1634       1635       1646       1645       1755       1756       1767       1766  
      1635       1636       1647       1646       1756       1757       1768       1767  
      1636       1637       1648       1647       1757       1758       1769       1768  
      1637       1638       1649       1648       1758       1759       1770       1769  
      1638       1639       1650       1649       1759       1760       1771       1770  
      1640       1641       1652       1651       1761       1762       1773       1772  
      1641       1642       1653       1652       1762       1763       1774       1773  
      1642       1643       1654       1653       1763       1764       1775       1774  
      1643       1644       1655       1654       1764       1765       1776       1775  
      1644       1645       1656       1655       1765       1766       1777       1776  
      1645       1646       1657       1656       1766       1767       1778       1777  
      1646       1647       1658       1657       1767       1768       1779       1778  
      1647       1648       1659       1658       1768       1769       1780       1779  
      1648       1649       1660       1659       1769       1770       1781       1780  
      1649       1650       1661       1660       1770       1771       1782       1781  
      1651       1652       1663       1662       1772       1773       1784       1783  
      1652       1653       1664       1663       1773       1774       1785       1784  
      1653       1654       1665       1664       1774       1775       1786       1785  
      1654       1655       1666       1665       1775       1776       1787       1786  
      1655       1656       1667       1666       1776       1777       1788       1787  
      1656       1657       1668       1667       1777       1778       1789       1788  
      1657       1658       1669       1668       1778       1779       1790       1789  
      1658       1659       1670       1669       1779       1780       1791       1790  
      1659       1660       1671       1670       1780       1781       1792       1791  
      1660       1661       1672       1671       1781       1782       1793       1792  
      1662       1663       1674       1673       1783       1784       1795       1794  
      1663       1664       1675       1674       1784       1785       1796       1795  
      1664       1665       1676       1675       1785       1786       1797       1796  
      1665       1666       1677       1676       1786       1787       1798       1797  
      1666       1667       1678       1677       1787       1788       1799       1798  
      1667       1668       1679       1678       1788       1789       1800       1799  
      1668       1669       1680       1679       1789       1790       1801       1800  
      1669       1670       1681       1680       1790       1791       1802       1801  
      1670       1671       1682       1681       1791       1792       1803       1802  
      1671       1672       1683       1682       1792       1793       1804       1803  
      1673       1674       1685       1684       1794       1795       1806       1805  
      1674       1675       1686       1685       1795       1796       1807       1806  
      1675       1676       1687       1686       1796       1797       1808       1807  
      1676       1677       1688       1687       1797       1798       1809       1808  
      1677       1678       1689       1688       1798       1799       1810       1809  
      1678       1679       1690       1689       1799       1800       1811       1810  
      1679       1680       1691       1690       1800       1801       1812       1811  
      1680       1681       1692       1691       1801       1802       1813       1812  
      1681       1682       1693       1692       1802       1803       1814       1813  
      1682       1683       1694       1693       1803       1804       1815       1814  
      1695       1696       1707       1706       1816       1817       1828       1827  
      1696       1697       1708       1707       1817       1818       1829       1828  
      1697       1698       1709       1708       1818       1819       1830       1829  
      1698       1699       1710       1709       1819       1820       1831       1830  
      1699       1700       1711       1710       1820       1821       1832       1831  
      1700       1701       1712       1711       1821       1822       1833       1832  
      1701       1702       1713       1712       1822       1823       1834       1833  
      1702       1703       1714       1713       1823       1824       1835       1834  
      1703       1704       1715       1714       1824       1825       1836       1835  
      1704       1705       1716       1715       1825       1826       1837       1836  
      1706       1707       1718       1717       1827       1828       1839       1838  
      1707       1708       1719       1718       1828       1829       1840       1839  
      1708       1709       1720       1719       1829       1830       1841       1840  
      1709       1710       1721       1720       1830       1831       1842       1841  
      1710       1711       1722       1721       1831       1832       1843       1842  
      1711       1712       1723       1722       1832       1833       1844       1843  
      1712       1713       1724       1723       1833       1834       1845       1844  
      1713       1714       1725       1724       1834       1835       1846       1845  
      1714       1715       1726       1725       1835       1836       1847       1846  
      1715       1716       1727       1726       1836       1837       1848       1847  
      1717       1718       1729       1728       1838       1839       1850       1849  
      1718       1719       1730       1729       1839       1840       1851       1850  
      1719       1720       1731       1730       1840       1841       1852       1851  
      1720       1721       1732       1731       1841       1842       1853       1852  
      1721       1722       1733       1732       1842       1843       1854       1853  
      1722       1723       1734       1733       1843       1844       1855       1854  
      1723       1724       1735       1734       1844       1845       1856       1855  
      1724       1725       1736       1735       1845       1846       1857       1856  
      1725       1726       1737       1736       1846       1847       1858       1857  
      1726       1727       1738       1737       1847       1848       1859       1858  
      1728       1729       1740       1739       1849       1850       1861       1860  
      1729       1730       1741       1740       1850       1851       1862       1861  
      1730       1731       1742       1741       1851       1852       1863       1862  
      1731       1732       1743       1742       1852       1853       1864       1863  
      1732       1733       1744       1743       1853       1854       1865       1864  
      1733       1734       1745       1744       1854       1855       1866       1865  
      1734       1735       1746       1745       1855       1856       1867       1866  
      1735       1736       1747       1746       1856       1857       1868       1867  
      1736       1737       1748       1747       1857       1858       1869       1868  
      1737       1738       1749       1748       1858       1859       1870       1869  
      1739       1740       1751       1750       1860       1861       1872       1871  
      1740       1741       1752       1751       1861       1862       1873       1872  
      1741       1742       1753       1752       1862       1863       1874       1873  
      1742       1743       1754       1753       1863       1864       1875       1874  
      1743       1744       1755       1754       1864       1865       1876       1875  
      1744       1745       1756       1755       1865       1866       1877       1876  
      1745       1746       1757       1756       1866       1867       1878       1877  
      1746       1747       1758       1757       1867       1868       1879       1878  
      1747       1748       1759       1758       1868       1869       1880       1879  
      1748       1749       1760       1759       1869       1870       1881       1880  
      1750       1751       1762       1761       1871       1872       1883       1882  
      1751       1752       1763       1762       1872       1873       1884       1883  
      1752       1753       1764       1763       1873       1874       1885       1884  
      1753       1754       1765       1764       1874       1875       1886       1885  
      1754       1755       1766       1765       1875       1876       1887       1886  
      1755       1756       1767       1766       1876       1877       1888       1887  
      1756       1757       1768       1767       1877       1878       1889       1888  
      1757       1758       1769       1768       1878       1879       1890       1889  
      1758       1759       1770       1769       1879       1880       1891       1890  
      1759       1760       1771       1770       1880       1881       1892       1891  
      1761       1762       1773       1772       1882       1883       1894       1893  
      1762       1763       1774       1773       1883       1884       1895       1894  
      1763       1764       1775       1774       1884       1885       1896       1895  
      1764       1765       1776       1775       1885       1886       1897       1896  
      1765       1766       1777       1776       1886       1887       1898       1897  
      1766       1767       1778       1777       1887       1888       1899       1898  
      1767       1768       1779       1778       1888       1889       1900       1899  
      1768       1769       1780       1779       1889       1890       1901       1900  
      1769       1770       1781       1780       1890       1891       1902       1901  
      1770       1771       1782       1781       1891       1892       1903       1902  
      1772       1773       1784       1783       1893       1894       1905       1904  
      1773       1774       1785       1784       1894       1895       1906       1905  
      1774       1775       1786       1785       1895       1896       1907       1906  
      1775       1776       1787       1786       1896       1897       1908       1907  
      1776       1777       1788       1787       1897       1898       1909       1908  
      1777       1778       1789       1788       1898       1899       1910       1909  
      1778       1779       1790       1789       1899       1900       1911       1910  
      1779       1780       1791       1790       1900       1901       1912       1911  
      1780       1781       1792       1791       1901       1902       1913       1912  
      1781       1782       1793       1792       1902       1903       1914       1913  
      1783       1784       1795       1794       1904       1905       1916       1915  
      1784       1785       1796       1795       1905       1906       1917       1916  
      1785       1786       1797       1796       1906       1907       1918       1917  
      1786       1787       1798       1797       1907       1908       1919       1918  
      1787       1788       1799       1798       1908       1909       1920       1919  
      1788       1789       1800       1799       1909       1910       1921       1920  
      1789       1790       1801       1800       1910       1911       1922       1921  
      1790       1791       1802       1801       1911       1912       1923       1922  
      1791       1792       1803       1802       1912       1913       1924       1923  
      1792       1793       1804       1803       1913       1914       1925       1924  
      1794       1795       1806       1805       1915       1916       1927       1926  
      1795       1796       1807       1806       1916       1917       1928       1927  
      1796       1797       1808       1807       1917       1918       1929       1928  
      1797       1798       1809       1808       1918       1919       1930       1929  
      1798       1799       1810       1809       1919       1920       1931       1930  
      1799       1800       1811       1810       1920       1921       1932       1931  
      1800       1801       1812       1811       1921       1922       1933       1932  
      1801       1802       1813       1812       1922       1923       1934       1933  
      1802       1803       1814       1813       1923       1924       1935       1934  
      1803       1804       1815       1814       1924       1925       1936       1935  
      1816       1817       1828       1827       1937       1938       1949       1948  
      1817       1818       1829       1828       1938       1939       1950       1949  
      1818       1819       1830       1829       1939       1940       1951       1950  
      1819       1820       1831       1830       1940       1941       1952       1951  
      1820       1821       1832       1831       1941       1942       1953       1952  
      1821       1822       1833       1832       1942       1943       1954       1953  
      1822       1823       1834       1833       1943       1944       1955       1954  
      1823       1824       1835       1834       1944       1945       1956       1955  
      1824       1825       1836       1835       1945       1946       1957       1956  
      1825       1826       1837       1836       1946       1947       1958       1957  
      1827       1828       1839       1838       1948       1949       1960       1959  
      1828       1829       1840       1839       1949       1950       1961       1960  
      1829       1830       1841       1840       1950       1951       1962       1961  
      1830       1831       1842       1841       1951       1952       1963       1962  
      1831       1832       1843       1842       1952       1953       1964       1963  
      1832       1833       1844       1843       1953       1954       1965       1964  
      1833       1834       1845       1844       1954       1955       1966       1965  
      1834       1835       1846       1845       1955       1956       1967       1966  
      1835       1836       1847       1846       1956       1957       1968       1967  
      1836       1837       1848       1847       1957       1958       1969       1968  
      1838       1839       1850       1849       1959       1960       1971       1970  
      1839       1840       1851       1850       1960       1961       1972       1971  
      1840       1841       1852       1851       1961       1962       1973       1972  
      1841       1842       1853       1852       1962       1963       1974       1973  
      1842       1843       1854       1853       1963       1964       1975       1974  
      1843       1844       1855       1854       1964       1965       1976       1975  
      1844       1845       1856       1855       1965       1966       1977       1976  
      1845       1846       1857       1856       1966       1967       1978       1977  
      1846       1847       1858       1857       1967       1968       1979       1978  
      1847       1848       1859       1858       1968       1969       1980       1979  
      1849       1850       1861       1860       1970       1971       1982       1981  
      1850       1851       1862       1861       1971       1972       1983       1982  
      1851       1852       1863       1862       1972       1973       1984       1983  
      1852       1853       1864       1863       1973       1974       1985       1984  
      1853       1854       1865       1864       1974       1975       1986       1985  
      1854       1855       1866       1865       1975       1976       1987       1986  
      1855       1856       1867       1866       1976       1977       1988       1987  
      1856       1857       1868       1867       1977       1978       1989       1988  
      1857       1858       1869       1868       1978       1979       1990       1989  
      1858       1859       1870       1869       1979       1980       1991       1990  
      1860       1861       1872       1871       1981       1982       1993       1992  
      1861       1862       1873       1872       1982       1983       1994       1993  
      1862       1863       1874       1873       1983       1984       1995       1994  
      1863       1864       1875       1874       1984       1985       1996       1995  
      1864       1865       1876       1875       1985       1986       1997       1996  
      1865       1866       1877       1876       1986       1987       1998       1997  
      1866       1867       1878       1877       1987       1988       1999       1998  
      1867       1868       1879       1878       1988       1989       2000       1999  
      1868       1869       1880       1879       1989       1990       2001       2000  
      1869       1870       1881       1880       1990       1991       2002       2001  
      1871       1872       1883       1882       1992       1993       2004       2003  
      1872       1873       1884       1883       1993       1994       2005       2004  
      1873       1874       1885       1884       1994       1995       2006       2005  
      1874       1875       1886       1885       1995       1996       2007       2006  
      1875       1876       1887       1886       1996       1997       2008       2007  
      1876       1877       1888       1887       1997       1998       2009       2008  
      1877       1878       1889       1888       1998       1999       2010       2009  
      1878       1879       1890       1889       1999       2000       2011       2010  
      1879       1880       1891       1890       2000       2001       2012       2011  
      1880       1881       1892       1891       2001       2002       2013       2012  
      1882       1883       1894       1893       2003       2004       2015       2014  
      1883       1884       1895       1894       2004       2005       2016       2015  
      1884       1885       1896       1895       2005       2006       2017       2016  
      1885       1886       1897       1896       2006       2007       2018       2017  
      1886       1887       1898       1897       2007       2008       2019       2018  
      1887       1888       1899       1898       2008       2009       2020       2019  
      1888       1889       1900       1899       2009       2010       2021       2020  
      1889       1890       1901       1900       2010       2011       2022       2021  
      1890       1891       1902       1901       2011       2012       2023       2022  
      1891       1892       1903       1902       2012       2013       2024       2023  
      1893       1894       1905       1904       2014       2015       2026       2025  
      1894       1895       1906       1905       2015       2016       2027       2026  
      1895       1896       1907       1906       2016       2017       2028       2027  
      1896       1897       1908       1907       2017       2018       2029       2028  
      1897       1898       1909       1908       2018       2019       2030       2029  
      1898       1899       1910       1909       2019       2020       2031       2030  
      1899       1900       1911       1910       2020       2021       2032       2031  
      1900       1901       1912       1911       2021       2022       2033       2032  
      1901       1902       1913       1912       2022       2023       2034       2033  
      1902       1903       1914       1913       2023       2024       2035       2034  
      1904       1905       1916       1915       2025       2026       2037       2036  
      1905       1906       1917       1916       2026       2027       2038       2037  
      1906       1907       1918       1917       2027       2028       2039       2038  
      1907       1908       1919       1918       2028       2029       2040       2039  
      1908       1909       1920       1919       2029       2030       2041       2040  
      1909       1910       1921       1920       2030       2031       2042       2041  
      1910       1911       1922       1921       2031       2032       2043       2042  
      1911       1912       1923       1922       2032       2033       2044       2043  
      1912       1913       1924       1923       2033       2034       2045       2044  
      1913       1914       1925       1924       2034       2035       2046       2045  
      1915       1916       1927       1926       2036       2037       2048       2047  
      1916       1917       1928       1927       2037       2038       2049       2048  
      1917       1918       1929       1928       2038       2039       2050       2049  
      1918       1919       1930       1929       2039       2040       2051       2050  
      1919       1920       1931       1930       2040       2041       2052       2051  
      1920       1921       1932       1931       2041       2042       2053       2052  
      1921       1922       1933       1932       2042       2043       2054       2053  
      1922       1923       1934       1933       2043       2044       2055       2054  
      1923       1924       1935       1934       2044       2045       2056       2055  
      1924       1925       1936       1935       2045       2046       2057       2056  
      1937       1938       1949       1948       2058       2059       2070       2069  
      1938       1939       1950       1949       2059       2060       2071       2070  
      1939       1940       1951       1950       2060       2061       2072       2071  
      1940       1941       1952       1951       2061       2062       2073       2072  
      1941       1942       1953       1952       2062       2063       2074       2073  
      1942       1943       1954       1953       2063       2064       2075       2074  
      1943       1944       1955       1954       2064       2065       2076       2075  
      1944       1945       1956       1955       2065       2066       2077       2076  
      1945       1946       1957       1956       2066       2067       2078       2077  
      1946       1947       1958       1957       2067       2068       2079       2078  
      1948       1949       1960       1959       2069       2070       2081       2080  
      1949       1950       1961       1960       2070       2071       2082       2081  
      1950       1951       1962       1961       2071       2072       2083       2082  
      1951       1952       1963       1962       2072       2073       2084       2083  
      1952       1953       1964       1963       2073       2074       2085       2084  
      1953       1954       1965       1964       2074       2075       2086       2085  
      1954       1955       1966       1965       2075       2076       2087       2086  
      1955       1956       1967       1966       2076       2077       2088       2087  
      1956       1957       1968       1967       2077       2078       2089       2088  
      1957       1958       1969       1968       2078       2079       2090       2089  
      1959       1960       1971       1970       2080       2081       2092       2091  
      1960       1961       1972       1971       2081       2082       2093       2092  
      1961       1962       1973       1972       2082       2083       2094       2093  
      1962       1963       1974       1973       2083       2084       2095       2094  
      1963       1964       1975       1974       2084       2085       2096       2095  
      1964       1965       1976       1975       2085       2086       2097       2096  
      1965       1966       1977       1976       2086       2087       2098       2097  
      1966       1967       1978       1977       2087       2088       2099       2098  
      1967       1968       1979       1978       2088       2089       2100       2099  
      1968       1969       1980       1979       2089       2090       2101       2100  
      1970       1971       1982       1981       2091       2092       2103       2102  
      1971       1972       1983       1982       2092       2093       2104       2103  
      1972       1973       1984       1983       2093       2094       2105       2104  
      1973       1974       1985       1984       2094       2095       2106       2105  
      1974       1975       1986       1985       2095       2096       2107       2106  
      1975       1976       1987       1986       2096       2097       2108       2107  
      1976       1977       1988       1987       2097       2098       2109       2108  
      1977       1978       1989       1988       2098       2099       2110       2109  
      1978       1979       1990       1989       2099       2100       2111       2110  
      1979       1980       1991       1990       2100       2101       2112       2111  
      1981       1982       1993       1992       2102       2103       2114       2113  
      1982       1983       1994       1993       2103       2104       2115       2114  
      1983       1984       1995       1994       2104       2105       2116       2115  
      1984       1985       1996       1995       2105       2106       2117       2116  
      1985       1986       1997       1996       2106       2107       2118       2117  
      1986       1987       1998       1997       2107       2108       2119       2118  
      1987       1988       1999       1998       2108       2109       2120       2119  
      1988       1989       2000       1999       2109       2110       2121       2120  
      1989       1990       2001       2000       2110       2111       2122       2121  
      1990       1991       2002       2001       2111       2112       2123       2122  
      1992       1993       2004       2003       2113       2114       2125       2124  
      1993       1994       2005       2004       2114       2115       2126       2125  
      1994       1995       2006       2005       2115       2116       2127       2126  
      1995       1996       2007       2006       2116       2117       2128       2127  
      1996       1997       2008       2007       2117       2118       2129       2128  
      1997       1998       2009       2008       2118       2119       2130       2129  
      1998       1999       2010       2009       2119       2120       2131       2130  
      1999       2000       2011       2010       2120       2121       2132       2131  
      2000       2001       2012       2011       2121       2122       2133       2132  
      2001       2002       2013       2012       2122       2123       2134       2133  
      2003       2004       2015       2014       2124       2125       2136       2135  
      2004       2005       2016       2015       2125       2126       2137       2136  
      2005       2006       2017       2016       2126       2127       2138       2137  
      2006       2007       2018       2017       2127       2128       2139       2138  
      2007       2008       2019       2018       2128       2129       2140       2139  
      2008       2009       2020       2019       2129       2130       2141       2140  
      2009       2010       2021       2020       2130       2131       2142       2141  
      2010       2011       2022       2021       2131       2132       2143       2142  
      2011       2012       2023       2022       2132       2133       2144       2143  
      2012       2013       2024       2023       2133       2134       2145       2144  
      2014       2015       2026       2025       2135       2136       2147       2146  
      2015       2016       2027       2026       2136       2137       2148       2147  
      2016       2017       2028       2027       2137       2138       2149       2148  
      2017       2018       2029       2028       2138       2139       2150       2149  
      2018       2019       2030       2029       2139       2140       2151       2150  
      2019       2020       2031       2030       2140       2141       2152       2151  
      2020       2021       2032       2031       2141       2142       2153       2152  
      2021       2022       2033       2032       2142       2143       2154       2153  
      2022       2023       2034       2033       2143       2144       2155       2154  
      2023       2024       2035       2034       2144       2145       2156       2155  
      2025       2026       2037       2036       2146       2147       2158       2157  
      2026       2027       2038       2037       2147       2148       2159       2158  
      2027       2028       2039       2038       2148       2149       2160       2159  
      2028       2029       2040       2039       2149       2150       2161       2160  
      2029       2030       2041       2040       2150       2151       2162       2161  
      2030       2031       2042       2041       2151       2152       2163       2162  
      2031       2032       2043       2042       2152       2153       2164       2163  
      2032       2033       2044       2043       2153       2154       2165       2164  
      2033       2034       2045       2044       2154       2155       2166       2165  
      2034       2035       2046       2045       2155       2156       2167       2166  
      2036       2037       2048       2047       2157       2158       2169       2168  
      2037       2038       2049       2048       2158       2159       2170       2169  
      2038       2039       2050       2049       2159       2160       2171       2170  
      2039       2040       2051       2050       2160       2161       2172       2171  
      2040       2041       2052       2051       2161       2162       2173       2172  
      2041       2042       2053       2052       2162       2163       2174       2173  
      2042       2043       2054       2053       2163       2164       2175       2174  
      2043       2044       2055       2054       2164       2165       2176       2175  
      2044       2045       2056       2055       2165       2166       2177       2176  
      2045       2046       2057       2056       2166       2167       2178       2177  
      2058       2059       2070       2069       2179       2180       2191       2190  
      2059       2060       2071       2070       2180       2181       2192       2191  
      2060       2061       2072       2071       2181       2182       2193       2192  
      2061       2062       2073       2072       2182       2183       2194       2193  
      2062       2063       2074       2073       2183       2184       2195       2194  
      2063       2064       2075       2074       2184       2185       2196       2195  
      2064       2065       2076       2075       2185       2186       2197       2196  
      2065       2066       2077       2076       2186       2187       2198       2197  
      2066       2067       2078       2077       2187       2188       2199       2198  
      2067       2068       2079       2078       2188       2189       2200       2199  
      2069       2070       2081       2080       2190       2191       2202       2201  
      2070       2071       2082       2081       2191       2192       2203       2202  
      2071       2072       2083       2082       2192       2193       2204       2203  
      2072       2073       2084       2083       2193       2194       2205       2204  
      2073       2074       2085       2084       2194       2195       2206       2205  
      2074       2075       2086       2085       2195       2196       2207       2206  
      2075       2076       2087       2086       2196       2197       2208       2207  
      2076       2077       2088       2087       2197       2198       2209       2208  
      2077       2078       2089       2088       2198       2199       2210       2209  
      2078       2079       2090       2089       2199       2200       2211       2210  
      2080       2081       2092       2091       2201       2202       2213       2212  
      2081       2082       2093       2092       2202       2203       2214       2213  
      2082       2083       2094       2093       2203       2204       2215       2214  
      2083       2084       2095       2094       2204       2205       2216       2215  
      2084       2085       2096       2095       2205       2206       2217       2216  
      2085       2086       2097       2096       2206       2207       2218       2217  
      2086       2087       2098       2097       2207       2208       2219       2218  
      2087       2088       2099       2098       2208       2209       2220       2219  
      2088       2089       2100       2099       2209       2210       2221       2220  
      2089       2090       2101       2100       2210       2211       2222       2221  
      2091       2092       2103       2102       2212       2213       2224       2223  
      2092       2093       2104       2103       2213       2214       2225       2224  
      2093       2094       2105       2104       2214       2215       2226       2225  
      2094       2095       2106       2105       2215       2216       2227       2226  
      2095       2096       2107       2106       2216       2217       2228       2227  
      2096       2097       2108       2107       2217       2218       2229       2228  
      2097       2098       2109       2108       2218       2219       2230       2229  
      2098       2099       2110       2109       2219       2220       2231       2230  
      2099       2100       2111       2110       2220       2221       2232       2231  
      2100       2101       2112       2111       2221       2222       2233       2232  
      2102       2103       2114       2113       2223       2224       2235       2234  
      2103       2104       2115       2114       2224       2225       2236       2235  
      2104       2105       2116       2115       2225       2226       2237       2236  
      2105       2106       2117       2116       2226       2227       2238       2237  
      2106       2107       2118       2117       2227       2228       2239       2238  
      2107       2108       2119       2118       2228       2229       2240       2239  
      2108       2109       2120       2119       2229       2230       2241       2240  
      2109       2110       2121       2120       2230       2231       2242       2241  
      2110       2111       2122       2121       2231       2232       2243       2242  
      2111       2112       2123       2122       2232       2233       2244       2243  
      2113       2114       2125       2124       2234       2235       2246       2245  
      2114       2115       2126       2125       2235       2236       2247       2246  
      2115       2116       2127       2126       2236       2237       2248       2247  
      2116       2117       2128       2127       2237       2238       2249       2248  
      2117       2118       2129       2128       2238       2239       2250       2249  
      2118       2119       2130       2129       2239       2240       2251       2250  
      2119       2120       2131       2130       2240       2241       2252       2251  
      2120       2121       2132       2131       2241       2242       2253       2252  
      2121       2122       2133       2132       2242       2243       2254       2253  
      2122       2123       2134       2133       2243       2244       2255       2254  
      2124       2125       2136       2135       2245       2246       2257       2256  
      2125       2126       2137       2136       2246       2247       2258       2257  
      2126       2127       2138       2137       2247       2248       2259       2258  
      2127       2128       2139       2138       2248       2249       2260       2259  
      2128       2129       2140       2139       2249       2250       2261       2260  
      2129       2130       2141       2140       2250       2251       2262       2261  
      2130       2131       2142       2141       2251       2252       2263       2262  
      2131       2132       2143       2142       2252       2253       2264       2263  
      2132       2133       2144       2143       2253       2254       2265       2264  
      2133       2134       2145       2144       2254       2255       2266       2265  
      2135       2136       2147       2146       2256       2257       2268       2267  
      2136       2137       2148       2147       2257       2258       2269       2268  
      2137       2138       2149       2148       2258       2259       2270       2269  
      2138       2139       2150       2149       2259       2260       2271       2270  
      2139       2140       2151       2150       2260       2261       2272       2271  
      2140       2141       2152       2151       2261       2262       2273       2272  
      2141       2142       2153       2152       2262       2263       2274       2273  
      2142       2143       2154       2153       2263       2264       2275       2274  
      2143       2144       2155       2154       2264       2265       2276       2275  
      2144       2145       2156       2155       2265       2266       2277       2276  
      2146       2147       2158       2157       2267       2268       2279       2278  
      2147       2148       2159       2158       2268       2269       2280       2279  
      2148       2149       2160       2159       2269       2270       2281       2280  
      2149       2150       2161       2160       2270       2271       2282       2281  
      2150       2151       2162       2161       2271       2272       2283       2282  
      2151       2152       2163       2162       2272       2273       2284       2283  
      2152       2153       2164       2163       2273       2274       2285       2284  
      2153       2154       2165       2164       2274       2275       2286       2285  
      2154       2155       2166       2165       2275       2276       2287       2286  
      2155       2156       2167       2166       2276       2277       2288       2287  
      2157       2158       2169       2168       2278       2279       2290       2289  
      2158       2159       2170       2169       2279       2280       2291       2290  
      2159       2160       2171       2170       2280       2281       2292       2291  
      2160       2161       2172       2171       2281       2282       2293       2292  
      2161       2162       2173       2172       2282       2283       2294       2293  
      2162       2163       2174       2173       2283       2284       2295       2294  
      2163       2164       2175       2174       2284       2285       2296       2295  
      2164       2165       2176       2175       2285       2286       2297       2296  
      2165       2166       2177       2176       2286       2287       2298       2297  
      2166       2167       2178       2177       2287       2288       2299       2298  
      2179       2180       2191       2190       2300       2301       2312       2311  
      2180       2181       2192       2191       2301       2302       2313       2312  
      2181       2182       2193       2192       2302       2303       2314       2313  
      2182       2183       2194       2193       2303       2304       2315       2314  
      2183       2184       2195       2194       2304       2305       2316       2315  
      2184       2185       2196       2195       2305       2306       2317       2316  
      2185       2186       2197       2196       2306       2307       2318       2317  
      2186       2187       2198       2197       2307       2308       2319       2318  
      2187       2188       2199       2198       2308       2309       2320       2319  
      2188       2189       2200       2199       2309       2310       2321       2320  
      2190       2191       2202       2201       2311       2312       2323       2322  
      2191       2192       2203       2202       2312       2313       2324       2323  
      2192       2193       2204       2203       2313       2314       2325       2324  
      2193       2194       2205       2204       2314       2315       2326       2325  
      2194       2195       2206       2205       2315       2316       2327       2326  
      2195       2196       2207       2206       2316       2317       2328       2327  
      2196       2197       2208       2207       2317       2318       2329       2328  
      2197       2198       2209       2208       2318       2319       2330       2329  
      2198       2199       2210       2209       2319       2320       2331       2330  
      2199       2200       2211       2210       2320       2321       2332       2331  
      2201       2202       2213       2212       2322       2323       2334       2333  
      2202       2203       2214       2213       2323       2324       2335       2334  
      2203       2204       2215       2214       2324       2325       2336       2335  
      2204       2205       2216       2215       2325       2326       2337       2336  
      2205       2206       2217       2216       2326       2327       2338       2337  
      2206       2207       2218       2217       2327       2328       2339       2338  
      2207       2208       2219       2218       2328       2329       2340       2339  
      2208       2209       2220       2219       2329       2330       2341       2340  
      2209       2210       2221       2220       2330       2331       2342       2341  
      2210       2211       2222       2221       2331       2332       2343       2342  
      2212       2213       2224       2223       2333       2334       2345       2344  
      2213       2214       2225       2224       2334       2335       2346       2345  
      2214       2215       2226       2225       2335       2336       2347       2346  
      2215       2216       2227       2226       2336       2337       2348       2347  
      2216       2217       2228       2227       2337       2338       2349       2348  
      2217       2218       2229       2228       2338       2339       2350       2349  
      2218       2219       2230       2229       2339       2340       2351       2350  
      2219       2220       2231       2230       2340       2341       2352       2351  
      2220       2221       2232       2231       2341       2342       2353       2352  
      2221       2222       2233       2232       2342       2343       2354       2353  
      2223       2224       2235       2234       2344       2345       2356       2355  
      2224       2225       2236       2235       2345       2346       2357       2356  
      2225       2226       2237       2236       2346       2347       2358       2357  
      2226       2227       2238       2237       2347       2348       2359       2358  
      2227       2228       2239       2238       2348       2349       2360       2359  
      2228       2229       2240       2239       2349       2350       2361       2360  
      2229       2230       2241       2240       2350       2351       2362       2361  
      2230       2231       2242       2241       2351       2352       2363       2362  
      2231       2232       2243       2242       2352       2353       2364       2363  
      2232       2233       2244       2243       2353       2354       2365       2364  
      2234       2235       2246       2245       2355       2356       2367       2366  
      2235       2236       2247       2246       2356       2357       2368       2367  
      2236       2237       2248       2247       2357       2358       2369       2368  
      2237       2238       2249       2248       2358       2359       2370       2369  
      2238       2239       2250       2249       2359       2360       2371       2370  
      2239       2240       2251       2250       2360       2361       2372       2371  
      2240       2241       2252       2251       2361       2362       2373       2372  
      2241       2242       2253       2252       2362       2363       2374       2373  
      2242       2243       2254       2253       2363       2364       2375       2374  
      2243       2244       2255       2254       2364       2365       2376       2375  
      2245       2246       2257       2256       2366       2367       2378       2377  
      2246       2247       2258       2257       2367       2368       2379       2378  
      2247       2248       2259       2258       2368       2369       2380       2379  
      2248       2249       2260       2259       2369       2370       2381       2380  
      2249       2250       2261       2260       2370       2371       2382       2381  
      2250       2251       2262       2261       2371       2372       2383       2382  
      2251       2252       2263       2262       2372       2373       2384       2383  
      2252       2253       2264       2263       2373       2374       2385       2384  
      2253       2254       2265       2264       2374       2375       2386       2385  
      2254       2255       2266       2265       2375       2376       2387       2386  
      2256       2257       2268       2267       2377       2378       2389       2388  
      2257       2258       2269       2268       2378       2379       2390       2389  
      2258       2259       2270       2269       2379       2380       2391       2390  
      2259       2260       2271       2270       2380       2381       2392       2391  
      2260       2261       2272       2271       2381       2382       2393       2392  
      2261       2262       2273       2272       2382       2383       2394       2393  
      2262       2263       2274       2273       2383       2384       2395       2394  
      2263       2264       2275       2274       2384       2385       2396       2395  
      2264       2265       2276       2275       2385       2386       2397       2396  
      2265       2266       2277       2276       2386       2387       2398       2397  
      2267       2268       2279       2278       2388       2389       2400       2399  
      2268       2269       2280       2279       2389       2390       2401       2400  
      2269       2270       2281       2280       2390       2391       2402       2401  
      2270       2271       2282       2281       2391       2392       2403       2402  
      2271       2272       2283       2282       2392       2393       2404       2403  
      2272       2273       2284       2283       2393       2394       2405       2404  
      2273       2274       2285       2284       2394       2395       2406       2405  
      2274       2275       2286       2285       2395       2396       2407       2406  
      2275       2276       2287       2286       2396       2397       2408       2407  
      2276       2277       2288       2287       2397       2398       2409       2408  
      2278       2279       2290       2289       2399       2400       2411       2410  
      2279       2280       2291       2290       2400       2401       2412       2411  
      2280       2281       2292       2291       2401       2402       2413       2412  
      2281       2282       2293       2292       2402       2403       2414       2413  
      2282       2283       2294       2293       2403       2404       2415       2414  
      2283       2284       2295       2294       2404       2405       2416       2415  
      2284       2285       2296       2295       2405       2406       2417       2416  
      2285       2286       2297       2296       2406       2407       2418       2417  
      2286       2287       2298       2297       2407       2408       2419       2418  
      2287       2288       2299       2298       2408       2409       2420       2419  
      2300       2301       2312       2311       2421       2422       2433       2432  
      2301       2302       2313       2312       2422       2423       2434       2433  
      2302       2303       2314       2313       2423       2424       2435       2434  
      2303       2304       2315       2314       2424       2425       2436       2435  
      2304       2305       2316       2315       2425       2426       2437       2436  
      2305       2306       2317       2316       2426       2427       2438       2437  
      2306       2307       2318       2317       2427       2428       2439       2438  
      2307       2308       2319       2318       2428       2429       2440       2439  
      2308       2309       2320       2319       2429       2430       2441       2440  
      2309       2310       2321       2320       2430       2431       2442       2441  
      2311       2312       2323       2322       2432       2433       2444       2443  
      2312       2313       2324       2323       2433       2434       2445       2444  
      2313       2314       2325       2324       2434       2435       2446       2445  
      2314       2315       2326       2325       2435       2436       2447       2446  
      2315       2316       2327       2326       2436       2437       2448       2447  
      2316       2317       2328       2327       2437       2438       2449       2448  
      2317       2318       2329       2328       2438       2439       2450       2449  
      2318       2319       2330       2329       2439       2440       2451       2450  
      2319       2320       2331       2330       2440       2441       2452       2451  
      2320       2321       2332       2331       2441       2442       2453       2452  
      2322       2323       2334       2333       2443       2444       2455       2454  
      2323       2324       2335       2334       2444       2445       2456       2455  
      2324       2325       2336       2335       2445       2446       2457       2456  
      2325       2326       2337       2336       2446       2447       2458       2457  
      2326       2327       2338       2337       2447       2448       2459       2458  
      2327       2328       2339       2338       2448       2449       2460       2459  
      2328       2329       2340       2339       2449       2450       2461       2460  
      2329       2330       2341       2340       2450       2451       2462       2461  
      2330       2331       2342       2341       2451       2452       2463       2462  
      2331       2332       2343       2342       2452       2453       2464       2463  
      2333       2334       2345       2344       2454       2455       2466       2465  
      2334       2335       2346       2345       2455       2456       2467       2466  
      2335       2336       2347       2346       2456       2457       2468       2467  
      2336       2337       2348       2347       2457       2458       2469       2468  
      2337       2338       2349       2348       2458       2459       2470       2469  
      2338       2339       2350       2349       2459       2460       2471       2470  
      2339       2340       2351       2350       2460       2461       2472       2471  
      2340       2341       2352       2351       2461       2462       2473       2472  
      2341       2342       2353       2352       2462       2463       2474       2473  
      2342       2343       2354       2353       2463       2464       2475       2474  
      2344       2345       2356       2355       2465       2466       2477       2476  
      2345       2346       2357       2356       2466       2467       2478       2477  
      2346       2347       2358       2357       2467       2468       2479       2478  
      2347       2348       2359       2358       2468       2469       2480       2479  
      2348       2349       2360       2359       2469       2470       2481       2480  
      2349       2350       2361       2360       2470       2471       2482       2481  
      2350       2351       2362       2361       2471       2472       2483       2482  
      2351       2352       2363       2362       2472       2473       2484       2483  
      2352       2353       2364       2363       2473       2474       2485       2484  
      2353       2354       2365       2364       2474       2475       2486       2485  
      2355       2356       2367       2366       2476       2477       2488       2487  
      2356       2357       2368       2367       2477       2478       2489       2488  
      2357       2358       2369       2368       2478       2479       2490       2489  
      2358       2359       2370       2369       2479       2480       2491       2490  
      2359       2360       2371       2370       2480       2481       2492       2491  
      2360       2361       2372       2371       2481       2482       2493       2492  
      2361       2362       2373       2372       2482       2483       2494       2493  
      2362       2363       2374       2373       2483       2484       2495       2494  
      2363       2364       2375       2374       2484       2485       2496       2495  
      2364       2365       2376       2375       2485       2486       2497       2496  
      2366       2367       2378       2377       2487       2488       2499       2498  
      2367       2368       2379       2378       2488       2489       2500       2499  
      2368       2369       2380       2379       2489       2490       2501       2500  
      2369       2370       2381       2380       2490       2491       2502       2501  
      2370       2371       2382       2381       2491       2492       2503       2502  
      2371       2372       2383       2382       2492       2493       2504       2503  
      2372       2373       2384       2383       2493       2494       2505       2504  
      2373       2374       2385       2384       2494       2495       2506       2505  
      2374       2375       2386       2385       2495       2496       2507       2506  
      2375       2376       2387       2386       2496       2497       2508       2507  
      2377       2378       2389       2388       2498       2499       2510       2509  
      2378       2379       2390       2389       2499       2500       2511       2510  
      2379       2380       2391       2390       2500       2501       2512       2511  
      2380       2381       2392       2391       2501       2502       2513       2512  
      2381       2382       2393       2392       2502       2503       2514       2513  
      2382       2383       2394       2393       2503       2504       2515       2514  
      2383       2384       2395       2394       2504       2505       2516       2515  
      2384       2385       2396       2395       2505       2506       2517       2516  
      2385       2386       2397       2396       2506       2507       2518       2517  
      2386       2387       2398       2397       2507       2508       2519       2518  
      2388       2389       2400       2399       2509       2510       2521       2520  
      2389       2390       2401       2400       2510       2511       2522       2521  
      2390       2391       2402       2401       2511       2512       2523       2522  
      2391       2392       2403       2402       2512       2513       2524       2523  
      2392       2393       2404       2403       2513       2514       2525       2524  
      2393       2394       2405       2404       2514       2515       2526       2525  
      2394       2395       2406       2405       2515       2516       2527       2526  
      2395       2396       2407       2406       2516       2517       2528       2527  
      2396       2397       2408       2407       2517       2518       2529       2528  
      2397       2398       2409       2408       2518       2519       2530       2529  
      2399       2400       2411       2410       2520       2521       2532       2531  
      2400       2401       2412       2411       2521       2522       2533       2532  
      2401       2402       2413       2412       2522       2523       2534       2533  
      2402       2403       2414       2413       2523       2524       2535       2534  
      2403       2404       2415       2414       2524       2525       2536       2535  
      2404       2405       2416       2415       2525       2526       2537       2536  
      2405       2406       2417       2416       2526       2527       2538       2537  
      2406       2407       2418       2417       2527       2528       2539       2538  
      2407       2408       2419       2418       2528       2529       2540       2539  
      2408       2409       2420       2419       2529       2530       2541       2540  
      2421       2422       2433       2432       2542       2543       2554       2553  
      2422       2423       2434       2433       2543       2544       2555       2554  
      2423       2424       2435       2434       2544       2545       2556       2555  
      2424       2425       2436       2435       2545       2546       2557       2556  
      2425       2426       2437       2436       2546       2547       2558       2557  
      2426       2427       2438       2437       2547       2548       2559       2558  
      2427       2428       2439       2438       2548       2549       2560       2559  
      2428       2429       2440       2439       2549       2550       2561       2560  
      2429       2430       2441       2440       2550       2551       2562       2561  
      2430       2431       2442       2441       2551       2552       2563       2562  
      2432       2433       2444       2443       2553       2554       2565       2564  
      2433       2434       2445       2444       2554       2555       2566       2565  
      2434       2435       2446       2445       2555       2556       2567       2566  
      2435       2436       2447       2446       2556       2557       2568       2567  
      2436       2437       2448       2447       2557       2558       2569       2568  
      2437       2438       2449       2448       2558       2559       2570       2569  
      2438       2439       2450       2449       2559       2560       2571       2570  
      2439       2440       2451       2450       2560       2561       2572       2571  
      2440       2441       2452       2451       2561       2562       2573       2572  
      2441       2442       2453       2452       2562       2563       2574       2573  
      2443       2444       2455       2454       2564       2565       2576       2575  
      2444       2445       2456       2455       2565       2566       2577       2576  
      2445       2446       2457       2456       2566       2567       2578       2577  
      2446       2447       2458       2457       2567       2568       2579       2578  
      2447       2448       2459       2458       2568       2569       2580       2579  
      2448       2449       2460       2459       2569       2570       2581       2580  
      2449       2450       2461       2460       2570       2571       2582       2581  
      2450       2451       2462       2461       2571       2572       2583       2582  
      2451       2452       2463       2462       2572       2573       2584       2583  
      2452       2453       2464       2463       2573       2574       2585       2584  
      2454       2455       2466       2465       2575       2576       2587       2586  
      2455       2456       2467       2466       2576       2577       2588       2587  
      2456       2457       2468       2467       2577       2578       2589       2588  
      2457       2458       2469       2468       2578       2579       2590       2589  
      2458       2459       2470       2469       2579       2580       2591       2590  
      2459       2460       2471       2470       2580       2581       2592       2591  
      2460       2461       2472       2471       2581       2582       2593       2592  
      2461       2462       2473       2472       2582       2583       2594       2593  
      2462       2463       2474       2473       2583       2584       2595       2594  
      2463       2464       2475       2474       2584       2585       2596       2595  
      2465       2466       2477       2476       2586       2587       2598       2597  
      2466       2467       2478       2477       2587       2588       2599       2598  
      2467       2468       2479       2478       2588       2589       2600       2599  
      2468       2469       2480       2479       2589       2590       2601       2600  
      2469       2470       2481       2480       2590       2591       2602       2601  
      2470       2471       2482       2481       2591       2592       2603       2602  
      2471       2472       2483       2482       2592       2593       2604       2603  
      2472       2473       2484       2483       2593       2594       2605       2604  
      2473       2474       2485       2484       2594       2595       2606       2605  
      2474       2475       2486       2485       2595       2596       2607       2606  
      2476       2477       2488       2487       2597       2598       2609       2608  
      2477       2478       2489       2488       2598       2599       2610       2609  
      2478       2479       2490       2489       2599       2600       2611       2610  
      2479       2480       2491       2490       2600       2601       2612       2611  
      2480       2481       2492       2491       2601       2602       2613       2612  
      2481       2482       2493       2492       2602       2603       2614       2613  
      2482       2483       2494       2493       2603       2604       2615       2614  
      2483       2484       2495       2494       2604       2605       2616       2615  
      2484       2485       2496       2495       2605       2606       2617       2616  
      2485       2486       2497       2496       2606       2607       2618       2617  
      2487       2488       2499       2498       2608       2609       2620       2619  
      2488       2489       2500       2499       2609       2610       2621       2620  
      2489       2490       2501       2500       2610       2611       2622       2621  
      2490       2491       2502       2501       2611       2612       2623       2622  
      2491       2492       2503       2502       2612       2613       2624       2623  
      2492       2493       2504       2503       2613       2614       2625       2624  
      2493       2494       2505       2504       2614       2615       2626       2625  
      2494       2495       2506       2505       2615       2616       2627       2626  
      2495       2496       2507       2506       2616       2617       2628       2627  
      2496       2497       2508       2507       2617       2618       2629       2628  
      2498       2499       2510       2509       2619       2620       2631       2630  
      2499       2500       2511       2510       2620       2621       2632       2631  
      2500       2501       2512       2511       2621       2622       2633       2632  
      2501       2502       2513       2512       2622       2623       2634       2633  
      2502       2503       2514       2513       2623       2624       2635       2634  
      2503       2504       2515       2514       2624       2625       2636       2635  
      2504       2505       2516       2515       2625       2626       2637       2636  
      2505       2506       2517       2516       2626       2627       2638       2637  
      2506       2507       2518       2517       2627       2628       2639       2638  
      2507       2508       2519       2518       2628       2629       2640       2639  
      2509       2510       2521       2520       2630       2631       2642       2641  
      2510       2511       2522       2521       2631       2632       2643       2642  
      2511       2512       2523       2522       2632       2633       2644       2643  
      2512       2513       2524       2523       2633       2634       2645       2644  
      2513       2514       2525       2524       2634       2635       2646       2645  
      2514       2515       2526       2525       2635       2636       2647       2646  
      2515       2516       2527       2526       2636       2637       2648       2647  
      2516       2517       2528       2527       2637       2638       2649       2648  
      2517       2518       2529       2528       2638       2639       2650       2649  
      2518       2519       2530       2529       2639       2640       2651       2650  
      2520       2521       2532       2531       2641       2642       2653       2652  
      2521       2522       2533       2532       2642       2643       2654       2653  
      2522       2523       2534       2533       2643       2644       2655       2654  
      2523       2524       2535       2534       2644       2645       2656       2655  
      2524       2525       2536       2535       2645       2646       2657       2656  
      2525       2526       2537       2536       2646       2647       2658       2657  
      2526       2527       2538       2537       2647       2648       2659       2658  
      2527       2528       2539       2538       2648       2649       2660       2659  
      2528       2529       2540       2539       2649       2650       2661       2660  
      2529       2530       2541       2540       2650       2651       2662       2661  
      2542       2543       2554       2553       2663       2664       2675       2674  
      2543       2544       2555       2554       2664       2665       2676       2675  
      2544       2545       2556       2555       2665       2666       2677       2676  
      2545       2546       2557       2556       2666       2667       2678       2677  
      2546       2547       2558       2557       2667       2668       2679       2678  
      2547       2548       2559       2558       2668       2669       2680       2679  
      2548       2549       2560       2559       2669       2670       2681       2680  
      2549       2550       2561       2560       2670       2671       2682       2681  
      2550       2551       2562       2561       2671       2672       2683       2682  
      2551       2552       2563       2562       2672       2673       2684       2683  
      2553       2554       2565       2564       2674       2675       2686       2685  
      2554       2555       2566       2565       2675       2676       2687       2686  
      2555       2556       2567       2566       2676       2677       2688       2687  
      2556       2557       2568       2567       2677       2678       2689       2688  
      2557       2558       2569       2568       2678       2679       2690       2689  
      2558       2559       2570       2569       2679       2680       2691       2690  
      2559       2560       2571       2570       2680       2681       2692       2691  
      2560       2561       2572       2571       2681       2682       2693       2692  
      2561       2562       2573       2572       2682       2683       2694       2693  
      2562       2563       2574       2573       2683       2684       2695       2694  
      2564       2565       2576       2575       2685       2686       2697       2696  
      2565       2566       2577       2576       2686       2687       2698       2697  
      2566       2567       2578       2577       2687       2688       2699       2698  
      2567       2568       2579       2578       2688       2689       2700       2699  
      2568       2569       2580       2579       2689       2690       2701       2700  
      2569       2570       2581       2580       2690       2691       2702       2701  
      2570       2571       2582       2581       2691       2692       2703       2702  
      2571       2572       2583       2582       2692       2693       2704       2703  
      2572       2573       2584       2583       2693       2694       2705       2704  
      2573       2574       2585       2584       2694       2695       2706       2705  
      2575       2576       2587       2586       2696       2697       2708       2707  
      2576       2577       2588       2587       2697       2698       2709       2708  
      2577       2578       2589       2588       2698       2699       2710       2709  
      2578       2579       2590       2589       2699       2700       2711       2710  
      2579       2580       2591       2590       2700       2701       2712       2711  
      2580       2581       2592       2591       2701       2702       2713       2712  
      2581       2582       2593       2592       2702       2703       2714       2713  
      2582       2583       2594       2593       2703       2704       2715       2714  
      2583       2584       2595       2594       2704       2705       2716       2715  
      2584       2585       2596       2595       2705       2706       2717       2716  
      2586       2587       2598       2597       2707       2708       2719       2718  
      2587       2588       2599       2598       2708       2709       2720       2719  
      2588       2589       2600       2599       2709       2710       2721       2720  
      2589       2590       2601       2600       2710       2711       2722       2721  
      2590       2591       2602       2601       2711       2712       2723       2722  
      2591       2592       2603       2602       2712       2713       2724       2723  
      2592       2593       2604       2603       2713       2714       2725       2724  
      2593       2594       2605       2604       2714       2715       2726       2725  
      2594       2595       2606       2605       2715       2716       2727       2726  
      2595       2596       2607       2606       2716       2717       2728       2727  
      2597       2598       2609       2608       2718       2719       2730       2729  
      2598       2599       2610       2609       2719       2720       2731       2730  
      2599       2600       2611       2610       2720       2721       2732       2731  
      2600       2601       2612       2611       2721       2722       2733       2732  
      2601       2602       2613       2612       2722       2723       2734       2733  
      2602       2603       2614       2613       2723       2724       2735       2734  
      2603       2604       2615       2614       2724       2725       2736       2735  
      2604       2605       2616       2615       2725       2726       2737       2736  
      2605       2606       2617       2616       2726       2727       2738       2737  
      2606       2607       2618       2617       2727       2728       2739       2738  
      2608       2609       2620       2619       2729       2730       2741       2740  
      2609       2610       2621       2620       2730       2731       2742       2741  
      2610       2611       2622       2621       2731       2732       2743       2742  
      2611       2612       2623       2622       2732       2733       2744       2743  
      2612       2613       2624       2623       2733       2734       2745       2744  
      2613       2614       2625       2624       2734       2735       2746       2745  
      2614       2615       2626       2625       2735       2736       2747       2746  
      2615       2616       2627       2626       2736       2737       2748       2747  
      2616       2617       2628       2627       2737       2738       2749       2748  
      2617       2618       2629       2628       2738       2739       2750       2749  
      2619       2620       2631       2630       2740       2741       2752       2751  
      2620       2621       2632       2631       2741       2742       2753       2752  
      2621       2622       2633       2632       2742       2743       2754       2753  
      2622       2623       2634       2633       2743       2744       2755       2754  
      2623       2624       2635       2634       2744       2745       2756       2755  
      2624       2625       2636       2635       2745       2746       2757       2756  
      2625       2626       2637       2636       2746       2747       2758       2757  
      2626       2627       2638       2637       2747       2748       2759       2758  
      2627       2628       2639       2638       2748       2749       2760       2759  
      2628       2629       2640       2639       2749       2750       2761       2760  
      2630       2631       2642       2641       2751       2752       2763       2762  
      2631       2632       2643       2642       2752       2753       2764       2763  
      2632       2633       2644       2643       2753       2754       2765       2764  
      2633       2634       2645       2644       2754       2755       2766       2765  
      2634       2635       2646       2645       2755       2756       2767       2766  
      2635       2636       2647       2646       2756       2757       2768       2767  
      2636       2637       2648       2647       2757       2758       2769       2768  
      2637       2638       2649       2648       2758       2759       2770       2769  
      2638       2639       2650       2649       2759       2760       2771       2770  
      2639       2640       2651       2650       2760       2761       2772       2771  
      2641       2642       2653       2652       2762       2763       2774       2773  
      2642       2643       2654       2653       2763       2764       2775       2774  
      2643       2644       2655       2654       2764       2765       2776       2775  
      2644       2645       2656       2655       2765       2766       2777       2776  
      2645       2646       2657       2656       2766       2767       2778       2777  
      2646       2647       2658       2657       2767       2768       2779       2778  
      2647       2648       2659       2658       2768       2769       2780       2779  
      2648       2649       2660       2659       2769       2770       2781       2780  
      2649       2650       2661       2660       2770       2771       2782       2781  
      2650       2651       2662       2661       2771       2772       2783       2782  
      2663       2664       2675       2674       2784       2785       2796       2795  
      2664       2665       2676       2675       2785       2786       2797       2796  
      2665       2666       2677       2676       2786       2787       2798       2797  
      2666       2667       2678       2677       2787       2788       2799       2798  
      2667       2668       2679       2678       2788       2789       2800       2799  
      2668       2669       2680       2679       2789       2790       2801       2800  
      2669       2670       2681       2680       2790       2791       2802       2801  
      2670       2671       2682       2681       2791       2792       2803       2802  
      2671       2672       2683       2682       2792       2793       2804       2803  
      2672       2673       2684       2683       2793       2794       2805       2804  
      2674       2675       2686       2685       2795       2796       2807       2806  
      2675       2676       2687       2686       2796       2797       2808       2807  
      2676       2677       2688       2687       2797       2798       2809       2808  
      2677       2678       2689       2688       2798       2799       2810       2809  
      2678       2679       2690       2689       2799       2800       2811       2810  
      2679       2680       2691       2690       2800       2801       2812       2811  
      2680       2681       2692       2691       2801       2802       2813       2812  
      2681       2682       2693       2692       2802       2803       2814       2813  
      2682       2683       2694       2693       2803       2804       2815       2814  
      2683       2684       2695       2694       2804       2805       2816       2815  
      2685       2686       2697       2696       2806       2807       2818       2817  
      2686       2687       2698       2697       2807       2808       2819       2818  
      2687       2688       2699       2698       2808       2809       2820       2819  
      2688       2689       2700       2699       2809       2810       2821       2820  
      2689       2690       2701       2700       2810       2811       2822       2821  
      2690       2691       2702       2701       2811       2812       2823       2822  
      2691       2692       2703       2702       2812       2813       2824       2823  
      2692       2693       2704       2703       2813       2814       2825       2824  
      2693       2694       2705       2704       2814       2815       2826       2825  
      2694       2695       2706       2705       2815       2816       2827       2826  
      2696       2697       2708       2707       2817       2818       2829       2828  
      2697       2698       2709       2708       2818       2819       2830       2829  
      2698       2699       2710       2709       2819       2820       2831       2830  
      2699       2700       2711       2710       2820       2821       2832       2831  
      2700       2701       2712       2711       2821       2822       2833       2832  
      2701       2702       2713       2712       2822       2823       2834       2833  
      2702       2703       2714       2713       2823       2824       2835       2834  
      2703       2704       2715       2714       2824       2825       2836       2835  
      2704       2705       2716       2715       2825       2826       2837       2836  
      2705       2706       2717       2716       2826       2827       2838       2837  
      2707       2708       2719       2718       2828       2829       2840       2839  
      2708       2709       2720       2719       2829       2830       2841       2840  
      2709       2710       2721       2720       2830       2831       2842       2841  
      2710       2711       2722       2721       2831       2832       2843       2842  
      2711       2712       2723       2722       2832       2833       2844       2843  
      2712       2713       2724       2723       2833       2834       2845       2844  
      2713       2714       2725       2724       2834       2835       2846       2845  
      2714       2715       2726       2725       2835       2836       2847       2846  
      2715       2716       2727       2726       2836       2837       2848       2847  
      2716       2717       2728       2727       2837       2838       2849       2848  
      2718       2719       2730       2729       2839       2840       2851       2850  
      2719       2720       2731       2730       2840       2841       2852       2851  
      2720       2721       2732       2731       2841       2842       2853       2852  
      2721       2722       2733       2732       2842       2843       2854       2853  
      2722       2723       2734       2733       2843       2844       2855       2854  
      2723       2724       2735       2734       2844       2845       2856       2855  
      2724       2725       2736       2735       2845       2846       2857       2856  
      2725       2726       2737       2736       2846       2847       2858       2857  
      2726       2727       2738       2737       2847       2848       2859       2858  
      2727       2728       2739       2738       2848       2849       2860       2859  
      2729       2730       2741       2740       2850       2851       2862       2861  
      2730       2731       2742       2741       2851       2852       2863       2862  
      2731       2732       2743       2742       2852       2853       2864       2863  
      2732       2733       2744       2743       2853       2854       2865       2864  
      2733       2734       2745       2744       2854       2855       2866       2865  
      2734       2735       2746       2745       2855       2856       2867       2866  
      2735       2736       2747       2746       2856       2857       2868       2867  
      2736       2737       2748       2747       2857       2858       2869       2868  
      2737       2738       2749       2748       2858       2859       2870       2869  
      2738       2739       2750       2749       2859       2860       2871       2870  
      2740       2741       2752       2751       2861       2862       2873       2872  
      2741       2742       2753       2752       2862       2863       2874       2873  
      2742       2743       2754       2753       2863       2864       2875       2874  
      2743       2744       2755       2754       2864       2865       2876       2875  
      2744       2745       2756       2755       2865       2866       2877       2876  
      2745       2746       2757       2756       2866       2867       2878       2877  
      2746       2747       2758       2757       2867       2868       2879       2878  
      2747       2748       2759       2758       2868       2869       2880       2879  
      2748       2749       2760       2759       2869       2870       2881       2880  
      2749       2750       2761       2760       2870       2871       2882       2881  
      2751       2752       2763       2762       2872       2873       2884       2883  
      2752       2753       2764       2763       2873       2874       2885       2884  
      2753       2754       2765       2764       2874       2875       2886       2885  
      2754       2755       2766       2765       2875       2876       2887       2886  
      2755       2756       2767       2766       2876       2877       2888       2887  
      2756       2757       2768       2767       2877       2878       2889       2888  
      2757       2758       2769       2768       2878       2879       2890       2889  
      2758       2759       2770       2769       2879       2880       2891       2890  
      2759       2760       2771       2770       2880       2881       2892       2891  
      2760       2761       2772       2771       2881       2882       2893       2892  
      2762       2763       2774       2773       2883       2884       2895       2894  
      2763       2764       2775       2774       2884       2885       2896       2895  
      2764       2765       2776       2775       2885       2886       2897       2896  
      2765       2766       2777       2776       2886       2887       2898       2897  
      2766       2767       2778       2777       2887       2888       2899       2898  
      2767       2768       2779       2778       2888       2889       2900       2899  
      2768       2769       2780       2779       2889       2890       2901       2900  
      2769       2770       2781       2780       2890       2891       2902       2901  
      2770       2771       2782       2781       2891       2892       2903       2902  
      2771       2772       2783       2782       2892       2893       2904       2903  
      2784       2785       2796       2795       2905       2906       2917       2916  
      2785       2786       2797       2796       2906       2907       2918       2917  
      2786       2787       2798       2797       2907       2908       2919       2918  
      2787       2788       2799       2798       2908       2909       2920       2919  
      2788       2789       2800       2799       2909       2910       2921       2920  
      2789       2790       2801       2800       2910       2911       2922       2921  
      2790       2791       2802       2801       2911       2912       2923       2922  
      2791       2792       2803       2802       2912       2913       2924       2923  
      2792       2793       2804       2803       2913       2914       2925       2924  
      2793       2794       2805       2804       2914       2915       2926       2925  
      2795       2796       2807       2806       2916       2917       2928       2927  
      2796       2797       2808       2807       2917       2918       2929       2928  
      2797       2798       2809       2808       2918       2919       2930       2929  
      2798       2799       2810       2809       2919       2920       2931       2930  
      2799       2800       2811       2810       2920       2921       2932       2931  
      2800       2801       2812       2811       2921       2922       2933       2932  
      2801       2802       2813       2812       2922       2923       2934       2933  
      2802       2803       2814       2813       2923       2924       2935       2934  
      2803       2804       2815       2814       2924       2925       2936       2935  
      2804       2805       2816       2815       2925       2926       2937       2936  
      2806       2807       2818       2817       2927       2928       2939       2938  
      2807       2808       2819       2818       2928       2929       2940       2939  
      2808       2809       2820       2819       2929       2930       2941       2940  
      2809       2810       2821       2820       2930       2931       2942       2941  
      2810       2811       2822       2821       2931       2932       2943       2942  
      2811       2812       2823       2822       2932       2933       2944       2943  
      2812       2813       2824       2823       2933       2934       2945       2944  
      2813       2814       2825       2824       2934       2935       2946       2945  
      2814       2815       2826       2825       2935       2936       2947       2946  
      2815       2816       2827       2826       2936       2937       2948       2947  
      2817       2818       2829       2828       2938       2939       2950       2949  
      2818       2819       2830       2829       2939       2940       2951       2950  
      2819       2820       2831       2830       2940       2941       2952       2951  
      2820       2821       2832       2831       2941       2942       2953       2952  
      2821       2822       2833       2832       2942       2943       2954       2953  
      2822       2823       2834       2833       2943       2944       2955       2954  
      2823       2824       2835       2834       2944       2945       2956       2955  
      2824       2825       2836       2835       2945       2946       2957       2956  
      2825       2826       2837       2836       2946       2947       2958       2957  
      2826       2827       2838       2837       2947       2948       2959       2958  
      2828       2829       2840       2839       2949       2950       2961       2960  
      2829       2830       2841       2840       2950       2951       2962       2961  
      2830       2831       2842       2841       2951       2952       2963       2962  
      2831       2832       2843       2842       2952       2953       2964       2963  
      2832       2833       2844       2843       2953       2954       2965       2964  
      2833       2834       2845       2844       2954       2955       2966       2965  
      2834       2835       2846       2845       2955       2956       2967       2966  
      2835       2836       2847       2846       2956       2957       2968       2967  
      2836       2837       2848       2847       2957       2958       2969       2968  
      2837       2838       2849       2848       2958       2959       2970       2969  
      2839       2840       2851       2850       2960       2961       2972       2971  
      2840       2841       2852       2851       2961       2962       2973       2972  
      2841       2842       2853       2852       2962       2963       2974       2973  
      2842       2843       2854       2853       2963       2964       2975       2974  
      2843       2844       2855       2854       2964       2965       2976       2975  
      2844       2845       2856       2855       2965       2966       2977       2976  
      2845       2846       2857       2856       2966       2967       2978       2977  
      2846       2847       2858       2857       2967       2968       2979       2978  
      2847       2848       2859       2858       2968       2969       2980       2979  
      2848       2849       2860       2859       2969       2970       2981       2980  
      2850       2851       2862       2861       2971       2972       2983       2982  
      2851       2852       2863       2862       2972       2973       2984       2983  
      2852       2853       2864       2863       2973       2974       2985       2984  
      2853       2854       2865       2864       2974       2975       2986       2985  
      2854       2855       2866       2865       2975       2976       2987       2986  
      2855       2856       2867       2866       2976       2977       2988       2987  
      2856       2857       2868       2867       2977       2978       2989       2988  
      2857       2858       2869       2868       2978       2979       2990       2989  
      2858       2859       2870       2869       2979       2980       2991       2990  
      2859       2860       2871       2870       2980       2981       2992       2991  
      2861       2862       2873       2872       2982       2983       2994       2993  
      2862       2863       2874       2873       2983       2984       2995       2994  
      2863       2864       2875       2874       2984       2985       2996       2995  
      2864       2865       2876       2875       2985       2986       2997       2996  
      2865       2866       2877       2876       2986       2987       2998       2997  
      2866       2867       2878       2877       2987       2988       2999       2998  
      2867       2868       2879       2878       2988       2989       3000       2999  
      2868       2869       2880       2879       2989       2990       3001       3000  
      2869       2870       2881       2880       2990       2991       3002       3001  
      2870       2871       2882       2881       2991       2992       3003       3002  
      2872       2873       2884       2883       2993       2994       3005       3004  
      2873       2874       2885       2884       2994       2995       3006       3005  
      2874       2875       2886       2885       2995       2996       3007       3006  
      2875       2876       2887       2886       2996       2997       3008       3007  
      2876       2877       2888       2887       2997       2998       3009       3008  
      2877       2878       2889       2888       2998       2999       3010       3009  
      2878       2879       2890       2889       2999       3000       3011       3010  
      2879       2880       2891       2890       3000       3001       3012       3011  
      2880       2881       2892       2891       3001       3002       3013       3012  
      2881       2882       2893       2892       3002       3003       3014       3013  
      2883       2884       2895       2894       3004       3005       3016       3015  
      2884       2885       2896       2895       3005       3006       3017       3016  
      2885       2886       2897       2896       3006       3007       3018       3017  
      2886       2887       2898       2897       3007       3008       3019       3018  
      2887       2888       2899       2898       3008       3009       3020       3019  
      2888       2889       2900       2899       3009       3010       3021       3020  
      2889       2890       2901       2900       3010       3011       3022       3021  
      2890       2891       2902       2901       3011       3012       3023       3022  
      2891       2892       2903       2902       3012       3013       3024       3023  
      2892       2893       2904       2903       3013       3014       3025       3024  
      2905       2906       2917       2916       3026       3027       3038       3037  
      2906       2907       2918       2917       3027       3028       3039       3038  
      2907       2908       2919       2918       3028       3029       3040       3039  
      2908       2909       2920       2919       3029       3030       3041       3040  
      2909       2910       2921       2920       3030       3031       3042       3041  
      2910       2911       2922       2921       3031       3032       3043       3042  
      2911       2912       2923       2922       3032       3033       3044       3043  
      2912       2913       2924       2923       3033       3034       3045       3044  
      2913       2914       2925       2924       3034       3035       3046       3045  
      2914       2915       2926       2925       3035       3036       3047       3046  
      2916       2917       2928       2927       3037       3038       3049       3048  
      2917       2918       2929       2928       3038       3039       3050       3049  
      2918       2919       2930       2929       3039       3040       3051       3050  
      2919       2920       2931       2930       3040       3041       3052       3051  
      2920       2921       2932       2931       3041       3042       3053       3052  
      2921       2922       2933       2932       3042       3043       3054       3053  
      2922       2923       2934       2933       3043       3044       3055       3054  
      2923       2924       2935       2934       3044       3045       3056       3055  
      2924       2925       2936       2935       3045       3046       3057       3056  
      2925       2926       2937       2936       3046       3047       3058       3057  
      2927       2928       2939       2938       3048       3049       3060       3059  
      2928       2929       2940       2939       3049       3050       3061       3060  
      2929       2930       2941       2940       3050       3051       3062       3061  
      2930       2931       2942       2941       3051       3052       3063       3062  
      2931       2932       2943       2942       3052       3053       3064       3063  
      2932       2933       2944       2943       3053       3054       3065       3064  
      2933       2934       2945       2944       3054       3055       3066       3065  
      2934       2935       2946       2945       3055       3056       3067       3066  
      2935       2936       2947       2946       3056       3057       3068       3067  
      2936       2937       2948       2947       3057       3058       3069       3068  
      2938       2939       2950       2949       3059       3060       3071       3070  
      2939       2940       2951       2950       3060       3061       3072       3071  
      2940       2941       2952       2951       3061       3062       3073       3072  
      2941       2942       2953       2952       3062       3063       3074       3073  
      2942       2943       2954       2953       3063       3064       3075       3074  
      2943       2944       2955       2954       3064       3065       3076       3075  
      2944       2945       2956       2955       3065       3066       3077       3076  
      2945       2946       2957       2956       3066       3067       3078       3077  
      2946       2947       2958       2957       3067       3068       3079       3078  
      2947       2948       2959       2958       3068       3069       3080       3079  
      2949       2950       2961       2960       3070       3071       3082       3081  
      2950       2951       2962       2961       3071       3072       3083       3082  
      2951       2952       2963       2962       3072       3073       3084       3083  
      2952       2953       2964       2963       3073       3074       3085       3084  
      2953       2954       2965       2964       3074       3075       3086       3085  
      2954       2955       2966       2965       3075       3076       3087       3086  
      2955       2956       2967       2966       3076       3077       3088       3087  
      2956       2957       2968       2967       3077       3078       3089       3088  
      2957       2958       2969       2968       3078       3079       3090       3089  
      2958       2959       2970       2969       3079       3080       3091       3090  
      2960       2961       2972       2971       3081       3082       3093       3092  
      2961       2962       2973       2972       3082       3083       3094       3093  
      2962       2963       2974       2973       3083       3084       3095       3094  
      2963       2964       2975       2974       3084       3085       3096       3095  
      2964       2965       2976       2975       3085       3086       3097       3096  
      2965       2966       2977       2976       3086       3087       3098       3097  
      2966       2967       2978       2977       3087       3088       3099       3098  
      2967       2968       2979       2978       3088       3089       3100       3099  
      2968       2969       2980       2979       3089       3090       3101       3100  
      2969       2970       2981       2980       3090       3091       3102       3101  
      2971       2972       2983       2982       3092       3093       3104       3103  
      2972       2973       2984       2983       3093       3094       3105       3104  
      2973       2974       2985       2984       3094       3095       3106       3105  
      2974       2975       2986       2985       3095       3096       3107       3106  
      2975       2976       2987       2986       3096       3097       3108       3107  
      2976       2977       2988       2987       3097       3098       3109       3108  
      2977       2978       2989       2988       3098       3099       3110       3109  
      2978       2979       2990       2989       3099       3100       3111       3110  
      2979       2980       2991       2990       3100       3101       3112       3111  
      2980       2981       2992       2991       3101       3102       3113       3112  
      2982       2983       2994       2993       3103       3104       3115       3114  
      2983       2984       2995       2994       3104       3105       3116       3115  
      2984       2985       2996       2995       3105       3106       3117       3116  
      2985       2986       2997       2996       3106       3107       3118       3117  
      2986       2987       2998       2997       3107       3108       3119       3118  
      2987       2988       2999       2998       3108       3109       3120       3119  
      2988       2989       3000       2999       3109       3110       3121       3120  
      2989       2990       3001       3000       3110       3111       3122       3121  
      2990       2991       3002       3001       3111       3112       3123       3122  
      2991       2992       3003       3002       3112       3113       3124       3123  
      2993       2994       3005       3004       3114       3115       3126       3125  
      2994       2995       3006       3005       3115       3116       3127       3126  
      2995       2996       3007       3006       3116       3117       3128       3127  
      2996       2997       3008       3007       3117       3118       3129       3128  
      2997       2998       3009       3008       3118       3119       3130       3129  
      2998       2999       3010       3009       3119       3120       3131       3130  
      2999       3000       3011       3010       3120       3121       3132       3131  
      3000       3001       3012       3011       3121       3122       3133       3132  
      3001       3002       3013       3012       3122       3123       3134       3133  
      3002       3003       3014       3013       3123       3124       3135       3134  
      3004       3005       3016       3015       3125       3126       3137       3136  
      3005       3006       3017       3016       3126       3127       3138       3137  
      3006       3007       3018       3017       3127       3128       3139       3138  
      3007       3008       3019       3018       3128       3129       3140       3139  
      3008       3009       3020       3019       3129       3130       3141       3140  
      3009       3010       3021       3020       3130       3131       3142       3141  
      3010       3011       3022       3021       3131       3132       3143       3142  
      3011       3012       3023       3022       3132       3133       3144       3143  
      3012       3013       3024       3023       3133       3134       3145       3144  
      3013       3014       3025       3024       3134       3135       3146       3145  
      3026       3027       3038       3037       3147       3148       3159       3158  
      3027       3028       3039       3038       3148       3149       3160       3159  
      3028       3029       3040       3039       3149       3150       3161       3160  
      3029       3030       3041       3040       3150       3151       3162       3161  
      3030       3031       3042       3041       3151       3152       3163       3162  
      3031       3032       3043       3042       3152       3153       3164       3163  
      3032       3033       3044       3043       3153       3154       3165       3164  
      3033       3034       3045       3044       3154       3155       3166       3165  
      3034       3035       3046       3045       3155       3156       3167       3166  
      3035       3036       3047       3046       3156       3157       3168       3167  
      3037       3038       3049       3048       3158       3159       3170       3169  
      3038       3039       3050       3049       3159       3160       3171       3170  
      3039       3040       3051       3050       3160       3161       3172       3171  
      3040       3041       3052       3051       3161       3162       3173       3172  
      3041       3042       3053       3052       3162       3163       3174       3173  
      3042       3043       3054       3053       3163       3164       3175       3174  
      3043       3044       3055       3054       3164       3165       3176       3175  
      3044       3045       3056       3055       3165       3166       3177       3176  
      3045       3046       3057       3056       3166       3167       3178       3177  
      3046       3047       3058       3057       3167       3168       3179       3178  
      3048       3049       3060       3059       3169       3170       3181       3180  
      3049       3050       3061       3060       3170       3171       3182       3181  
      3050       3051       3062       3061       3171       3172       3183       3182  
      3051       3052       3063       3062       3172       3173       3184       3183  
      3052       3053       3064       3063       3173       3174       3185       3184  
      3053       3054       3065       3064       3174       3175       3186       3185  
      3054       3055       3066       3065       3175       3176       3187       3186  
      3055       3056       3067       3066       3176       3177       3188       3187  
      3056       3057       3068       3067       3177       3178       3189       3188  
      3057       3058       3069       3068       3178       3179       3190       3189  
      3059       3060       3071       3070       3180       3181       3192       3191  
      3060       3061       3072       3071       3181       3182       3193       3192  
      3061       3062       3073       3072       3182       3183       3194       3193  
      3062       3063       3074       3073       3183       3184       3195       3194  
      3063       3064       3075       3074       3184       3185       3196       3195  
      3064       3065       3076       3075       3185       3186       3197       3196  
      3065       3066       3077       3076       3186       3187       3198       3197  
      3066       3067       3078       3077       3187       3188       3199       3198  
      3067       3068       3079       3078       3188       3189       3200       3199  
      3068       3069       3080       3079       3189       3190       3201       3200  
      3070       3071       3082       3081       3191       3192       3203       3202  
      3071       3072       3083       3082       3192       3193       3204       3203  
      3072       3073       3084       3083       3193       3194       3205       3204  
      3073       3074       3085       3084       3194       3195       3206       3205  
      3074       3075       3086       3085       3195       3196       3207       3206  
      3075       3076       3087       3086       3196       3197       3208       3207  
      3076       3077       3088       3087       3197       3198       3209       3208  
      3077       3078       3089       3088       3198       3199       3210       3209  
      3078       3079       3090       3089       3199       3200       3211       3210  
      3079       3080       3091       3090       3200       3201       3212       3211  
      3081       3082       3093       3092       3202       3203       3214       3213  
      3082       3083       3094       3093       3203       3204       3215       3214  
      3083       3084       3095       3094       3204       3205       3216       3215  
      3084       3085       3096       3095       3205       3206       3217       3216  
      3085       3086       3097       3096       3206       3207       3218       3217  
      3086       3087       3098       3097       3207       3208       3219       3218  
      3087       3088       3099       3098       3208       3209       3220       3219  
      3088       3089       3100       3099       3209       3210       3221       3220  
      3089       3090       3101       3100       3210       3211       3222       3221  
      3090       3091       3102       3101       3211       3212       3223       3222  
      3092       3093       3104       3103       3213       3214       3225       3224  
      3093       3094       3105       3104       3214       3215       3226       3225  
      3094       3095       3106       3105       3215       3216       3227       3226  
      3095       3096       3107       3106       3216       3217       3228       3227  
      3096       3097       3108       3107       3217       3218       3229       3228  
      3097       3098       3109       3108       3218       3219       3230       3229  
      3098       3099       3110       3109       3219       3220       3231       3230  
      3099       3100       3111       3110       3220       3221       3232       3231  
      3100       3101       3112       3111       3221       3222       3233       3232  
      3101       3102       3113       3112       3222       3223       3234       3233  
      3103       3104       3115       3114       3224       3225       3236       3235  
      3104       3105       3116       3115       3225       3226       3237       3236  
      3105       3106       3117       3116       3226       3227       3238       3237  
      3106       3107       3118       3117       3227       3228       3239       3238  
      3107       3108       3119       3118       3228       3229       3240       3239  
      3108       3109       3120       3119       3229       3230       3241       3240  
      3109       3110       3121       3120       3230       3231       3242       3241  
      3110       3111       3122       3121       3231       3232       3243       3242  
      3111       3112       3123       3122       3232       3233       3244       3243  
      3112       3113       3124       3123       3233       3234       3245       3244  
      3114       3115       3126       3125       3235       3236       3247       3246  
      3115       3116       3127       3126       3236       3237       3248       3247  
      3116       3117       3128       3127       3237       3238       3249       3248  
      3117       3118       3129       3128       3238       3239       3250       3249  
      3118       3119       3130       3129       3239       3240       3251       3250  
      3119       3120       3131       3130       3240       3241       3252       3251  
      3120       3121       3132       3131       3241       3242       3253       3252  
      3121       3122       3133       3132       3242       3243       3254       3253  
      3122       3123       3134       3133       3243       3244       3255       3254  
      3123       3124       3135       3134       3244       3245       3256       3255  
      3125       3126       3137       3136       3246       3247       3258       3257  
      3126       3127       3138       3137       3247       3248       3259       3258  
      3127       3128       3139       3138       3248       3249       3260       3259  
      3128       3129       3140       3139       3249       3250       3261       3260  
      3129       3130       3141       3140       3250       3251       3262       3261  
      3130       3131       3142       3141       3251       3252       3263       3262  
      3131       3132       3143       3142       3252       3253       3264       3263  
      3132       3133       3144       3143       3253       3254       3265       3264  
      3133       3134       3145       3144       3254       3255       3266       3265  
      3134       3135       3146       3145       3255       3256       3267       3266  
      3147       3148       3159       3158       3268       3269       3280       3279  
      3148       3149       3160       3159       3269       3270       3281       3280  
      3149       3150       3161       3160       3270       3271       3282       3281  
      3150       3151       3162       3161       3271       3272       3283       3282  
      3151       3152       3163       3162       3272       3273       3284       3283  
      3152       3153       3164       3163       3273       3274       3285       3284  
      3153       3154       3165       3164       3274       3275       3286       3285  
      3154       3155       3166       3165       3275       3276       3287       3286  
      3155       3156       3167       3166       3276       3277       3288       3287  
      3156       3157       3168       3167       3277       3278       3289       3288  
      3158       3159       3170       3169       3279       3280       3291       3290  
      3159       3160       3171       3170       3280       3281       3292       3291  
      3160       3161       3172       3171       3281       3282       3293       3292  
      3161       3162       3173       3172       3282       3283       3294       3293  
      3162       3163       3174       3173       3283       3284       3295       3294  
      3163       3164       3175       3174       3284       3285       3296       3295  
      3164       3165       3176       3175       3285       3286       3297       3296  
      3165       3166       3177       3176       3286       3287       3298       3297  
      3166       3167       3178       3177       3287       3288       3299       3298  
      3167       3168       3179       3178       3288       3289       3300       3299  
      3169       3170       3181       3180       3290       3291       3302       3301  
      3170       3171       3182       3181       3291       3292       3303       3302  
      3171       3172       3183       3182       3292       3293       3304       3303  
      3172       3173       3184       3183       3293       3294       3305       3304  
      3173       3174       3185       3184       3294       3295       3306       3305  
      3174       3175       3186       3185       3295       3296       3307       3306  
      3175       3176       3187       3186       3296       3297       3308       3307  
      3176       3177       3188       3187       3297       3298       3309       3308  
      3177       3178       3189       3188       3298       3299       3310       3309  
      3178       3179       3190       3189       3299       3300       3311       3310  
      3180       3181       3192       3191       3301       3302       3313       3312  
      3181       3182       3193       3192       3302       3303       3314       3313  
      3182       3183       3194       3193       3303       3304       3315       3314  
      3183       3184       3195       3194       3304       3305       3316       3315  
      3184       3185       3196       3195       3305       3306       3317       3316  
      3185       3186       3197       3196       3306       3307       3318       3317  
      3186       3187       3198       3197       3307       3308       3319       3318  
      3187       3188       3199       3198       3308       3309       3320       3319  
      3188       3189       3200       3199       3309       3310       3321       3320  
      3189       3190       3201       3200       3310       3311       3322       3321  
      3191       3192       3203       3202       3312       3313       3324       3323  
      3192       3193       3204       3203       3313       3314       3325       3324  
      3193       3194       3205       3204       3314       3315       3326       3325  
      3194       3195       3206       3205       3315       3316       3327       3326  
      3195       3196       3207       3206       3316       3317       3328       3327  
      3196       3197       3208       3207       3317       3318       3329       3328  
      3197       3198       3209       3208       3318       3319       3330       3329  
      3198       3199       3210       3209       3319       3320       3331       3330  
      3199       3200       3211       3210       3320       3321       3332       3331  
      3200       3201       3212       3211       3321       3322       3333       3332  
      3202       3203       3214       3213       3323       3324       3335       3334  
      3203       3204       3215       3214       3324       3325       3336       3335  
      3204       3205       3216       3215       3325       3326       3337       3336  
      3205       3206       3217       3216       3326       3327       3338       3337  
      3206       3207       3218       3217       3327       3328       3339       3338  
      3207       3208       3219       3218       3328       3329       3340       3339  
      3208       3209       3220       3219       3329       3330       3341       3340  
      3209       3210       3221       3220       3330       3331       3342       3341  
      3210       3211       3222       3221       3331       3332       3343       3342  
      3211       3212       3223       3222       3332       3333       3344       3343  
      3213       3214       3225       3224       3334       3335       3346       3345  
      3214       3215       3226       3225       3335       3336       3347       3346  
      3215       3216       3227       3226       3336       3337       3348       3347  
      3216       3217       3228       3227       3337       3338       3349       3348  
      3217       3218       3229       3228       3338       3339       3350       3349  
      3218       3219       3230       3229       3339       3340       3351       3350  
      3219       3220       3231       3230       3340       3341       3352       3351  
      3220       3221       3232       3231       3341       3342       3353       3352  
      3221       3222       3233       3232       3342       3343       3354       3353  
      3222       3223       3234       3233       3343       3344       3355       3354  
      3224       3225       3236       3235       3345       3346       3357       3356  
      3225       3226       3237       3236       3346       3347       3358       3357  
      3226       3227       3238       3237       3347       3348       3359       3358  
      3227       3228       3239       3238       3348       3349       3360       3359  
      3228       3229       3240       3239       3349       3350       3361       3360  
      3229       3230       3241       3240       3350       3351       3362       3361  
      3230       3231       3242       3241       3351       3352       3363       3362  
      3231       3232       3243       3242       3352       3353       3364       3363  
      3232       3233       3244       3243       3353       3354       3365       3364  
      3233       3234       3245       3244       3354       3355       3366       3365  
      3235       3236       3247       3246       3356       3357       3368       3367  
      3236       3237       3248       3247       3357       3358       3369       3368  
      3237       3238       3249       3248       3358       3359       3370       3369  
      3238       3239       3250       3249       3359       3360       3371       3370  
      3239       3240       3251       3250       3360       3361       3372       3371  
      3240       3241       3252       3251       3361       3362       3373       3372  
      3241       3242       3253       3252       3362       3363       3374       3373  
      3242       3243       3254       3253       3363       3364       3375       3374  
      3243       3244       3255       3254       3364       3365       3376       3375  
      3244       3245       3256       3255       3365       3366       3377       3376  
      3246       3247       3258       3257       3367       3368       3379       3378  
      3247       3248       3259       3258       3368       3369       3380       3379  
      3248       3249       3260       3259       3369       3370       3381       3380  
      3249       3250       3261       3260       3370       3371       3382       3381  
      3250       3251       3262       3261       3371       3372       3383       3382  
      3251       3252       3263       3262       3372       3373       3384       3383  
      3252       3253       3264       3263       3373       3374       3385       3384  
      3253       3254       3265       3264       3374       3375       3386       3385  
      3254       3255       3266       3265       3375       3376       3387       3386  
      3255       3256       3267       3266       3376       3377       3388       3387  
      3268       3269       3280       3279       3389       3390       3401       3400  
      3269       3270       3281       3280       3390       3391       3402       3401  
      3270       3271       3282       3281       3391       3392       3403       3402  
      3271       3272       3283       3282       3392       3393       3404       3403  
      3272       3273       3284       3283       3393       3394       3405       3404  
      3273       3274       3285       3284       3394       3395       3406       3405  
      3274       3275       3286       3285       3395       3396       3407       3406  
      3275       3276       3287       3286       3396       3397       3408       3407  
      3276       3277       3288       3287       3397       3398       3409       3408  
      3277       3278       3289       3288       3398       3399       3410       3409  
      3279       3280       3291       3290       3400       3401       3412       3411  
      3280       3281       3292       3291       3401       3402       3413       3412  
      3281       3282       3293       3292       3402       3403       3414       3413  
      3282       3283       3294       3293       3403       3404       3415       3414  
      3283       3284       3295       3294       3404       3405       3416       3415  
      3284       3285       3296       3295       3405       3406       3417       3416  
      3285       3286       3297       3296       3406       3407       3418       3417  
      3286       3287       3298       3297       3407       3408       3419       3418  
      3287       3288       3299       3298       3408       3409       3420       3419  
      3288       3289       3300       3299       3409       3410       3421       3420  
      3290       3291       3302       3301       3411       3412       3423       3422  
      3291       3292       3303       3302       3412       3413       3424       3423  
      3292       3293       3304       3303       3413       3414       3425       3424  
      3293       3294       3305       3304       3414       3415       3426       3425  
      3294       3295       3306       3305       3415       3416       3427       3426  
      3295       3296       3307       3306       3416       3417       3428       3427  
      3296       3297       3308       3307       3417       3418       3429       3428  
      3297       3298       3309       3308       3418       3419       3430       3429  
      3298       3299       3310       3309       3419       3420       3431       3430  
      3299       3300       3311       3310       3420       3421       3432       3431  
      3301       3302       3313       3312       3422       3423       3434       3433  
      3302       3303       3314       3313       3423       3424       3435       3434  
      3303       3304       3315       3314       3424       3425       3436       3435  
      3304       3305       3316       3315       3425       3426       3437       3436  
      3305       3306       3317       3316       3426       3427       3438       3437  
      3306       3307       3318       3317       3427       3428       3439       3438  
      3307       3308       3319       3318       3428       3429       3440       3439  
      3308       3309       3320       3319       3429       3430       3441       3440  
      3309       3310       3321       3320       3430       3431       3442       3441  
      3310       3311       3322       3321       3431       3432       3443       3442  
      3312       3313       3324       3323       3433       3434       3445       3444  
      3313       3314       3325       3324       3434       3435       3446       3445  
      3314       3315       3326       3325       3435       3436       3447       3446  
      3315       3316       3327       3326       3436       3437       3448       3447  
      3316       3317       3328       3327       3437       3438       3449       3448  
      3317       3318       3329       3328       3438       3439       3450       3449  
      3318       3319       3330       3329       3439       3440       3451       3450  
      3319       3320       3331       3330       3440       3441       3452       3451  
      3320       3321       3332       3331       3441       3442       3453       3452  
      3321       3322       3333       3332       3442       3443       3454       3453  
      3323       3324       3335       3334       3444       3445       3456       3455  
      3324       3325       3336       3335       3445       3446       3457       3456  
      3325       3326       3337       3336       3446       3447       3458       3457  
      3326       3327       3338       3337       3447       3448       3459       3458  
      3327       3328       3339       3338       3448       3449       3460       3459  
      3328       3329       3340       3339       3449       3450       3461       3460  
      3329       3330       3341       3340       3450       3451       3462       3461  
      3330       3331       3342       3341       3451       3452       3463       3462  
      3331       3332       3343       3342       3452       3453       3464       3463  
      3332       3333       3344       3343       3453       3454       3465       3464  
      3334       3335       3346       3345       3455       3456       3467       3466  
      3335       3336       3347       3346       3456       3457       3468       3467  
      3336       3337       3348       3347       3457       3458       3469       3468  
      3337       3338       3349       3348       3458       3459       3470       3469  
      3338       3339       3350       3349       3459       3460       3471       3470  
      3339       3340       3351       3350       3460       3461       3472       3471  
      3340       3341       3352       3351       3461       3462       3473       3472  
      3341       3342       3353       3352       3462       3463       3474       3473  
      3342       3343       3354       3353       3463       3464       3475       3474  
      3343       3344       3355       3354       3464       3465       3476       3475  
      3345       3346       3357       3356       3466       3467       3478       3477  
      3346       3347       3358       3357       3467       3468       3479       3478  
      3347       3348       3359       3358       3468       3469       3480       3479  
      3348       3349       3360       3359       3469       3470       3481       3480  
      3349       3350       3361       3360       3470       3471       3482       3481  
      3350       3351       3362       3361       3471       3472       3483       3482  
      3351       3352       3363       3362       3472       3473       3484       3483  
      3352       3353       3364       3363       3473       3474       3485       3484  
      3353       3354       3365       3364       3474       3475       3486       3485  
      3354       3355       3366       3365       3475       3476       3487       3486  
      3356       3357       3368       3367       3477       3478       3489       3488  
      3357       3358       3369       3368       3478       3479       3490       3489  
      3358       3359       3370       3369       3479       3480       3491       3490  
      3359       3360       3371       3370       3480       3481       3492       3491  
      3360       3361       3372       3371       3481       3482       3493       3492  
      3361       3362       3373       3372       3482       3483       3494       3493  
      3362       3363       3374       3373       3483       3484       3495       3494  
      3363       3364       3375       3374       3484       3485       3496       3495  
      3364       3365       3376       3375       3485       3486       3497       3496  
      3365       3366       3377       3376       3486       3487       3498       3497  
      3367       3368       3379       3378       3488       3489       3500       3499  
      3368       3369       3380       3379       3489       3490       3501       3500  
      3369       3370       3381       3380       3490       3491       3502       3501  
      3370       3371       3382       3381       3491       3492       3503       3502  
      3371       3372       3383       3382       3492       3493       3504       3503  
      3372       3373       3384       3383       3493       3494       3505       3504  
      3373       3374       3385       3384       3494       3495       3506       3505  
      3374       3375       3386       3385       3495       3496       3507       3506  
      3375       3376       3387       3386       3496       3497       3508       3507  
      3376       3377       3388       3387       3497       3498       3509       3508  
      3389       3390       3401       3400       3510       3511       3522       3521  
      3390       3391       3402       3401       3511       3512       3523       3522  
      3391       3392       3403       3402       3512       3513       3524       3523  
      3392       3393       3404       3403       3513       3514       3525       3524  
      3393       3394       3405       3404       3514       3515       3526       3525  
      3394       3395       3406       3405       3515       3516       3527       3526  
      3395       3396       3407       3406       3516       3517       3528       3527  
      3396       3397       3408       3407       3517       3518       3529       3528  
      3397       3398       3409       3408       3518       3519       3530       3529  
      3398       3399       3410       3409       3519       3520       3531       3530  
      3400       3401       3412       3411       3521       3522       3533       3532  
      3401       3402       3413       3412       3522       3523       3534       3533  
      3402       3403       3414       3413       3523       3524       3535       3534  
      3403       3404       3415       3414       3524       3525       3536       3535  
      3404       3405       3416       3415       3525       3526       3537       3536  
      3405       3406       3417       3416       3526       3527       3538       3537  
      3406       3407       3418       3417       3527       3528       3539       3538  
      3407       3408       3419       3418       3528       3529       3540       3539  
      3408       3409       3420       3419       3529       3530       3541       3540  
      3409       3410       3421       3420       3530       3531       3542       3541  
      3411       3412       3423       3422       3532       3533       3544       3543  
      3412       3413       3424       3423       3533       3534       3545       3544  
      3413       3414       3425       3424       3534       3535       3546       3545  
      3414       3415       3426       3425       3535       3536       3547       3546  
      3415       3416       3427       3426       3536       3537       3548       3547  
      3416       3417       3428       3427       3537       3538       3549       3548  
      3417       3418       3429       3428       3538       3539       3550       3549  
      3418       3419       3430       3429       3539       3540       3551       3550  
      3419       3420       3431       3430       3540       3541       3552       3551  
      3420       3421       3432       3431       3541       3542       3553       3552  
      3422       3423       3434       3433       3543       3544       3555       3554  
      3423       3424       3435       3434       3544       3545       3556       3555  
      3424       3425       3436       3435       3545       3546       3557       3556  
      3425       3426       3437       3436       3546       3547       3558       3557  
      3426       3427       3438       3437       3547       3548       3559       3558  
      3427       3428       3439       3438       3548       3549       3560       3559  
      3428       3429       3440       3439       3549       3550       3561       3560  
      3429       3430       3441       3440       3550       3551       3562       3561  
      3430       3431       3442       3441       3551       3552       3563       3562  
      3431       3432       3443       3442       3552       3553       3564       3563  
      3433       3434       3445       3444       3554       3555       3566       3565  
      3434       3435       3446       3445       3555       3556       3567       3566  
      3435       3436       3447       3446       3556       3557       3568       3567  
      3436       3437       3448       3447       3557       3558       3569       3568  
      3437       3438       3449       3448       3558       3559       3570       3569  
      3438       3439       3450       3449       3559       3560       3571       3570  
      3439       3440       3451       3450       3560       3561       3572       3571  
      3440       3441       3452       3451       3561       3562       3573       3572  
      3441       3442       3453       3452       3562       3563       3574       3573  
      3442       3443       3454       3453       3563       3564       3575       3574  
      3444       3445       3456       3455       3565       3566       3577       3576  
      3445       3446       3457       3456       3566       3567       3578       3577  
      3446       3447       3458       3457       3567       3568       3579       3578  
      3447       3448       3459       3458       3568       3569       3580       3579  
      3448       3449       3460       3459       3569       3570       3581       3580  
      3449       3450       3461       3460       3570       3571       3582       3581  
      3450       3451       3462       3461       3571       3572       3583       3582  
      3451       3452       3463       3462       3572       3573       3584       3583  
      3452       3453       3464       3463       3573       3574       3585       3584  
      3453       3454       3465       3464       3574       3575       3586       3585  
      3455       3456       3467       3466       3576       3577       3588       3587  
      3456       3457       3468       3467       3577       3578       3589       3588  
      3457       3458       3469       3468       3578       3579       3590       3589  
      3458       3459       3470       3469       3579       3580       3591       3590  
      3459       3460       3471       3470       3580       3581       3592       3591  
      3460       3461       3472       3471       3581       3582       3593       3592  
      3461       3462       3473       3472       3582       3583       3594       3593  
      3462       3463       3474       3473       3583       3584       3595       3594  
      3463       3464       3475       3474       3584       3585       3596       3595  
      3464       3465       3476       3475       3585       3586       3597       3596  
      3466       3467       3478       3477       3587       3588       3599       3598  
      3467       3468       3479       3478       3588       3589       3600       3599  
      3468       3469       3480       3479       3589       3590       3601       3600  
      3469       3470       3481       3480       3590       3591       3602       3601  
      3470       3471       3482       3481       3591       3592       3603       3602  
      3471       3472       3483       3482       3592       3593       3604       3603  
      3472       3473       3484       3483       3593       3594       3605       3604  
      3473       3474       3485       3484       3594       3595       3606       3605  
      3474       3475       3486       3485       3595       3596       3607       3606  
      3475       3476       3487       3486       3596       3597       3608       3607  
      3477       3478       3489       3488       3598       3599       3610       3609  
      3478       3479       3490       3489       3599       3600       3611       3610  
      3479       3480       3491       3490       3600       3601       3612       3611  
      3480       3481       3492       3491       3601       3602       3613       3612  
      3481       3482       3493       3492       3602       3603       3614       3613  
      3482       3483       3494       3493       3603       3604       3615       3614  
      3483       3484       3495       3494       3604       3605       3616       3615  
      3484       3485       3496       3495       3605       3606       3617       3616  
      3485       3486       3497       3496       3606       3607       3618       3617  
      3486       3487       3498       3497       3607       3608       3619       3618  
      3488       3489       3500       3499       3609       3610       3621       3620  
      3489       3490       3501       3500       3610       3611       3622       3621  
      3490       3491       3502       3501       3611       3612       3623       3622  
      3491       3492       3503       3502       3612       3613       3624       3623  
      3492       3493       3504       3503       3613       3614       3625       3624  
      3493       3494       3505       3504       3614       3615       3626       3625  
      3494       3495       3506       3505       3615       3616       3627       3626  
      3495       3496       3507       3506       3616       3617       3628       3627  
      3496       3497       3508       3507       3617       3618       3629       3628  
      3497       3498       3509       3508       3618       3619       3630       3629  
      3510       3511       3522       3521       3631       3632       3643       3642  
      3511       3512       3523       3522       3632       3633       3644       3643  
      3512       3513       3524       3523       3633       3634       3645       3644  
      3513       3514       3525       3524       3634       3635       3646       3645  
      3514       3515       3526       3525       3635       3636       3647       3646  
      3515       3516       3527       3526       3636       3637       3648       3647  
      3516       3517       3528       3527       3637       3638       3649       3648  
      3517       3518       3529       3528       3638       3639       3650       3649  
      3518       3519       3530       3529       3639       3640       3651       3650  
      3519       3520       3531       3530       3640       3641       3652       3651  
      3521       3522       3533       3532       3642       3643       3654       3653  
      3522       3523       3534       3533       3643       3644       3655       3654  
      3523       3524       3535       3534       3644       3645       3656       3655  
      3524       3525       3536       3535       3645       3646       3657       3656  
      3525       3526       3537       3536       3646       3647       3658       3657  
      3526       3527       3538       3537       3647       3648       3659       3658  
      3527       3528       3539       3538       3648       3649       3660       3659  
      3528       3529       3540       3539       3649       3650       3661       3660  
      3529       3530       3541       3540       3650       3651       3662       3661  
      3530       3531       3542       3541       3651       3652       3663       3662  
      3532       3533       3544       3543       3653       3654       3665       3664  
      3533       3534       3545       3544       3654       3655       3666       3665  
      3534       3535       3546       3545       3655       3656       3667       3666  
      3535       3536       3547       3546       3656       3657       3668       3667  
      3536       3537       3548       3547       3657       3658       3669       3668  
      3537       3538       3549       3548       3658       3659       3670       3669  
      3538       3539       3550       3549       3659       3660       3671       3670  
      3539       3540       3551       3550       3660       3661       3672       3671  
      3540       3541       3552       3551       3661       3662       3673       3672  
      3541       3542       3553       3552       3662       3663       3674       3673  
      3543       3544       3555       3554       3664       3665       3676       3675  
      3544       3545       3556       3555       3665       3666       3677       3676  
      3545       3546       3557       3556       3666       3667       3678       3677  
      3546       3547       3558       3557       3667       3668       3679       3678  
      3547       3548       3559       3558       3668       3669       3680       3679  
      3548       3549       3560       3559       3669       3670       3681       3680  
      3549       3550       3561       3560       3670       3671       3682       3681  
      3550       3551       3562       3561       3671       3672       3683       3682  
      3551       3552       3563       3562       3672       3673       3684       3683  
      3552       3553       3564       3563       3673       3674       3685       3684  
      3554       3555       3566       3565       3675       3676       3687       3686  
      3555       3556       3567       3566       3676       3677       3688       3687  
      3556       3557       3568       3567       3677       3678       3689       3688  
      3557       3558       3569       3568       3678       3679       3690       3689  
      3558       3559       3570       3569       3679       3680       3691       3690  
      3559       3560       3571       3570       3680       3681       3692       3691  
      3560       3561       3572       3571       3681       3682       3693       3692  
      3561       3562       3573       3572       3682       3683       3694       3693  
      3562       3563       3574       3573       3683       3684       3695       3694  
      3563       3564       3575       3574       3684       3685       3696       3695  
      3565       3566       3577       3576       3686       3687       3698       3697  
      3566       3567       3578       3577       3687       3688       3699       3698  
      3567       3568       3579       3578       3688       3689       3700       3699  
      3568       3569       3580       3579       3689       3690       3701       3700  
      3569       3570       3581       3580       3690       3691       3702       3701  
      3570       3571       3582       3581       3691       3692       3703       3702  
      3571       3572       3583       3582       3692       3693       3704       3703  
      3572       3573       3584       3583       3693       3694       3705       3704  
      3573       3574       3585       3584       3694       3695       3706       3705  
      3574       3575       3586       3585       3695       3696       3707       3706  
      3576       3577       3588       3587       3697       3698       3709       3708  
      3577       3578       3589       3588       3698       3699       3710       3709  
      3578       3579       3590       3589       3699       3700       3711       3710  
      3579       3580       3591       3590       3700       3701       3712       3711  
      3580       3581       3592       3591       3701       3702       3713       3712  
      3581       3582       3593       3592       3702       3703       3714       3713  
      3582       3583       3594       3593       3703       3704       3715       3714  
      3583       3584       3595       3594       3704       3705       3716       3715  
      3584       3585       3596       3595       3705       3706       3717       3716  
      3585       3586       3597       3596       3706       3707       3718       3717  
      3587       3588       3599       3598       3708       3709       3720       3719  
      3588       3589       3600       3599       3709       3710       3721       3720  
      3589       3590       3601       3600       3710       3711       3722       3721  
      3590       3591       3602       3601       3711       3712       3723       3722  
      3591       3592       3603       3602       3712       3713       3724       3723  
      3592       3593       3604       3603       3713       3714       3725       3724  
      3593       3594       3605       3604       3714       3715       3726       3725  
      3594       3595       3606       3605       3715       3716       3727       3726  
      3595       3596       3607       3606       3716       3717       3728       3727  
      3596       3597       3608       3607       3717       3718       3729       3728  
      3598       3599       3610       3609       3719       3720       3731       3730  
      3599       3600       3611       3610       3720       3721       3732       3731  
      3600       3601       3612       3611       3721       3722       3733       3732  
      3601       3602       3613       3612       3722       3723       3734       3733  
      3602       3603       3614       3613       3723       3724       3735       3734  
      3603       3604       3615       3614       3724       3725       3736       3735  
      3604       3605       3616       3615       3725       3726       3737       3736  
      3605       3606       3617       3616       3726       3727       3738       3737  
      3606       3607       3618       3617       3727       3728       3739       3738  
      3607       3608       3619       3618       3728       3729       3740       3739  
      3609       3610       3621       3620       3730       3731       3742       3741  
      3610       3611       3622       3621       3731       3732       3743       3742  
      3611       3612       3623       3622       3732       3733       3744       3743  
      3612       3613       3624       3623       3733       3734       3745       3744  
      3613       3614       3625       3624       3734       3735       3746       3745  
      3614       3615       3626       3625       3735       3736       3747       3746  
      3615       3616       3627       3626       3736       3737       3748       3747  
      3616       3617       3628       3627       3737       3738       3749       3748  
      3617       3618       3629       3628       3738       3739       3750       3749  
      3618       3619       3630       3629       3739       3740       3751       3750  
      3631       3632       3643       3642       3752       3753       3764       3763  
      3632       3633       3644       3643       3753       3754       3765       3764  
      3633       3634       3645       3644       3754       3755       3766       3765  
      3634       3635       3646       3645       3755       3756       3767       3766  
      3635       3636       3647       3646       3756       3757       3768       3767  
      3636       3637       3648       3647       3757       3758       3769       3768  
      3637       3638       3649       3648       3758       3759       3770       3769  
      3638       3639       3650       3649       3759       3760       3771       3770  
      3639       3640       3651       3650       3760       3761       3772       3771  
      3640       3641       3652       3651       3761       3762       3773       3772  
      3642       3643       3654       3653       3763       3764       3775       3774  
      3643       3644       3655       3654       3764       3765       3776       3775  
      3644       3645       3656       3655       3765       3766       3777       3776  
      3645       3646       3657       3656       3766       3767       3778       3777  
      3646       3647       3658       3657       3767       3768       3779       3778  
      3647       3648       3659       3658       3768       3769       3780       3779  
      3648       3649       3660       3659       3769       3770       3781       3780  
      3649       3650       3661       3660       3770       3771       3782       3781  
      3650       3651       3662       3661       3771       3772       3783       3782  
      3651       3652       3663       3662       3772       3773       3784       3783  
      3653       3654       3665       3664       3774       3775       3786       3785  
      3654       3655       3666       3665       3775       3776       3787       3786  
      3655       3656       3667       3666       3776       3777       3788       3787  
      3656       3657       3668       3667       3777       3778       3789       3788  
      3657       3658       3669       3668       3778       3779       3790       3789  
      3658       3659       3670       3669       3779       3780       3791       3790  
      3659       3660       3671       3670       3780       3781       3792       3791  
      3660       3661       3672       3671       3781       3782       3793       3792  
      3661       3662       3673       3672       3782       3783       3794       3793  
      3662       3663       3674       3673       3783       3784       3795       3794  
      3664       3665       3676       3675       3785       3786       3797       3796  
      3665       3666       3677       3676       3786       3787       3798       3797  
      3666       3667       3678       3677       3787       3788       3799       3798  
      3667       3668       3679       3678       3788       3789       3800       3799  
      3668       3669       3680       3679       3789       3790       3801       3800  
      3669       3670       3681       3680       3790       3791       3802       3801  
      3670       3671       3682       3681       3791       3792       3803       3802  
      3671       3672       3683       3682       3792       3793       3804       3803  
      3672       3673       3684       3683       3793       3794       3805       3804  
      3673       3674       3685       3684       3794       3795       3806       3805  
      3675       3676       3687       3686       3796       3797       3808       3807  
      3676       3677       3688       3687       3797       3798       3809       3808  
      3677       3678       3689       3688       3798       3799       3810       3809  
      3678       3679       3690       3689       3799       3800       3811       3810  
      3679       3680       3691       3690       3800       3801       3812       3811  
      3680       3681       3692       3691       3801       3802       3813       3812  
      3681       3682       3693       3692       3802       3803       3814       3813  
      3682       3683       3694       3693       3803       3804       3815       3814  
      3683       3684       3695       3694       3804       3805       3816       3815  
      3684       3685       3696       3695       3805       3806       3817       3816  
      3686       3687       3698       3697       3807       3808       3819       3818  
      3687       3688       3699       3698       3808       3809       3820       3819  
      3688       3689       3700       3699       3809       3810       3821       3820  
      3689       3690       3701       3700       3810       3811       3822       3821  
      3690       3691       3702       3701       3811       3812       3823       3822  
      3691       3692       3703       3702       3812       3813       3824       3823  
      3692       3693       3704       3703       3813       3814       3825       3824  
      3693       3694       3705       3704       3814       3815       3826       3825  
      3694       3695       3706       3705       3815       3816       3827       3826  
      3695       3696       3707       3706       3816       3817       3828       3827  
      3697       3698       3709       3708       3818       3819       3830       3829  
      3698       3699       3710       3709       3819       3820       3831       3830  
      3699       3700       3711       3710       3820       3821       3832       3831  
      3700       3701       3712       3711       3821       3822       3833       3832  
      3701       3702       3713       3712       3822       3823       3834       3833  
      3702       3703       3714       3713       3823       3824       3835       3834  
      3703       3704       3715       3714       3824       3825       3836       3835  
      3704       3705       3716       3715       3825       3826       3837       3836  
      3705       3706       3717       3716       3826       3827       3838       3837  
      3706       3707       3718       3717       3827       3828       3839       3838  
      3708       3709       3720       3719       3829       3830       3841       3840  
      3709       3710       3721       3720       3830       3831       3842       3841  
      3710       3711       3722       3721       3831       3832       3843       3842  
      3711       3712       3723       3722       3832       3833       3844       3843  
      3712       3713       3724       3723       3833       3834       3845       3844  
      3713       3714       3725       3724       3834       3835       3846       3845  
      3714       3715       3726       3725       3835       3836       3847       3846  
      3715       3716       3727       3726       3836       3837       3848       3847  
      3716       3717       3728       3727       3837       3838       3849       3848  
      3717       3718       3729       3728       3838       3839       3850       3849  
      3719       3720       3731       3730       3840       3841       3852       3851  
      3720       3721       3732       3731       3841       3842       3853       3852  
      3721       3722       3733       3732       3842       3843       3854       3853  
      3722       3723       3734       3733       3843       3844       3855       3854  
      3723       3724       3735       3734       3844       3845       3856       3855  
      3724       3725       3736       3735       3845       3846       3857       3856  
      3725       3726       3737       3736       3846       3847       3858       3857  
      3726       3727       3738       3737       3847       3848       3859       3858  
      3727       3728       3739       3738       3848       3849       3860       3859  
      3728       3729       3740       3739       3849       3850       3861       3860  
      3730       3731       3742       3741       3851       3852       3863       3862  
      3731       3732       3743       3742       3852       3853       3864       3863  
      3732       3733       3744       3743       3853       3854       3865       3864  
      3733       3734       3745       3744       3854       3855       3866       3865  
      3734       3735       3746       3745       3855       3856       3867       3866  
      3735       3736       3747       3746       3856       3857       3868       3867  
      3736       3737       3748       3747       3857       3858       3869       3868  
      3737       3738       3749       3748       3858       3859       3870       3869  
      3738       3739       3750       3749       3859       3860       3871       3870  
      3739       3740       3751       3750       3860       3861       3872       3871  
      3752       3753       3764       3763       3873       3874       3885       3884  
      3753       3754       3765       3764       3874       3875       3886       3885  
      3754       3755       3766       3765       3875       3876       3887       3886  
      3755       3756       3767       3766       3876       3877       3888       3887  
      3756       3757       3768       3767       3877       3878       3889       3888  
      3757       3758       3769       3768       3878       3879       3890       3889  
      3758       3759       3770       3769       3879       3880       3891       3890  
      3759       3760       3771       3770       3880       3881       3892       3891  
      3760       3761       3772       3771       3881       3882       3893       3892  
      3761       3762       3773       3772       3882       3883       3894       3893  
      3763       3764       3775       3774       3884       3885       3896       3895  
      3764       3765       3776       3775       3885       3886       3897       3896  
      3765       3766       3777       3776       3886       3887       3898       3897  
      3766       3767       3778       3777       3887       3888       3899       3898  
      3767       3768       3779       3778       3888       3889       3900       3899  
      3768       3769       3780       3779       3889       3890       3901       3900  
      3769       3770       3781       3780       3890       3891       3902       3901  
      3770       3771       3782       3781       3891       3892       3903       3902  
      3771       3772       3783       3782       3892       3893       3904       3903  
      3772       3773       3784       3783       3893       3894       3905       3904  
      3774       3775       3786       3785       3895       3896       3907       3906  
      3775       3776       3787       3786       3896       3897       3908       3907  
      3776       3777       3788       3787       3897       3898       3909       3908  
      3777       3778       3789       3788       3898       3899       3910       3909  
      3778       3779       3790       3789       3899       3900       3911       3910  
      3779       3780       3791       3790       3900       3901       3912       3911  
      3780       3781       3792       3791       3901       3902       3913       3912  
      3781       3782       3793       3792       3902       3903       3914       3913  
      3782       3783       3794       3793       3903       3904       3915       3914  
      3783       3784       3795       3794       3904       3905       3916       3915  
      3785       3786       3797       3796       3906       3907       3918       3917  
      3786       3787       3798       3797       3907       3908       3919       3918  
      3787       3788       3799       3798       3908       3909       3920       3919  
      3788       3789       3800       3799       3909       3910       3921       3920  
      3789       3790       3801       3800       3910       3911       3922       3921  
      3790       3791       3802       3801       3911       3912       3923       3922  
      3791       3792       3803       3802       3912       3913       3924       3923  
      3792       3793       3804       3803       3913       3914       3925       3924  
      3793       3794       3805       3804       3914       3915       3926       3925  
      3794       3795       3806       3805       3915       3916       3927       3926  
      3796       3797       3808       3807       3917       3918       3929       3928  
      3797       3798       3809       3808       3918       3919       3930       3929  
      3798       3799       3810       3809       3919       3920       3931       3930  
      3799       3800       3811       3810       3920       3921       3932       3931  
      3800       3801       3812       3811       3921       3922       3933       3932  
      3801       3802       3813       3812       3922       3923       3934       3933  
      3802       3803       3814       3813       3923       3924       3935       3934  
      3803       3804       3815       3814       3924       3925       3936       3935  
      3804       3805       3816       3815       3925       3926       3937       3936  
      3805       3806       3817       3816       3926       3927       3938       3937  
      3807       3808       3819       3818       3928       3929       3940       3939  
      3808       3809       3820       3819       3929       3930       3941       3940  
      3809       3810       3821       3820       3930       3931       3942       3941  
      3810       3811       3822       3821       3931       3932       3943       3942  
      3811       3812       3823       3822       3932       3933       3944       3943  
      3812       3813       3824       3823       3933       3934       3945       3944  
      3813       3814       3825       3824       3934       3935       3946       3945  
      3814       3815       3826       3825       3935       3936       3947       3946  
      3815       3816       3827       3826       3936       3937       3948       3947  
      3816       3817       3828       3827       3937       3938       3949       3948  
      3818       3819       3830       3829       3939       3940       3951       3950  
      3819       3820       3831       3830       3940       3941       3952       3951  
      3820       3821       3832       3831       3941       3942       3953       3952  
      3821       3822       3833       3832       3942       3943       3954       3953  
      3822       3823       3834       3833       3943       3944       3955       3954  
      3823       3824       3835       3834       3944       3945       3956       3955  
      3824       3825       3836       3835       3945       3946       3957       3956  
      3825       3826       3837       3836       3946       3947       3958       3957  
      3826       3827       3838       3837       3947       3948       3959       3958  
      3827       3828       3839       3838       3948       3949       3960       3959  
      3829       3830       3841       3840       3950       3951       3962       3961  
      3830       3831       3842       3841       3951       3952       3963       3962  
      3831       3832       3843       3842       3952       3953       3964       3963  
      3832       3833       3844       3843       3953       3954       3965       3964  
      3833       3834       3845       3844       3954       3955       3966       3965  
      3834       3835       3846       3845       3955       3956       3967       3966  
      3835       3836       3847       3846       3956       3957       3968       3967  
      3836       3837       3848       3847       3957       3958       3969       3968  
      3837       3838       3849       3848       3958       3959       3970       3969  
      3838       3839       3850       3849       3959       3960       3971       3970  
      3840       3841       3852       3851       3961       3962       3973       3972  
      3841       3842       3853       3852       3962       3963       3974       3973  
      3842       3843       3854       3853       3963       3964       3975       3974  
      3843       3844       3855       3854       3964       3965       3976       3975  
      3844       3845       3856       3855       3965       3966       3977       3976  
      3845       3846       3857       3856       3966       3967       3978       3977  
      3846       3847       3858       3857       3967       3968       3979       3978  
      3847       3848       3859       3858       3968       3969       3980       3979  
      3848       3849       3860       3859       3969       3970       3981       3980  
      3849       3850       3861       3860       3970       3971       3982       3981  
      3851       3852       3863       3862       3972       3973       3984       3983  
      3852       3853       3864       3863       3973       3974       3985       3984  
      3853       3854       3865       3864       3974       3975       3986       3985  
      3854       3855       3866       3865       3975       3976       3987       3986  
      3855       3856       3867       3866       3976       3977       3988       3987  
      3856       3857       3868       3867       3977       3978       3989       3988  
      3857       3858       3869       3868       3978       3979       3990       3989  
      3858       3859       3870       3869       3979       3980       3991       3990  
      3859       3860       3871       3870       3980       3981       3992       3991  
      3860       3861       3872       3871       3981       3982       3993       3992  
      3873       3874       3885       3884       3994       3995       4006       4005  
      3874       3875       3886       3885       3995       3996       4007       4006  
      3875       3876       3887       3886       3996       3997       4008       4007  
      3876       3877       3888       3887       3997       3998       4009       4008  
      3877       3878       3889       3888       3998       3999       4010       4009  
      3878       3879       3890       3889       3999       4000       4011       4010  
      3879       3880       3891       3890       4000       4001       4012       4011  
      3880       3881       3892       3891       4001       4002       4013       4012  
      3881       3882       3893       3892       4002       4003       4014       4013  
      3882       3883       3894       3893       4003       4004       4015       4014  
      3884       3885       3896       3895       4005       4006       4017       4016  
      3885       3886       3897       3896       4006       4007       4018       4017  
      3886       3887       3898       3897       4007       4008       4019       4018  
      3887       3888       3899       3898       4008       4009       4020       4019  
      3888       3889       3900       3899       4009       4010       4021       4020  
      3889       3890       3901       3900       4010       4011       4022       4021  
      3890       3891       3902       3901       4011       4012       4023       4022  
      3891       3892       3903       3902       4012       4013       4024       4023  
      3892       3893       3904       3903       4013       4014       4025       4024  
      3893       3894       3905       3904       4014       4015       4026       4025  
      3895       3896       3907       3906       4016       4017       4028       4027  
      3896       3897       3908       3907       4017       4018       4029       4028  
      3897       3898       3909       3908       4018       4019       4030       4029  
      3898       3899       3910       3909       4019       4020       4031       4030  
      3899       3900       3911       3910       4020       4021       4032       4031  
      3900       3901       3912       3911       4021       4022       4033       4032  
      3901       3902       3913       3912       4022       4023       4034       4033  
      3902       3903       3914       3913       4023       4024       4035       4034  
      3903       3904       3915       3914       4024       4025       4036       4035  
      3904       3905       3916       3915       4025       4026       4037       4036  
      3906       3907       3918       3917       4027       4028       4039       4038  
      3907       3908       3919       3918       4028       4029       4040       4039  
      3908       3909       3920       3919       4029       4030       4041       4040  
      3909       3910       3921       3920       4030       4031       4042       4041  
      3910       3911       3922       3921       4031       4032       4043       4042  
      3911       3912       3923       3922       4032       4033       4044       4043  
      3912       3913       3924       3923       4033       4034       4045       4044  
      3913       3914       3925       3924       4034       4035       4046       4045  
      3914       3915       3926       3925       4035       4036       4047       4046  
      3915       3916       3927       3926       4036       4037       4048       4047  
      3917       3918       3929       3928       4038       4039       4050       4049  
      3918       3919       3930       3929       4039       4040       4051       4050  
      3919       3920       3931       3930       4040       4041       4052       4051  
      3920       3921       3932       3931       4041       4042       4053       4052  
      3921       3922       3933       3932       4042       4043       4054       4053  
      3922       3923       3934       3933       4043       4044       4055       4054  
      3923       3924       3935       3934       4044       4045       4056       4055  
      3924       3925       3936       3935       4045       4046       4057       4056  
      3925       3926       3937       3936       4046       4047       4058       4057  
      3926       3927       3938       3937       4047       4048       4059       4058  
      3928       3929       3940       3939       4049       4050       4061       4060  
      3929       3930       3941       3940       4050       4051       4062       4061  
      3930       3931       3942       3941       4051       4052       4063       4062  
      3931       3932       3943       3942       4052       4053       4064       4063  
      3932       3933       3944       3943       4053       4054       4065       4064  
      3933       3934       3945       3944       4054       4055       4066       4065  
      3934       3935       3946       3945       4055       4056       4067       4066  
      3935       3936       3947       3946       4056       4057       4068       4067  
      3936       3937       3948       3947       4057       4058       4069       4068  
      3937       3938       3949       3948       4058       4059       4070       4069  
      3939       3940       3951       3950       4060       4061       4072       4071  
      3940       3941       3952       3951       4061       4062       4073       4072  
      3941       3942       3953       3952       4062       4063       4074       4073  
      3942       3943       3954       3953       4063       4064       4075       4074  
      3943       3944       3955       3954       4064       4065       4076       4075  
      3944       3945       3956       3955       4065       4066       4077       4076  
      3945       3946       3957       3956       4066       4067       4078       4077  
      3946       3947       3958       3957       4067       4068       4079       4078  
      3947       3948       3959       3958       4068       4069       4080       4079  
      3948       3949       3960       3959       4069       4070       4081       4080  
      3950       3951       3962       3961       4071       4072       4083       4082  
      3951       3952       3963       3962       4072       4073       4084       4083  
      3952       3953       3964       3963       4073       4074       4085       4084  
      3953       3954       3965       3964       4074       4075       4086       4085  
      3954       3955       3966       3965       4075       4076       4087       4086  
      3955       3956       3967       3966       4076       4077       4088       4087  
      3956       3957       3968       3967       4077       4078       4089       4088  
      3957       3958       3969       3968       4078       4079       4090       4089  
      3958       3959       3970       3969       4079       4080       4091       4090  
      3959       3960       3971       3970       4080       4081       4092       4091  
      3961       3962       3973       3972       4082       4083       4094       4093  
      3962       3963       3974       3973       4083       4084       4095       4094  
      3963       3964       3975       3974       4084       4085       4096       4095  
      3964       3965       3976       3975       4085       4086       4097       4096  
      3965       3966       3977       3976       4086       4087       4098       4097  
      3966       3967       3978       3977       4087       4088       4099       4098  
      3967       3968       3979       3978       4088       4089       4100       4099  
      3968       3969       3980       3979       4089       4090       4101       4100  
      3969       3970       3981       3980       4090       4091       4102       4101  
      3970       3971       3982       3981       4091       4092       4103       4102  
      3972       3973       3984       3983       4093       4094       4105       4104  
      3973       3974       3985       3984       4094       4095       4106       4105  
      3974       3975       3986       3985       4095       4096       4107       4106  
      3975       3976       3987       3986       4096       4097       4108       4107  
      3976       3977       3988       3987       4097       4098       4109       4108  
      3977       3978       3989       3988       4098       4099       4110       4109  
      3978       3979       3990       3989       4099       4100       4111       4110  
      3979       3980       3991       3990       4100       4101       4112       4111  
      3980       3981       3992       3991       4101       4102       4113       4112  
      3981       3982       3993       3992       4102       4103       4114       4113  
      3994       3995       4006       4005       4115       4116       4127       4126  
      3995       3996       4007       4006       4116       4117       4128       4127  
      3996       3997       4008       4007       4117       4118       4129       4128  
      3997       3998       4009       4008       4118       4119       4130       4129  
      3998       3999       4010       4009       4119       4120       4131       4130  
      3999       4000       4011       4010       4120       4121       4132       4131  
      4000       4001       4012       4011       4121       4122       4133       4132  
      4001       4002       4013       4012       4122       4123       4134       4133  
      4002       4003       4014       4013       4123       4124       4135       4134  
      4003       4004       4015       4014       4124       4125       4136       4135  
      4005       4006       4017       4016       4126       4127       4138       4137  
      4006       4007       4018       4017       4127       4128       4139       4138  
      4007       4008       4019       4018       4128       4129       4140       4139  
      4008       4009       4020       4019       4129       4130       4141       4140  
      4009       4010       4021       4020       4130       4131       4142       4141  
      4010       4011       4022       4021       4131       4132       4143       4142  
      4011       4012       4023       4022       4132       4133       4144       4143  
      4012       4013       4024       4023       4133       4134       4145       4144  
      4013       4014       4025       4024       4134       4135       4146       4145  
      4014       4015       4026       4025       4135       4136       4147       4146  
      4016       4017       4028       4027       4137       4138       4149       4148  
      4017       4018       4029       4028       4138       4139       4150       4149  
      4018       4019       4030       4029       4139       4140       4151       4150  
      4019       4020       4031       4030       4140       4141       4152       4151  
      4020       4021       4032       4031       4141       4142       4153       4152  
      4021       4022       4033       4032       4142       4143       4154       4153  
      4022       4023       4034       4033       4143       4144       4155       4154  
      4023       4024       4035       4034       4144       4145       4156       4155  
      4024       4025       4036       4035       4145       4146       4157       4156  
      4025       4026       4037       4036       4146       4147       4158       4157  
      4027       4028       4039       4038       4148       4149       4160       4159  
      4028       4029       4040       4039       4149       4150       4161       4160  
      4029       4030       4041       4040       4150       4151       4162       4161  
      4030       4031       4042       4041       4151       4152       4163       4162  
      4031       4032       4043       4042       4152       4153       4164       4163  
      4032       4033       4044       4043       4153       4154       4165       4164  
      4033       4034       4045       4044       4154       4155       4166       4165  
      4034       4035       4046       4045       4155       4156       4167       4166  
      4035       4036       4047       4046       4156       4157       4168       4167  
      4036       4037       4048       4047       4157       4158       4169       4168  
      4038       4039       4050       4049       4159       4160       4171       4170  
      4039       4040       4051       4050       4160       4161       4172       4171  
      4040       4041       4052       4051       4161       4162       4173       4172  
      4041       4042       4053       4052       4162       4163       4174       4173  
      4042       4043       4054       4053       4163       4164       4175       4174  
      4043       4044       4055       4054       4164       4165       4176       4175  
      4044       4045       4056       4055       4165       4166       4177       4176  
      4045       4046       4057       4056       4166       4167       4178       4177  
      4046       4047       4058       4057       4167       4168       4179       4178  
      4047       4048       4059       4058       4168       4169       4180       4179  
      4049       4050       4061       4060       4170       4171       4182       4181  
      4050       4051       4062       4061       4171       4172       4183       4182  
      4051       4052       4063       4062       4172       4173       4184       4183  
      4052       4053       4064       4063       4173       4174       4185       4184  
      4053       4054       4065       4064       4174       4175       4186       4185  
      4054       4055       4066       4065       4175       4176       4187       4186  
      4055       4056       4067       4066       4176       4177       4188       4187  
      4056       4057       4068       4067       4177       4178       4189       4188  
      4057       4058       4069       4068       4178       4179       4190       4189  
      4058       4059       4070       4069       4179       4180       4191       4190  
      4060       4061       4072       4071       4181       4182       4193       4192  
      4061       4062       4073       4072       4182       4183       4194       4193  
      4062       4063       4074       4073       4183       4184       4195       4194  
      4063       4064       4075       4074       4184       4185       4196       4195  
      4064       4065       4076       4075       4185       4186       4197       4196  
      4065       4066       4077       4076       4186       4187       4198       4197  
      4066       4067       4078       4077       4187       4188       4199       4198  
      4067       4068       4079       4078       4188       4189       4200       4199  
      4068       4069       4080       4079       4189       4190       4201       4200  
      4069       4070       4081       4080       4190       4191       4202       4201  
      4071       4072       4083       4082       4192       4193       4204       4203  
      4072       4073       4084       4083       4193       4194       4205       4204  
      4073       4074       4085       4084       4194       4195       4206       4205  
      4074       4075       4086       4085       4195       4196       4207       4206  
      4075       4076       4087       4086       4196       4197       4208       4207  
      4076       4077       4088       4087       4197       4198       4209       4208  
      4077       4078       4089       4088       4198       4199       4210       4209  
      4078       4079       4090       4089       4199       4200       4211       4210  
      4079       4080       4091       4090       4200       4201       4212       4211  
      4080       4081       4092       4091       4201       4202       4213       4212  
      4082       4083       4094       4093       4203       4204       4215       4214  
      4083       4084       4095       4094       4204       4205       4216       4215  
      4084       4085       4096       4095       4205       4206       4217       4216  
      4085       4086       4097       4096       4206       4207       4218       4217  
      4086       4087       4098       4097       4207       4208       4219       4218  
      4087       4088       4099       4098       4208       4209       4220       4219  
      4088       4089       4100       4099       4209       4210       4221       4220  
      4089       4090       4101       4100       4210       4211       4222       4221  
      4090       4091       4102       4101       4211       4212       4223       4222  
      4091       4092       4103       4102       4212       4213       4224       4223  
      4093       4094       4105       4104       4214       4215       4226       4225  
      4094       4095       4106       4105       4215       4216       4227       4226  
      4095       4096       4107       4106       4216       4217       4228       4227  
      4096       4097       4108       4107       4217       4218       4229       4228  
      4097       4098       4109       4108       4218       4219       4230       4229  
      4098       4099       4110       4109       4219       4220       4231       4230  
      4099       4100       4111       4110       4220       4221       4232       4231  
      4100       4101       4112       4111       4221       4222       4233       4232  
      4101       4102       4113       4112       4222       4223       4234       4233  
      4102       4103       4114       4113       4223       4224       4235       4234  
      4115       4116       4127       4126       4236       4237       4248       4247  
      4116       4117       4128       4127       4237       4238       4249       4248  
      4117       4118       4129       4128       4238       4239       4250       4249  
      4118       4119       4130       4129       4239       4240       4251       4250  
      4119       4120       4131       4130       4240       4241       4252       4251  
      4120       4121       4132       4131       4241       4242       4253       4252  
      4121       4122       4133       4132       4242       4243       4254       4253  
      4122       4123       4134       4133       4243       4244       4255       4254  
      4123       4124       4135       4134       4244       4245       4256       4255  
      4124       4125       4136       4135       4245       4246       4257       4256  
      4126       4127       4138       4137       4247       4248       4259       4258  
      4127       4128       4139       4138       4248       4249       4260       4259  
      4128       4129       4140       4139       4249       4250       4261       4260  
      4129       4130       4141       4140       4250       4251       4262       4261  
      4130       4131       4142       4141       4251       4252       4263       4262  
      4131       4132       4143       4142       4252       4253       4264       4263  
      4132       4133       4144       4143       4253       4254       4265       4264  
      4133       4134       4145       4144       4254       4255       4266       4265  
      4134       4135       4146       4145       4255       4256       4267       4266  
      4135       4136       4147       4146       4256       4257       4268       4267  
      4137       4138       4149       4148       4258       4259       4270       4269  
      4138       4139       4150       4149       4259       4260       4271       4270  
      4139       4140       4151       4150       4260       4261       4272       4271  
      4140       4141       4152       4151       4261       4262       4273       4272  
      4141       4142       4153       4152       4262       4263       4274       4273  
      4142       4143       4154       4153       4263       4264       4275       4274  
      4143       4144       4155       4154       4264       4265       4276       4275  
      4144       4145       4156       4155       4265       4266       4277       4276  
      4145       4146       4157       4156       4266       4267       4278       4277  
      4146       4147       4158       4157       4267       4268       4279       4278  
      4148       4149       4160       4159       4269       4270       4281       4280  
      4149       4150       4161       4160       4270       4271       4282       4281  
      4150       4151       4162       4161       4271       4272       4283       4282  
      4151       4152       4163       4162       4272       4273       4284       4283  
      4152       4153       4164       4163       4273       4274       4285       4284  
      4153       4154       4165       4164       4274       4275       4286       4285  
      4154       4155       4166       4165       4275       4276       4287       4286  
      4155       4156       4167       4166       4276       4277       4288       4287  
      4156       4157       4168       4167       4277       4278       4289       4288  
      4157       4158       4169       4168       4278       4279       4290       4289  
      4159       4160       4171       4170       4280       4281       4292       4291  
      4160       4161       4172       4171       4281       4282       4293       4292  
      4161       4162       4173       4172       4282       4283       4294       4293  
      4162       4163       4174       4173       4283       4284       4295       4294  
      4163       4164       4175       4174       4284       4285       4296       4295  
      4164       4165       4176       4175       4285       4286       4297       4296  
      4165       4166       4177       4176       4286       4287       4298       4297  
      4166       4167       4178       4177       4287       4288       4299       4298  
      4167       4168       4179       4178       4288       4289       4300       4299  
      4168       4169       4180       4179       4289       4290       4301       4300  
      4170       4171       4182       4181       4291       4292       4303       4302  
      4171       4172       4183       4182       4292       4293       4304       4303  
      4172       4173       4184       4183       4293       4294       4305       4304  
      4173       4174       4185       4184       4294       4295       4306       4305  
      4174       4175       4186       4185       4295       4296       4307       4306  
      4175       4176       4187       4186       4296       4297       4308       4307  
      4176       4177       4188       4187       4297       4298       4309       4308  
      4177       4178       4189       4188       4298       4299       4310       4309  
      4178       4179       4190       4189       4299       4300       4311       4310  
      4179       4180       4191       4190       4300       4301       4312       4311  
      4181       4182       4193       4192       4302       4303       4314       4313  
      4182       4183       4194       4193       4303       4304       4315       4314  
      4183       4184       4195       4194       4304       4305       4316       4315  
      4184       4185       4196       4195       4305       4306       4317       4316  
      4185       4186       4197       4196       4306       4307       4318       4317  
      4186       4187       4198       4197       4307       4308       4319       4318  
      4187       4188       4199       4198       4308       4309       4320       4319  
      4188       4189       4200       4199       4309       4310       4321       4320  
      4189       4190       4201       4200       4310       4311       4322       4321  
      4190       4191       4202       4201       4311       4312       4323       4322  
      4192       4193       4204       4203       4313       4314       4325       4324  
      4193       4194       4205       4204       4314       4315       4326       4325  
      4194       4195       4206       4205       4315       4316       4327       4326  
      4195       4196       4207       4206       4316       4317       4328       4327  
      4196       4197       4208       4207       4317       4318       4329       4328  
      4197       4198       4209       4208       4318       4319       4330       4329  
      4198       4199       4210       4209       4319       4320       4331       4330  
      4199       4200       4211       4210       4320       4321       4332       4331  
      4200       4201       4212       4211       4321       4322       4333       4332  
      4201       4202       4213       4212       4322       4323       4334       4333  
      4203       4204       4215       4214       4324       4325       4336       4335  
      4204       4205       4216       4215       4325       4326       4337       4336  
      4205       4206       4217       4216       4326       4327       4338       4337  
      4206       4207       4218       4217       4327       4328       4339       4338  
      4207       4208       4219       4218       4328       4329       4340       4339  
      4208       4209       4220       4219       4329       4330       4341       4340  
      4209       4210       4221       4220       4330       4331       4342       4341  
      4210       4211       4222       4221       4331       4332       4343       4342  
      4211       4212       4223       4222       4332       4333       4344       4343  
      4212       4213       4224       4223       4333       4334       4345       4344  
      4214       4215       4226       4225       4335       4336       4347       4346  
      4215       4216       4227       4226       4336       4337       4348       4347  
      4216       4217       4228       4227       4337       4338       4349       4348  
      4217       4218       4229       4228       4338       4339       4350       4349  
      4218       4219       4230       4229       4339       4340       4351       4350  
      4219       4220       4231       4230       4340       4341       4352       4351  
      4220       4221       4232       4231       4341       4342       4353       4352  
      4221       4222       4233       4232       4342       4343       4354       4353  
      4222       4223       4234       4233       4343       4344       4355       4354  
      4223       4224       4235       4234       4344       4345       4356       4355  
      4236       4237       4248       4247       4357       4358       4369       4368  
      4237       4238       4249       4248       4358       4359       4370       4369  
      4238       4239       4250       4249       4359       4360       4371       4370  
      4239       4240       4251       4250       4360       4361       4372       4371  
      4240       4241       4252       4251       4361       4362       4373       4372  
      4241       4242       4253       4252       4362       4363       4374       4373  
      4242       4243       4254       4253       4363       4364       4375       4374  
      4243       4244       4255       4254       4364       4365       4376       4375  
      4244       4245       4256       4255       4365       4366       4377       4376  
      4245       4246       4257       4256       4366       4367       4378       4377  
      4247       4248       4259       4258       4368       4369       4380       4379  
      4248       4249       4260       4259       4369       4370       4381       4380  
      4249       4250       4261       4260       4370       4371       4382       4381  
      4250       4251       4262       4261       4371       4372       4383       4382  
      4251       4252       4263       4262       4372       4373       4384       4383  
      4252       4253       4264       4263       4373       4374       4385       4384  
      4253       4254       4265       4264       4374       4375       4386       4385  
      4254       4255       4266       4265       4375       4376       4387       4386  
      4255       4256       4267       4266       4376       4377       4388       4387  
      4256       4257       4268       4267       4377       4378       4389       4388  
      4258       4259       4270       4269       4379       4380       4391       4390  
      4259       4260       4271       4270       4380       4381       4392       4391  
      4260       4261       4272       4271       4381       4382       4393       4392  
      4261       4262       4273       4272       4382       4383       4394       4393  
      4262       4263       4274       4273       4383       4384       4395       4394  
      4263       4264       4275       4274       4384       4385       4396       4395  
      4264       4265       4276       4275       4385       4386       4397       4396  
      4265       4266       4277       4276       4386       4387       4398       4397  
      4266       4267       4278       4277       4387       4388       4399       4398  
      4267       4268       4279       4278       4388       4389       4400       4399  
      4269       4270       4281       4280       4390       4391       4402       4401  
      4270       4271       4282       4281       4391       4392       4403       4402  
      4271       4272       4283       4282       4392       4393       4404       4403  
      4272       4273       4284       4283       4393       4394       4405       4404  
      4273       4274       4285       4284       4394       4395       4406       4405  
      4274       4275       4286       4285       4395       4396       4407       4406  
      4275       4276       4287       4286       4396       4397       4408       4407  
      4276       4277       4288       4287       4397       4398       4409       4408  
      4277       4278       4289       4288       4398       4399       4410       4409  
      4278       4279       4290       4289       4399       4400       4411       4410  
      4280       4281       4292       4291       4401       4402       4413       4412  
      4281       4282       4293       4292       4402       4403       4414       4413  
      4282       4283       4294       4293       4403       4404       4415       4414  
      4283       4284       4295       4294       4404       4405       4416       4415  
      4284       4285       4296       4295       4405       4406       4417       4416  
      4285       4286       4297       4296       4406       4407       4418       4417  
      4286       4287       4298       4297       4407       4408       4419       4418  
      4287       4288       4299       4298       4408       4409       4420       4419  
      4288       4289       4300       4299       4409       4410       4421       4420  
      4289       4290       4301       4300       4410       4411       4422       4421  
      4291       4292       4303       4302       4412       4413       4424       4423  
      4292       4293       4304       4303       4413       4414       4425       4424  
      4293       4294       4305       4304       4414       4415       4426       4425  
      4294       4295       4306       4305       4415       4416       4427       4426  
      4295       4296       4307       4306       4416       4417       4428       4427  
      4296       4297       4308       4307       4417       4418       4429       4428  
      4297       4298       4309       4308       4418       4419       4430       4429  
      4298       4299       4310       4309       4419       4420       4431       4430  
      4299       4300       4311       4310       4420       4421       4432       4431  
      4300       4301       4312       4311       4421       4422       4433       4432  
      4302       4303       4314       4313       4423       4424       4435       4434  
      4303       4304       4315       4314       4424       4425       4436       4435  
      4304       4305       4316       4315       4425       4426       4437       4436  
      4305       4306       4317       4316       4426       4427       4438       4437  
      4306       4307       4318       4317       4427       4428       4439       4438  
      4307       4308       4319       4318       4428       4429       4440       4439  
      4308       4309       4320       4319       4429       4430       4441       4440  
      4309       4310       4321       4320       4430       4431       4442       4441  
      4310       4311       4322       4321       4431       4432       4443       4442  
      4311       4312       4323       4322       4432       4433       4444       4443  
      4313       4314       4325       4324       4434       4435       4446       4445  
      4314       4315       4326       4325       4435       4436       4447       4446  
      4315       4316       4327       4326       4436       4437       4448       4447  
      4316       4317       4328       4327       4437       4438       4449       4448  
      4317       4318       4329       4328       4438       4439       4450       4449  
      4318       4319       4330       4329       4439       4440       4451       4450  
      4319       4320       4331       4330       4440       4441       4452       4451  
      4320       4321       4332       4331       4441       4442       4453       4452  
      4321       4322       4333       4332       4442       4443       4454       4453  
      4322       4323       4334       4333       4443       4444       4455       4454  
      4324       4325       4336       4335       4445       4446       4457       4456  
      4325       4326       4337       4336       4446       4447       4458       4457  
      4326       4327       4338       4337       4447       4448       4459       4458  
      4327       4328       4339       4338       4448       4449       4460       4459  
      4328       4329       4340       4339       4449       4450       4461       4460  
      4329       4330       4341       4340       4450       4451       4462       4461  
      4330       4331       4342       4341       4451       4452       4463       4462  
      4331       4332       4343       4342       4452       4453       4464       4463  
      4332       4333       4344       4343       4453       4454       4465       4464  
      4333       4334       4345       4344       4454       4455       4466       4465  
      4335       4336       4347       4346       4456       4457       4468       4467  
      4336       4337       4348       4347       4457       4458       4469       4468  
      4337       4338       4349       4348       4458       4459       4470       4469  
      4338       4339       4350       4349       4459       4460       4471       4470  
      4339       4340       4351       4350       4460       4461       4472       4471  
      4340       4341       4352       4351       4461       4462       4473       4472  
      4341       4342       4353       4352       4462       4463       4474       4473  
      4342       4343       4354       4353       4463       4464       4475       4474  
      4343       4344       4355       4354       4464       4465       4476       4475  
      4344       4345       4356       4355       4465       4466       4477       4476  
      4357       4358       4369       4368       4478       4479       4490       4489  
      4358       4359       4370       4369       4479       4480       4491       4490  
      4359       4360       4371       4370       4480       4481       4492       4491  
      4360       4361       4372       4371       4481       4482       4493       4492  
      4361       4362       4373       4372       4482       4483       4494       4493  
      4362       4363       4374       4373       4483       4484       4495       4494  
      4363       4364       4375       4374       4484       4485       4496       4495  
      4364       4365       4376       4375       4485       4486       4497       4496  
      4365       4366       4377       4376       4486       4487       4498       4497  
      4366       4367       4378       4377       4487       4488       4499       4498  
      4368       4369       4380       4379       4489       4490       4501       4500  
      4369       4370       4381       4380       4490       4491       4502       4501  
      4370       4371       4382       4381       4491       4492       4503       4502  
      4371       4372       4383       4382       4492       4493       4504       4503  
      4372       4373       4384       4383       4493       4494       4505       4504  
      4373       4374       4385       4384       4494       4495       4506       4505  
      4374       4375       4386       4385       4495       4496       4507       4506  
      4375       4376       4387       4386       4496       4497       4508       4507  
      4376       4377       4388       4387       4497       4498       4509       4508  
      4377       4378       4389       4388       4498       4499       4510       4509  
      4379       4380       4391       4390       4500       4501       4512       4511  
      4380       4381       4392       4391       4501       4502       4513       4512  
      4381       4382       4393       4392       4502       4503       4514       4513  
      4382       4383       4394       4393       4503       4504       4515       4514  
      4383       4384       4395       4394       4504       4505       4516       4515  
      4384       4385       4396       4395       4505       4506       4517       4516  
      4385       4386       4397       4396       4506       4507       4518       4517  
      4386       4387       4398       4397       4507       4508       4519       4518  
      4387       4388       4399       4398       4508       4509       4520       4519  
      4388       4389       4400       4399       4509       4510       4521       4520  
      4390       4391       4402       4401       4511       4512       4523       4522  
      4391       4392       4403       4402       4512       4513       4524       4523  
      4392       4393       4404       4403       4513       4514       4525       4524  
      4393       4394       4405       4404       4514       4515       4526       4525  
      4394       4395       4406       4405       4515       4516       4527       4526  
      4395       4396       4407       4406       4516       4517       4528       4527  
      4396       4397       4408       4407       4517       4518       4529       4528  
      4397       4398       4409       4408       4518       4519       4530       4529  
      4398       4399       4410       4409       4519       4520       4531       4530  
      4399       4400       4411       4410       4520       4521       4532       4531  
      4401       4402       4413       4412       4522       4523       4534       4533  
      4402       4403       4414       4413       4523       4524       4535       4534  
      4403       4404       4415       4414       4524       4525       4536       4535  
      4404       4405       4416       4415       4525       4526       4537       4536  
      4405       4406       4417       4416       4526       4527       4538       4537  
      4406       4407       4418       4417       4527       4528       4539       4538  
      4407       4408       4419       4418       4528       4529       4540       4539  
      4408       4409       4420       4419       4529       4530       4541       4540  
      4409       4410       4421       4420       4530       4531       4542       4541  
      4410       4411       4422       4421       4531       4532       4543       4542  
      4412       4413       4424       4423       4533       4534       4545       4544  
      4413       4414       4425       4424       4534       4535       4546       4545  
      4414       4415       4426       4425       4535       4536       4547       4546  
      4415       4416       4427       4426       4536       4537       4548       4547  
      4416       4417       4428       4427       4537       4538       4549       4548  
      4417       4418       4429       4428       4538       4539       4550       4549  
      4418       4419       4430       4429       4539       4540       4551       4550  
      4419       4420       4431       4430       4540       4541       4552       4551  
      4420       4421       4432       4431       4541       4542       4553       4552  
      4421       4422       4433       4432       4542       4543       4554       4553  
      4423       4424       4435       4434       4544       4545       4556       4555  
      4424       4425       4436       4435       4545       4546       4557       4556  
      4425       4426       4437       4436       4546       4547       4558       4557  
      4426       4427       4438       4437       4547       4548       4559       4558  
      4427       4428       4439       4438       4548       4549       4560       4559  
      4428       4429       4440       4439       4549       4550       4561       4560  
      4429       4430       4441       4440       4550       4551       4562       4561  
      4430       4431       4442       4441       4551       4552       4563       4562  
      4431       4432       4443       4442       4552       4553       4564       4563  
      4432       4433       4444       4443       4553       4554       4565       4564  
      4434       4435       4446       4445       4555       4556       4567       4566  
      4435       4436       4447       4446       4556       4557       4568       4567  
      4436       4437       4448       4447       4557       4558       4569       4568  
      4437       4438       4449       4448       4558       4559       4570       4569  
      4438       4439       4450       4449       4559       4560       4571       4570  
      4439       4440       4451       4450       4560       4561       4572       4571  
      4440       4441       4452       4451       4561       4562       4573       4572  
      4441       4442       4453       4452       4562       4563       4574       4573  
      4442       4443       4454       4453       4563       4564       4575       4574  
      4443       4444       4455       4454       4564       4565       4576       4575  
      4445       4446       4457       4456       4566       4567       4578       4577  
      4446       4447       4458       4457       4567       4568       4579       4578  
      4447       4448       4459       4458       4568       4569       4580       4579  
      4448       4449       4460       4459       4569       4570       4581       4580  
      4449       4450       4461       4460       4570       4571       4582       4581  
      4450       4451       4462       4461       4571       4572       4583       4582  
      4451       4452       4463       4462       4572       4573       4584       4583  
      4452       4453       4464       4463       4573       4574       4585       4584  
      4453       4454       4465       4464       4574       4575       4586       4585  
      4454       4455       4466       4465       4575       4576       4587       4586  
      4456       4457       4468       4467       4577       4578       4589       4588  
      4457       4458       4469       4468       4578       4579       4590       4589  
      4458       4459       4470       4469       4579       4580       4591       4590  
      4459       4460       4471       4470       4580       4581       4592       4591  
      4460       4461       4472       4471       4581       4582       4593       4592  
      4461       4462       4473       4472       4582       4583       4594       4593  
      4462       4463       4474       4473       4583       4584       4595       4594  
      4463       4464       4475       4474       4584       4585       4596       4595  
      4464       4465       4476       4475       4585       4586       4597       4596  
      4465       4466       4477       4476       4586       4587       4598       4597  
      4478       4479       4490       4489       4599       4600       4611       4610  
      4479       4480       4491       4490       4600       4601       4612       4611  
      4480       4481       4492       4491       4601       4602       4613       4612  
      4481       4482       4493       4492       4602       4603       4614       4613  
      4482       4483       4494       4493       4603       4604       4615       4614  
      4483       4484       4495       4494       4604       4605       4616       4615  
      4484       4485       4496       4495       4605       4606       4617       4616  
      4485       4486       4497       4496       4606       4607       4618       4617  
      4486       4487       4498       4497       4607       4608       4619       4618  
      4487       4488       4499       4498       4608       4609       4620       4619  
      4489       4490       4501       4500       4610       4611       4622       4621  
      4490       4491       4502       4501       4611       4612       4623       4622  
      4491       4492       4503       4502       4612       4613       4624       4623  
      4492       4493       4504       4503       4613       4614       4625       4624  
      4493       4494       4505       4504       4614       4615       4626       4625  
      4494       4495       4506       4505       4615       4616       4627       4626  
      4495       4496       4507       4506       4616       4617       4628       4627  
      4496       4497       4508       4507       4617       4618       4629       4628  
      4497       4498       4509       4508       4618       4619       4630       4629  
      4498       4499       4510       4509       4619       4620       4631       4630  
      4500       4501       4512       4511       4621       4622       4633       4632  
      4501       4502       4513       4512       4622       4623       4634       4633  
      4502       4503       4514       4513       4623       4624       4635       4634  
      4503       4504       4515       4514       4624       4625       4636       4635  
      4504       4505       4516       4515       4625       4626       4637       4636  
      4505       4506       4517       4516       4626       4627       4638       4637  
      4506       4507       4518       4517       4627       4628       4639       4638  
      4507       4508       4519       4518       4628       4629       4640       4639  
      4508       4509       4520       4519       4629       4630       4641       4640  
      4509       4510       4521       4520       4630       4631       4642       4641  
      4511       4512       4523       4522       4632       4633       4644       4643  
      4512       4513       4524       4523       4633       4634       4645       4644  
      4513       4514       4525       4524       4634       4635       4646       4645  
      4514       4515       4526       4525       4635       4636       4647       4646  
      4515       4516       4527       4526       4636       4637       4648       4647  
      4516       4517       4528       4527       4637       4638       4649       4648  
      4517       4518       4529       4528       4638       4639       4650       4649  
      4518       4519       4530       4529       4639       4640       4651       4650  
      4519       4520       4531       4530       4640       4641       4652       4651  
      4520       4521       4532       4531       4641       4642       4653       4652  
      4522       4523       4534       4533       4643       4644       4655       4654  
      4523       4524       4535       4534       4644       4645       4656       4655  
      4524       4525       4536       4535       4645       4646       4657       4656  
      4525       4526       4537       4536       4646       4647       4658       4657  
      4526       4527       4538       4537       4647       4648       4659       4658  
      4527       4528       4539       4538       4648       4649       4660       4659  
      4528       4529       4540       4539       4649       4650       4661       4660  
      4529       4530       4541       4540       4650       4651       4662       4661  
      4530       4531       4542       4541       4651       4652       4663       4662  
      4531       4532       4543       4542       4652       4653       4664       4663  
      4533       4534       4545       4544       4654       4655       4666       4665  
      4534       4535       4546       4545       4655       4656       4667       4666  
      4535       4536       4547       4546       4656       4657       4668       4667  
      4536       4537       4548       4547       4657       4658       4669       4668  
      4537       4538       4549       4548       4658       4659       4670       4669  
      4538       4539       4550       4549       4659       4660       4671       4670  
      4539       4540       4551       4550       4660       4661       4672       4671  
      4540       4541       4552       4551       4661       4662       4673       4672  
      4541       4542       4553       4552       4662       4663       4674       4673  
      4542       4543       4554       4553       4663       4664       4675       4674  
      4544       4545       4556       4555       4665       4666       4677       4676  
      4545       4546       4557       4556       4666       4667       4678       4677  
      4546       4547       4558       4557       4667       4668       4679       4678  
      4547       4548       4559       4558       4668       4669       4680       4679  
      4548       4549       4560       4559       4669       4670       4681       4680  
      4549       4550       4561       4560       4670       4671       4682       4681  
      4550       4551       4562       4561       4671       4672       4683       4682  
      4551       4552       4563       4562       4672       4673       4684       4683  
      4552       4553       4564       4563       4673       4674       4685       4684  
      4553       4554       4565       4564       4674       4675       4686       4685  
      4555       4556       4567       4566       4676       4677       4688       4687  
      4556       4557       4568       4567       4677       4678       4689       4688  
      4557       4558       4569       4568       4678       4679       4690       4689  
      4558       4559       4570       4569       4679       4680       4691       4690  
      4559       4560       4571       4570       4680       4681       4692       4691  
      4560       4561       4572       4571       4681       4682       4693       4692  
      4561       4562       4573       4572       4682       4683       4694       4693  
      4562       4563       4574       4573       4683       4684       4695       4694  
      4563       4564       4575       4574       4684       4685       4696       4695  
      4564       4565       4576       4575       4685       4686       4697       4696  
      4566       4567       4578       4577       4687       4688       4699       4698  
      4567       4568       4579       4578       4688       4689       4700       4699  
      4568       4569       4580       4579       4689       4690       4701       4700  
      4569       4570       4581       4580       4690       4691       4702       4701  
      4570       4571       4582       4581       4691       4692       4703       4702  
      4571       4572       4583       4582       4692       4693       4704       4703  
      4572       4573       4584       4583       4693       4694       4705       4704  
      4573       4574       4585       4584       4694       4695       4706       4705  
      4574       4575       4586       4585       4695       4696       4707       4706  
      4575       4576       4587       4586       4696       4697       4708       4707  
      4577       4578       4589       4588       4698       4699       4710       4709  
      4578       4579       4590       4589       4699       4700       4711       4710  
      4579       4580       4591       4590       4700       4701       4712       4711  
      4580       4581       4592       4591       4701       4702       4713       4712  
      4581       4582       4593       4592       4702       4703       4714       4713  
      4582       4583       4594       4593       4703       4704       4715       4714  
      4583       4584       4595       4594       4704       4705       4716       4715  
      4584       4585       4596       4595       4705       4706       4717       4716  
      4585       4586       4597       4596       4706       4707       4718       4717  
      4586       4587       4598       4597       4707       4708       4719       4718  
      4599       4600       4611       4610       4720       4721       4732       4731  
      4600       4601       4612       4611       4721       4722       4733       4732  
      4601       4602       4613       4612       4722       4723       4734       4733  
      4602       4603       4614       4613       4723       4724       4735       4734  
      4603       4604       4615       4614       4724       4725       4736       4735  
      4604       4605       4616       4615       4725       4726       4737       4736  
      4605       4606       4617       4616       4726       4727       4738       4737  
      4606       4607       4618       4617       4727       4728       4739       4738  
      4607       4608       4619       4618       4728       4729       4740       4739  
      4608       4609       4620       4619       4729       4730       4741       4740  
      4610       4611       4622       4621       4731       4732       4743       4742  
      4611       4612       4623       4622       4732       4733       4744       4743  
      4612       4613       4624       4623       4733       4734       4745       4744  
      4613       4614       4625       4624       4734       4735       4746       4745  
      4614       4615       4626       4625       4735       4736       4747       4746  
      4615       4616       4627       4626       4736       4737       4748       4747  
      4616       4617       4628       4627       4737       4738       4749       4748  
      4617       4618       4629       4628       4738       4739       4750       4749  
      4618       4619       4630       4629       4739       4740       4751       4750  
      4619       4620       4631       4630       4740       4741       4752       4751  
      4621       4622       4633       4632       4742       4743       4754       4753  
      4622       4623       4634       4633       4743       4744       4755       4754  
      4623       4624       4635       4634       4744       4745       4756       4755  
      4624       4625       4636       4635       4745       4746       4757       4756  
      4625       4626       4637       4636       4746       4747       4758       4757  
      4626       4627       4638       4637       4747       4748       4759       4758  
      4627       4628       4639       4638       4748       4749       4760       4759  
      4628       4629       4640       4639       4749       4750       4761       4760  
      4629       4630       4641       4640       4750       4751       4762       4761  
      4630       4631       4642       4641       4751       4752       4763       4762  
      4632       4633       4644       4643       4753       4754       4765       4764  
      4633       4634       4645       4644       4754       4755       4766       4765  
      4634       4635       4646       4645       4755       4756       4767       4766  
      4635       4636       4647       4646       4756       4757       4768       4767  
      4636       4637       4648       4647       4757       4758       4769       4768  
      4637       4638       4649       4648       4758       4759       4770       4769  
      4638       4639       4650       4649       4759       4760       4771       4770  
      4639       4640       4651       4650       4760       4761       4772       4771  
      4640       4641       4652       4651       4761       4762       4773       4772  
      4641       4642       4653       4652       4762       4763       4774       4773  
      4643       4644       4655       4654       4764       4765       4776       4775  
      4644       4645       4656       4655       4765       4766       4777       4776  
      4645       4646       4657       4656       4766       4767       4778       4777  
      4646       4647       4658       4657       4767       4768       4779       4778  
      4647       4648       4659       4658       4768       4769       4780       4779  
      4648       4649       4660       4659       4769       4770       4781       4780  
      4649       4650       4661       4660       4770       4771       4782       4781  
      4650       4651       4662       4661       4771       4772       4783       4782  
      4651       4652       4663       4662       4772       4773       4784       4783  
      4652       4653       4664       4663       4773       4774       4785       4784  
      4654       4655       4666       4665       4775       4776       4787       4786  
      4655       4656       4667       4666       4776       4777       4788       4787  
      4656       4657       4668       4667       4777       4778       4789       4788  
      4657       4658       4669       4668       4778       4779       4790       4789  
      4658       4659       4670       4669       4779       4780       4791       4790  
      4659       4660       4671       4670       4780       4781       4792       4791  
      4660       4661       4672       4671       4781       4782       4793       4792  
      4661       4662       4673       4672       4782       4783       4794       4793  
      4662       4663       4674       4673       4783       4784       4795       4794  
      4663       4664       4675       4674       4784       4785       4796       4795  
      4665       4666       4677       4676       4786       4787       4798       4797  
      4666       4667       4678       4677       4787       4788       4799       4798  
      4667       4668       4679       4678       4788       4789       4800       4799  
      4668       4669       4680       4679       4789       4790       4801       4800  
      4669       4670       4681       4680       4790       4791       4802       4801  
      4670       4671       4682       4681       4791       4792       4803       4802  
      4671       4672       4683       4682       4792       4793       4804       4803  
      4672       4673       4684       4683       4793       4794       4805       4804  
      4673       4674       4685       4684       4794       4795       4806       4805  
      4674       4675       4686       4685       4795       4796       4807       4806  
      4676       4677       4688       4687       4797       4798       4809       4808  
      4677       4678       4689       4688       4798       4799       4810       4809  
      4678       4679       4690       4689       4799       4800       4811       4810  
      4679       4680       4691       4690       4800       4801       4812       4811  
      4680       4681       4692       4691       4801       4802       4813       4812  
      4681       4682       4693       4692       4802       4803       4814       4813  
      4682       4683       4694       4693       4803       4804       4815       4814  
      4683       4684       4695       4694       4804       4805       4816       4815  
      4684       4685       4696       4695       4805       4806       4817       4816  
      4685       4686       4697       4696       4806       4807       4818       4817  
      4687       4688       4699       4698       4808       4809       4820       4819  
      4688       4689       4700       4699       4809       4810       4821       4820  
      4689       4690       4701       4700       4810       4811       4822       4821  
      4690       4691       4702       4701       4811       4812       4823       4822  
      4691       4692       4703       4702       4812       4813       4824       4823  
      4692       4693       4704       4703       4813       4814       4825       4824  
      4693       4694       4705       4704       4814       4815       4826       4825  
      4694       4695       4706       4705       4815       4816       4827       4826  
      4695       4696       4707       4706       4816       4817       4828       4827  
      4696       4697       4708       4707       4817       4818       4829       4828  
      4698       4699       4710       4709       4819       4820       4831       4830  
      4699       4700       4711       4710       4820       4821       4832       4831  
      4700       4701       4712       4711       4821       4822       4833       4832  
      4701       4702       4713       4712       4822       4823       4834       4833  
      4702       4703       4714       4713       4823       4824       4835       4834  
      4703       4704       4715       4714       4824       4825       4836       4835  
      4704       4705       4716       4715       4825       4826       4837       4836  
      4705       4706       4717       4716       4826       4827       4838       4837  
      4706       4707       4718       4717       4827       4828       4839       4838  
      4707       4708       4719       4718       4828       4829       4840       4839  
      4720       4721       4732       4731       4841       4842       4853       4852  
      4721       4722       4733       4732       4842       4843       4854       4853  
      4722       4723       4734       4733       4843       4844       4855       4854  
      4723       4724       4735       4734       4844       4845       4856       4855  
      4724       4725       4736       4735       4845       4846       4857       4856  
      4725       4726       4737       4736       4846       4847       4858       4857  
      4726       4727       4738       4737       4847       4848       4859       4858  
      4727       4728       4739       4738       4848       4849       4860       4859  
      4728       4729       4740       4739       4849       4850       4861       4860  
      4729       4730       4741       4740       4850       4851       4862       4861  
      4731       4732       4743       4742       4852       4853       4864       4863  
      4732       4733       4744       4743       4853       4854       4865       4864  
      4733       4734       4745       4744       4854       4855       4866       4865  
      4734       4735       4746       4745       4855       4856       4867       4866  
      4735       4736       4747       4746       4856       4857       4868       4867  
      4736       4737       4748       4747       4857       4858       4869       4868  
      4737       4738       4749       4748       4858       4859       4870       4869  
      4738       4739       4750       4749       4859       4860       4871       4870  
      4739       4740       4751       4750       4860       4861       4872       4871  
      4740       4741       4752       4751       4861       4862       4873       4872  
      4742       4743       4754       4753       4863       4864       4875       4874  
      4743       4744       4755       4754       4864       4865       4876       4875  
      4744       4745       4756       4755       4865       4866       4877       4876  
      4745       4746       4757       4756       4866       4867       4878       4877  
      4746       4747       4758       4757       4867       4868       4879       4878  
      4747       4748       4759       4758       4868       4869       4880       4879  
      4748       4749       4760       4759       4869       4870       4881       4880  
      4749       4750       4761       4760       4870       4871       4882       4881  
      4750       4751       4762       4761       4871       4872       4883       4882  
      4751       4752       4763       4762       4872       4873       4884       4883  
      4753       4754       4765       4764       4874       4875       4886       4885  
      4754       4755       4766       4765       4875       4876       4887       4886  
      4755       4756       4767       4766       4876       4877       4888       4887  
      4756       4757       4768       4767       4877       4878       4889       4888  
      4757       4758       4769       4768       4878       4879       4890       4889  
      4758       4759       4770       4769       4879       4880       4891       4890  
      4759       4760       4771       4770       4880       4881       4892       4891  
      4760       4761       4772       4771       4881       4882       4893       4892  
      4761       4762       4773       4772       4882       4883       4894       4893  
      4762       4763       4774       4773       4883       4884       4895       4894  
      4764       4765       4776       4775       4885       4886       4897       4896  
      4765       4766       4777       4776       4886       4887       4898       4897  
      4766       4767       4778       4777       4887       4888       4899       4898  
      4767       4768       4779       4778       4888       4889       4900       4899  
      4768       4769       4780       4779       4889       4890       4901       4900  
      4769       4770       4781       4780       4890       4891       4902       4901  
      4770       4771       4782       4781       4891       4892       4903       4902  
      4771       4772       4783       4782       4892       4893       4904       4903  
      4772       4773       4784       4783       4893       4894       4905       4904  
      4773       4774       4785       4784       4894       4895       4906       4905  
      4775       4776       4787       4786       4896       4897       4908       4907  
      4776       4777       4788       4787       4897       4898       4909       4908  
      4777       4778       4789       4788       4898       4899       4910       4909  
      4778       4779       4790       4789       4899       4900       4911       4910  
      4779       4780       4791       4790       4900       4901       4912       4911  
      4780       4781       4792       4791       4901       4902       4913       4912  
      4781       4782       4793       4792       4902       4903       4914       4913  
      4782       4783       4794       4793       4903       4904       4915       4914  
      4783       4784       4795       4794       4904       4905       4916       4915  
      4784       4785       4796       4795       4905       4906       4917       4916  
      4786       4787       4798       4797       4907       4908       4919       4918  
      4787       4788       4799       4798       4908       4909       4920       4919  
      4788       4789       4800       4799       4909       4910       4921       4920  
      4789       4790       4801       4800       4910       4911       4922       4921  
      4790       4791       4802       4801       4911       4912       4923       4922  
      4791       4792       4803       4802       4912       4913       4924       4923  
      4792       4793       4804       4803       4913       4914       4925       4924  
      4793       4794       4805       4804       4914       4915       4926       4925  
      4794       4795       4806       4805       4915       4916       4927       4926  
      4795       4796       4807       4806       4916       4917       4928       4927  
      4797       4798       4809       4808       4918       4919       4930       4929  
      4798       4799       4810       4809       4919       4920       4931       4930  
      4799       4800       4811       4810       4920       4921       4932       4931  
      4800       4801       4812       4811       4921       4922       4933       4932  
      4801       4802       4813       4812       4922       4923       4934       4933  
      4802       4803       4814       4813       4923       4924       4935       4934  
      4803       4804       4815       4814       4924       4925       4936       4935  
      4804       4805       4816       4815       4925       4926       4937       4936  
      4805       4806       4817       4816       4926       4927       4938       4937  
      4806       4807       4818       4817       4927       4928       4939       4938  
      4808       4809       4820       4819       4929       4930       4941       4940  
      4809       4810       4821       4820       4930       4931       4942       4941  
      4810       4811       4822       4821       4931       4932       4943       4942  
      4811       4812       4823       4822       4932       4933       4944       4943  
      4812       4813       4824       4823       4933       4934       4945       4944  
      4813       4814       4825       4824       4934       4935       4946       4945  
      4814       4815       4826       4825       4935       4936       4947       4946  
      4815       4816       4827       4826       4936       4937       4948       4947  
      4816       4817       4828       4827       4937       4938       4949       4948  
      4817       4818       4829       4828       4938       4939       4950       4949  
      4819       4820       4831       4830       4940       4941       4952       4951  
      4820       4821       4832       4831       4941       4942       4953       4952  
      4821       4822       4833       4832       4942       4943       4954       4953  
      4822       4823       4834       4833       4943       4944       4955       4954  
      4823       4824       4835       4834       4944       4945       4956       4955  
      4824       4825       4836       4835       4945       4946       4957       4956  
      4825       4826       4837       4836       4946       4947       4958       4957  
      4826       4827       4838       4837       4947       4948       4959       4958  
      4827       4828       4839       4838       4948       4949       4960       4959  
      4828       4829       4840       4839       4949       4950       4961       4960  
      4841       4842       4853       4852       4962       4963       4974       4973  
      4842       4843       4854       4853       4963       4964       4975       4974  
      4843       4844       4855       4854       4964       4965       4976       4975  
      4844       4845       4856       4855       4965       4966       4977       4976  
      4845       4846       4857       4856       4966       4967       4978       4977  
      4846       4847       4858       4857       4967       4968       4979       4978  
      4847       4848       4859       4858       4968       4969       4980       4979  
      4848       4849       4860       4859       4969       4970       4981       4980  
      4849       4850       4861       4860       4970       4971       4982       4981  
      4850       4851       4862       4861       4971       4972       4983       4982  
      4852       4853       4864       4863       4973       4974       4985       4984  
      4853       4854       4865       4864       4974       4975       4986       4985  
      4854       4855       4866       4865       4975       4976       4987       4986  
      4855       4856       4867       4866       4976       4977       4988       4987  
      4856       4857       4868       4867       4977       4978       4989       4988  
      4857       4858       4869       4868       4978       4979       4990       4989  
      4858       4859       4870       4869       4979       4980       4991       4990  
      4859       4860       4871       4870       4980       4981       4992       4991  
      4860       4861       4872       4871       4981       4982       4993       4992  
      4861       4862       4873       4872       4982       4983       4994       4993  
      4863       4864       4875       4874       4984       4985       4996       4995  
      4864       4865       4876       4875       4985       4986       4997       4996  
      4865       4866       4877       4876       4986       4987       4998       4997  
      4866       4867       4878       4877       4987       4988       4999       4998  
      4867       4868       4879       4878       4988       4989       5000       4999  
      4868       4869       4880       4879       4989       4990       5001       5000  
      4869       4870       4881       4880       4990       4991       5002       5001  
      4870       4871       4882       4881       4991       4992       5003       5002  
      4871       4872       4883       4882       4992       4993       5004       5003  
      4872       4873       4884       4883       4993       4994       5005       5004  
      4874       4875       4886       4885       4995       4996       5007       5006  
      4875       4876       4887       4886       4996       4997       5008       5007  
      4876       4877       4888       4887       4997       4998       5009       5008  
      4877       4878       4889       4888       4998       4999       5010       5009  
      4878       4879       4890       4889       4999       5000       5011       5010  
      4879       4880       4891       4890       5000       5001       5012       5011  
      4880       4881       4892       4891       5001       5002       5013       5012  
      4881       4882       4893       4892       5002       5003       5014       5013  
      4882       4883       4894       4893       5003       5004       5015       5014  
      4883       4884       4895       4894       5004       5005       5016       5015  
      4885       4886       4897       4896       5006       5007       5018       5017  
      4886       4887       4898       4897       5007       5008       5019       5018  
      4887       4888       4899       4898       5008       5009       5020       5019  
      4888       4889       4900       4899       5009       5010       5021       5020  
      4889       4890       4901       4900       5010       5011       5022       5021  
      4890       4891       4902       4901       5011       5012       5023       5022  
      4891       4892       4903       4902       5012       5013       5024       5023  
      4892       4893       4904       4903       5013       5014       5025       5024  
      4893       4894       4905       4904       5014       5015       5026       5025  
      4894       4895       4906       4905       5015       5016       5027       5026  
      4896       4897       4908       4907       5017       5018       5029       5028  
      4897       4898       4909       4908       5018       5019       5030       5029  
      4898       4899       4910       4909       5019       5020       5031       5030  
      4899       4900       4911       4910       5020       5021       5032       5031  
      4900       4901       4912       4911       5021       5022       5033       5032  
      4901       4902       4913       4912       5022       5023       5034       5033  
      4902       4903       4914       4913       5023       5024       5035       5034  
      4903       4904       4915       4914       5024       5025       5036       5035  
      4904       4905       4916       4915       5025       5026       5037       5036  
      4905       4906       4917       4916       5026       5027       5038       5037  
      4907       4908       4919       4918       5028       5029       5040       5039  
      4908       4909       4920       4919       5029       5030       5041       5040  
      4909       4910       4921       4920       5030       5031       5042       5041  
      4910       4911       4922       4921       5031       5032       5043       5042  
      4911       4912       4923       4922       5032       5033       5044       5043  
      4912       4913       4924       4923       5033       5034       5045       5044  
      4913       4914       4925       4924       5034       5035       5046       5045  
      4914       4915       4926       4925       5035       5036       5047       5046  
      4915       4916       4927       4926       5036       5037       5048       5047  
      4916       4917       4928       4927       5037       5038       5049       5048  
      4918       4919       4930       4929       5039       5040       5051       5050  
      4919       4920       4931       4930       5040       5041       5052       5051  
      4920       4921       4932       4931       5041       5042       5053       5052  
      4921       4922       4933       4932       5042       5043       5054       5053  
      4922       4923       4934       4933       5043       5044       5055       5054  
      4923       4924       4935       4934       5044       5045       5056       5055  
      4924       4925       4936       4935       5045       5046       5057       5056  
      4925       4926       4937       4936       5046       5047       5058       5057  
      4926       4927       4938       4937       5047       5048       5059       5058  
      4927       4928       4939       4938       5048       5049       5060       5059  
      4929       4930       4941       4940       5050       5051       5062       5061  
      4930       4931       4942       4941       5051       5052       5063       5062  
      4931       4932       4943       4942       5052       5053       5064       5063  
      4932       4933       4944       4943       5053       5054       5065       5064  
      4933       4934       4945       4944       5054       5055       5066       5065  
      4934       4935       4946       4945       5055       5056       5067       5066  
      4935       4936       4947       4946       5056       5057       5068       5067  
      4936       4937       4948       4947       5057       5058       5069       5068  
      4937       4938       4949       4948       5058       5059       5070       5069  
      4938       4939       4950       4949       5059       5060       5071       5070  
      4940       4941       4952       4951       5061       5062       5073       5072  
      4941       4942       4953       4952       5062       5063       5074       5073  
      4942       4943       4954       4953       5063       5064       5075       5074  
      4943       4944       4955       4954       5064       5065       5076       5075  
      4944       4945       4956       4955       5065       5066       5077       5076  
      4945       4946       4957       4956       5066       5067       5078       5077  
      4946       4947       4958       4957       5067       5068       5079       5078  
      4947       4948       4959       4958       5068       5069       5080       5079  
      4948       4949       4960       4959       5069       5070       5081       5080  
      4949       4950       4961       4960       5070       5071       5082       5081  
      4962       4963       4974       4973       5083       5084       5095       5094  
      4963       4964       4975       4974       5084       5085       5096       5095  
      4964       4965       4976       4975       5085       5086       5097       5096  
      4965       4966       4977       4976       5086       5087       5098       5097  
      4966       4967       4978       4977       5087       5088       5099       5098  
      4967       4968       4979       4978       5088       5089       5100       5099  
      4968       4969       4980       4979       5089       5090       5101       5100  
      4969       4970       4981       4980       5090       5091       5102       5101  
      4970       4971       4982       4981       5091       5092       5103       5102  
      4971       4972       4983       4982       5092       5093       5104       5103  
      4973       4974       4985       4984       5094       5095       5106       5105  
      4974       4975       4986       4985       5095       5096       5107       5106  
      4975       4976       4987       4986       5096       5097       5108       5107  
      4976       4977       4988       4987       5097       5098       5109       5108  
      4977       4978       4989       4988       5098       5099       5110       5109  
      4978       4979       4990       4989       5099       5100       5111       5110  
      4979       4980       4991       4990       5100       5101       5112       5111  
      4980       4981       4992       4991       5101       5102       5113       5112  
      4981       4982       4993       4992       5102       5103       5114       5113  
      4982       4983       4994       4993       5103       5104       5115       5114  
      4984       4985       4996       4995       5105       5106       5117       5116  
      4985       4986       4997       4996       5106       5107       5118       5117  
      4986       4987       4998       4997       5107       5108       5119       5118  
      4987       4988       4999       4998       5108       5109       5120       5119  
      4988       4989       5000       4999       5109       5110       5121       5120  
      4989       4990       5001       5000       5110       5111       5122       5121  
      4990       4991       5002       5001       5111       5112       5123       5122  
      4991       4992       5003       5002       5112       5113       5124       5123  
      4992       4993       5004       5003       5113       5114       5125       5124  
      4993       4994       5005       5004       5114       5115       5126       5125  
      4995       4996       5007       5006       5116       5117       5128       5127  
      4996       4997       5008       5007       5117       5118       5129       5128  
      4997       4998       5009       5008       5118       5119       5130       5129  
      4998       4999       5010       5009       5119       5120       5131       5130  
      4999       5000       5011       5010       5120       5121       5132       5131  
      5000       5001       5012       5011       5121       5122       5133       5132  
      5001       5002       5013       5012       5122       5123       5134       5133  
      5002       5003       5014       5013       5123       5124       5135       5134  
      5003       5004       5015       5014       5124       5125       5136       5135  
      5004       5005       5016       5015       5125       5126       5137       5136  
      5006       5007       5018       5017       5127       5128       5139       5138  
      5007       5008       5019       5018       5128       5129       5140       5139  
      5008       5009       5020       5019       5129       5130       5141       5140  
      5009       5010       5021       5020       5130       5131       5142       5141  
      5010       5011       5022       5021       5131       5132       5143       5142  
      5011       5012       5023       5022       5132       5133       5144       5143  
      5012       5013       5024       5023       5133       5134       5145       5144  
      5013       5014       5025       5024       5134       5135       5146       5145  
      5014       5015       5026       5025       5135       5136       5147       5146  
      5015       5016       5027       5026       5136       5137       5148       5147  
      5017       5018       5029       5028       5138       5139       5150       5149  
      5018       5019       5030       5029       5139       5140       5151       5150  
      5019       5020       5031       5030       5140       5141       5152       5151  
      5020       5021       5032       5031       5141       5142       5153       5152  
      5021       5022       5033       5032       5142       5143       5154       5153  
      5022       5023       5034       5033       5143       5144       5155       5154  
      5023       5024       5035       5034       5144       5145       5156       5155  
      5024       5025       5036       5035       5145       5146       5157       5156  
      5025       5026       5037       5036       5146       5147       5158       5157  
      5026       5027       5038       5037       5147       5148       5159       5158  
      5028       5029       5040       5039       5149       5150       5161       5160  
      5029       5030       5041       5040       5150       5151       5162       5161  
      5030       5031       5042       5041       5151       5152       5163       5162  
      5031       5032       5043       5042       5152       5153       5164       5163  
      5032       5033       5044       5043       5153       5154       5165       5164  
      5033       5034       5045       5044       5154       5155       5166       5165  
      5034       5035       5046       5045       5155       5156       5167       5166  
      5035       5036       5047       5046       5156       5157       5168       5167  
      5036       5037       5048       5047       5157       5158       5169       5168  
      5037       5038       5049       5048       5158       5159       5170       5169  
      5039       5040       5051       5050       5160       5161       5172       5171  
      5040       5041       5052       5051       5161       5162       5173       5172  
      5041       5042       5053       5052       5162       5163       5174       5173  
      5042       5043       5054       5053       5163       5164       5175       5174  
      5043       5044       5055       5054       5164       5165       5176       5175  
      5044       5045       5056       5055       5165       5166       5177       5176  
      5045       5046       5057       5056       5166       5167       5178       5177  
      5046       5047       5058       5057       5167       5168       5179       5178  
      5047       5048       5059       5058       5168       5169       5180       5179  
      5048       5049       5060       5059       5169       5170       5181       5180  
      5050       5051       5062       5061       5171       5172       5183       5182  
      5051       5052       5063       5062       5172       5173       5184       5183  
      5052       5053       5064       5063       5173       5174       5185       5184  
      5053       5054       5065       5064       5174       5175       5186       5185  
      5054       5055       5066       5065       5175       5176       5187       5186  
      5055       5056       5067       5066       5176       5177       5188       5187  
      5056       5057       5068       5067       5177       5178       5189       5188  
      5057       5058       5069       5068       5178       5179       5190       5189  
      5058       5059       5070       5069       5179       5180       5191       5190  
      5059       5060       5071       5070       5180       5181       5192       5191  
      5061       5062       5073       5072       5182       5183       5194       5193  
      5062       5063       5074       5073       5183       5184       5195       5194  
      5063       5064       5075       5074       5184       5185       5196       5195  
      5064       5065       5076       5075       5185       5186       5197       5196  
      5065       5066       5077       5076       5186       5187       5198       5197  
      5066       5067       5078       5077       5187       5188       5199       5198  
      5067       5068       5079       5078       5188       5189       5200       5199  
      5068       5069       5080       5079       5189       5190       5201       5200  
      5069       5070       5081       5080       5190       5191       5202       5201  
      5070       5071       5082       5081       5191       5192       5203       5202  
      5083       5084       5095       5094       5204       5205       5216       5215  
      5084       5085       5096       5095       5205       5206       5217       5216  
      5085       5086       5097       5096       5206       5207       5218       5217  
      5086       5087       5098       5097       5207       5208       5219       5218  
      5087       5088       5099       5098       5208       5209       5220       5219  
      5088       5089       5100       5099       5209       5210       5221       5220  
      5089       5090       5101       5100       5210       5211       5222       5221  
      5090       5091       5102       5101       5211       5212       5223       5222  
      5091       5092       5103       5102       5212       5213       5224       5223  
      5092       5093       5104       5103       5213       5214       5225       5224  
      5094       5095       5106       5105       5215       5216       5227       5226  
      5095       5096       5107       5106       5216       5217       5228       5227  
      5096       5097       5108       5107       5217       5218       5229       5228  
      5097       5098       5109       5108       5218       5219       5230       5229  
      5098       5099       5110       5109       5219       5220       5231       5230  
      5099       5100       5111       5110       5220       5221       5232       5231  
      5100       5101       5112       5111       5221       5222       5233       5232  
      5101       5102       5113       5112       5222       5223       5234       5233  
      5102       5103       5114       5113       5223       5224       5235       5234  
      5103       5104       5115       5114       5224       5225       5236       5235  
      5105       5106       5117       5116       5226       5227       5238       5237  
      5106       5107       5118       5117       5227       5228       5239       5238  
      5107       5108       5119       5118       5228       5229       5240       5239  
      5108       5109       5120       5119       5229       5230       5241       5240  
      5109       5110       5121       5120       5230       5231       5242       5241  
      5110       5111       5122       5121       5231       5232       5243       5242  
      5111       5112       5123       5122       5232       5233       5244       5243  
      5112       5113       5124       5123       5233       5234       5245       5244  
      5113       5114       5125       5124       5234       5235       5246       5245  
      5114       5115       5126       5125       5235       5236       5247       5246  
      5116       5117       5128       5127       5237       5238       5249       5248  
      5117       5118       5129       5128       5238       5239       5250       5249  
      5118       5119       5130       5129       5239       5240       5251       5250  
      5119       5120       5131       5130       5240       5241       5252       5251  
      5120       5121       5132       5131       5241       5242       5253       5252  
      5121       5122       5133       5132       5242       5243       5254       5253  
      5122       5123       5134       5133       5243       5244       5255       5254  
      5123       5124       5135       5134       5244       5245       5256       5255  
      5124       5125       5136       5135       5245       5246       5257       5256  
      5125       5126       5137       5136       5246       5247       5258       5257  
      5127       5128       5139       5138       5248       5249       5260       5259  
      5128       5129       5140       5139       5249       5250       5261       5260  
      5129       5130       5141       5140       5250       5251       5262       5261  
      5130       5131       5142       5141       5251       5252       5263       5262  
      5131       5132       5143       5142       5252       5253       5264       5263  
      5132       5133       5144       5143       5253       5254       5265       5264  
      5133       5134       5145       5144       5254       5255       5266       5265  
      5134       5135       5146       5145       5255       5256       5267       5266  
      5135       5136       5147       5146       5256       5257       5268       5267  
      5136       5137       5148       5147       5257       5258       5269       5268  
      5138       5139       5150       5149       5259       5260       5271       5270  
      5139       5140       5151       5150       5260       5261       5272       5271  
      5140       5141       5152       5151       5261       5262       5273       5272  
      5141       5142       5153       5152       5262       5263       5274       5273  
      5142       5143       5154       5153       5263       5264       5275       5274  
      5143       5144       5155       5154       5264       5265       5276       5275  
      5144       5145       5156       5155       5265       5266       5277       5276  
      5145       5146       5157       5156       5266       5267       5278       5277  
      5146       5147       5158       5157       5267       5268       5279       5278  
      5147       5148       5159       5158       5268       5269       5280       5279  
      5149       5150       5161       5160       5270       5271       5282       5281  
      5150       5151       5162       5161       5271       5272       5283       5282  
      5151       5152       5163       5162       5272       5273       5284       5283  
      5152       5153       5164       5163       5273       5274       5285       5284  
      5153       5154       5165       5164       5274       5275       5286       5285  
      5154       5155       5166       5165       5275       5276       5287       5286  
      5155       5156       5167       5166       5276       5277       5288       5287  
      5156       5157       5168       5167       5277       5278       5289       5288  
      5157       5158       5169       5168       5278       5279       5290       5289  
      5158       5159       5170       5169       5279       5280       5291       5290  
      5160       5161       5172       5171       5281       5282       5293       5292  
      5161       5162       5173       5172       5282       5283       5294       5293  
      5162       5163       5174       5173       5283       5284       5295       5294  
      5163       5164       5175       5174       5284       5285       5296       5295  
      5164       5165       5176       5175       5285       5286       5297       5296  
      5165       5166       5177       5176       5286       5287       5298       5297  
      5166       5167       5178       5177       5287       5288       5299       5298  
      5167       5168       5179       5178       5288       5289       5300       5299  
      5168       5169       5180       5179       5289       5290       5301       5300  
      5169       5170       5181       5180       5290       5291       5302       5301  
      5171       5172       5183       5182       5292       5293       5304       5303  
      5172       5173       5184       5183       5293       5294       5305       5304  
      5173       5174       5185       5184       5294       5295       5306       5305  
      5174       5175       5186       5185       5295       5296       5307       5306  
      5175       5176       5187       5186       5296       5297       5308       5307  
      5176       5177       5188       5187       5297       5298       5309       5308  
      5177       5178       5189       5188       5298       5299       5310       5309  
      5178       5179       5190       5189       5299       5300       5311       5310  
      5179       5180       5191       5190       5300       5301       5312       5311  
      5180       5181       5192       5191       5301       5302       5313       5312  
      5182       5183       5194       5193       5303       5304       5315       5314  
      5183       5184       5195       5194       5304       5305       5316       5315  
      5184       5185       5196       5195       5305       5306       5317       5316  
      5185       5186       5197       5196       5306       5307       5318       5317  
      5186       5187       5198       5197       5307       5308       5319       5318  
      5187       5188       5199       5198       5308       5309       5320       5319  
      5188       5189       5200       5199       5309       5310       5321       5320  
      5189       5190       5201       5200       5310       5311       5322       5321  
      5190       5191       5202       5201       5311       5312       5323       5322  
      5191       5192       5203       5202       5312       5313       5324       5323  
      5204       5205       5216       5215       5325       5326       5337       5336  
      5205       5206       5217       5216       5326       5327       5338       5337  
      5206       5207       5218       5217       5327       5328       5339       5338  
      5207       5208       5219       5218       5328       5329       5340       5339  
      5208       5209       5220       5219       5329       5330       5341       5340  
      5209       5210       5221       5220       5330       5331       5342       5341  
      5210       5211       5222       5221       5331       5332       5343       5342  
      5211       5212       5223       5222       5332       5333       5344       5343  
      5212       5213       5224       5223       5333       5334       5345       5344  
      5213       5214       5225       5224       5334       5335       5346       5345  
      5215       5216       5227       5226       5336       5337       5348       5347  
      5216       5217       5228       5227       5337       5338       5349       5348  
      5217       5218       5229       5228       5338       5339       5350       5349  
      5218       5219       5230       5229       5339       5340       5351       5350  
      5219       5220       5231       5230       5340       5341       5352       5351  
      5220       5221       5232       5231       5341       5342       5353       5352  
      5221       5222       5233       5232       5342       5343       5354       5353  
      5222       5223       5234       5233       5343       5344       5355       5354  
      5223       5224       5235       5234       5344       5345       5356       5355  
      5224       5225       5236       5235       5345       5346       5357       5356  
      5226       5227       5238       5237       5347       5348       5359       5358  
      5227       5228       5239       5238       5348       5349       5360       5359  
      5228       5229       5240       5239       5349       5350       5361       5360  
      5229       5230       5241       5240       5350       5351       5362       5361  
      5230       5231       5242       5241       5351       5352       5363       5362  
      5231       5232       5243       5242       5352       5353       5364       5363  
      5232       5233       5244       5243       5353       5354       5365       5364  
      5233       5234       5245       5244       5354       5355       5366       5365  
      5234       5235       5246       5245       5355       5356       5367       5366  
      5235       5236       5247       5246       5356       5357       5368       5367  
      5237       5238       5249       5248       5358       5359       5370       5369  
      5238       5239       5250       5249       5359       5360       5371       5370  
      5239       5240       5251       5250       5360       5361       5372       5371  
      5240       5241       5252       5251       5361       5362       5373       5372  
      5241       5242       5253       5252       5362       5363       5374       5373  
      5242       5243       5254       5253       5363       5364       5375       5374  
      5243       5244       5255       5254       5364       5365       5376       5375  
      5244       5245       5256       5255       5365       5366       5377       5376  
      5245       5246       5257       5256       5366       5367       5378       5377  
      5246       5247       5258       5257       5367       5368       5379       5378  
      5248       5249       5260       5259       5369       5370       5381       5380  
      5249       5250       5261       5260       5370       5371       5382       5381  
      5250       5251       5262       5261       5371       5372       5383       5382  
      5251       5252       5263       5262       5372       5373       5384       5383  
      5252       5253       5264       5263       5373       5374       5385       5384  
      5253       5254       5265       5264       5374       5375       5386       5385  
      5254       5255       5266       5265       5375       5376       5387       5386  
      5255       5256       5267       5266       5376       5377       5388       5387  
      5256       5257       5268       5267       5377       5378       5389       5388  
      5257       5258       5269       5268       5378       5379       5390       5389  
      5259       5260       5271       5270       5380       5381       5392       5391  
      5260       5261       5272       5271       5381       5382       5393       5392  
      5261       5262       5273       5272       5382       5383       5394       5393  
      5262       5263       5274       5273       5383       5384       5395       5394  
      5263       5264       5275       5274       5384       5385       5396       5395  
      5264       5265       5276       5275       5385       5386       5397       5396  
      5265       5266       5277       5276       5386       5387       5398       5397  
      5266       5267       5278       5277       5387       5388       5399       5398  
      5267       5268       5279       5278       5388       5389       5400       5399  
      5268       5269       5280       5279       5389       5390       5401       5400  
      5270       5271       5282       5281       5391       5392       5403       5402  
      5271       5272       5283       5282       5392       5393       5404       5403  
      5272       5273       5284       5283       5393       5394       5405       5404  
      5273       5274       5285       5284       5394       5395       5406       5405  
      5274       5275       5286       5285       5395       5396       5407       5406  
      5275       5276       5287       5286       5396       5397       5408       5407  
      5276       5277       5288       5287       5397       5398       5409       5408  
      5277       5278       5289       5288       5398       5399       5410       5409  
      5278       5279       5290       5289       5399       5400       5411       5410  
      5279       5280       5291       5290       5400       5401       5412       5411  
      5281       5282       5293       5292       5402       5403       5414       5413  
      5282       5283       5294       5293       5403       5404       5415       5414  
      5283       5284       5295       5294       5404       5405       5416       5415  
      5284       5285       5296       5295       5405       5406       5417       5416  
      5285       5286       5297       5296       5406       5407       5418       5417  
      5286       5287       5298       5297       5407       5408       5419       5418  
      5287       5288       5299       5298       5408       5409       5420       5419  
      5288       5289       5300       5299       5409       5410       5421       5420  
      5289       5290       5301       5300       5410       5411       5422       5421  
      5290       5291       5302       5301       5411       5412       5423       5422  
      5292       5293       5304       5303       5413       5414       5425       5424  
      5293       5294       5305       5304       5414       5415       5426       5425  
      5294       5295       5306       5305       5415       5416       5427       5426  
      5295       5296       5307       5306       5416       5417       5428       5427  
      5296       5297       5308       5307       5417       5418       5429       5428  
      5297       5298       5309       5308       5418       5419       5430       5429  
      5298       5299       5310       5309       5419       5420       5431       5430  
      5299       5300       5311       5310       5420       5421       5432       5431  
      5300       5301       5312       5311       5421       5422       5433       5432  
      5301       5302       5313       5312       5422       5423       5434       5433  
      5303       5304       5315       5314       5424       5425       5436       5435  
      5304       5305       5316       5315       5425       5426       5437       5436  
      5305       5306       5317       5316       5426       5427       5438       5437  
      5306       5307       5318       5317       5427       5428       5439       5438  
      5307       5308       5319       5318       5428       5429       5440       5439  
      5308       5309       5320       5319       5429       5430       5441       5440  
      5309       5310       5321       5320       5430       5431       5442       5441  
      5310       5311       5322       5321       5431       5432       5443       5442  
      5311       5312       5323       5322       5432       5433       5444       5443  
      5312       5313       5324       5323       5433       5434       5445       5444  
      5325       5326       5337       5336       5446       5447       5458       5457  
      5326       5327       5338       5337       5447       5448       5459       5458  
      5327       5328       5339       5338       5448       5449       5460       5459  
      5328       5329       5340       5339       5449       5450       5461       5460  
      5329       5330       5341       5340       5450       5451       5462       5461  
      5330       5331       5342       5341       5451       5452       5463       5462  
      5331       5332       5343       5342       5452       5453       5464       5463  
      5332       5333       5344       5343       5453       5454       5465       5464  
      5333       5334       5345       5344       5454       5455       5466       5465  
      5334       5335       5346       5345       5455       5456       5467       5466  
      5336       5337       5348       5347       5457       5458       5469       5468  
      5337       5338       5349       5348       5458       5459       5470       5469  
      5338       5339       5350       5349       5459       5460       5471       5470  
      5339       5340       5351       5350       5460       5461       5472       5471  
      5340       5341       5352       5351       5461       5462       5473       5472  
      5341       5342       5353       5352       5462       5463       5474       5473  
      5342       5343       5354       5353       5463       5464       5475       5474  
      5343       5344       5355       5354       5464       5465       5476       5475  
      5344       5345       5356       5355       5465       5466       5477       5476  
      5345       5346       5357       5356       5466       5467       5478       5477  
      5347       5348       5359       5358       5468       5469       5480       5479  
      5348       5349       5360       5359       5469       5470       5481       5480  
      5349       5350       5361       5360       5470       5471       5482       5481  
      5350       5351       5362       5361       5471       5472       5483       5482  
      5351       5352       5363       5362       5472       5473       5484       5483  
      5352       5353       5364       5363       5473       5474       5485       5484  
      5353       5354       5365       5364       5474       5475       5486       5485  
      5354       5355       5366       5365       5475       5476       5487       5486  
      5355       5356       5367       5366       5476       5477       5488       5487  
      5356       5357       5368       5367       5477       5478       5489       5488  
      5358       5359       5370       5369       5479       5480       5491       5490  
      5359       5360       5371       5370       5480       5481       5492       5491  
      5360       5361       5372       5371       5481       5482       5493       5492  
      5361       5362       5373       5372       5482       5483       5494       5493  
      5362       5363       5374       5373       5483       5484       5495       5494  
      5363       5364       5375       5374       5484       5485       5496       5495  
      5364       5365       5376       5375       5485       5486       5497       5496  
      5365       5366       5377       5376       5486       5487       5498       5497  
      5366       5367       5378       5377       5487       5488       5499       5498  
      5367       5368       5379       5378       5488       5489       5500       5499  
      5369       5370       5381       5380       5490       5491       5502       5501  
      5370       5371       5382       5381       5491       5492       5503       5502  
      5371       5372       5383       5382       5492       5493       5504       5503  
      5372       5373       5384       5383       5493       5494       5505       5504  
      5373       5374       5385       5384       5494       5495       5506       5505  
      5374       5375       5386       5385       5495       5496       5507       5506  
      5375       5376       5387       5386       5496       5497       5508       5507  
      5376       5377       5388       5387       5497       5498       5509       5508  
      5377       5378       5389       5388       5498       5499       5510       5509  
      5378       5379       5390       5389       5499       5500       5511       5510  
      5380       5381       5392       5391       5501       5502       5513       5512  
      5381       5382       5393       5392       5502       5503       5514       5513  
      5382       5383       5394       5393       5503       5504       5515       5514  
      5383       5384       5395       5394       5504       5505       5516       5515  
      5384       5385       5396       5395       5505       5506       5517       5516  
      5385       5386       5397       5396       5506       5507       5518       5517  
      5386       5387       5398       5397       5507       5508       5519       5518  
      5387       5388       5399       5398       5508       5509       5520       5519  
      5388       5389       5400       5399       5509       5510       5521       5520  
      5389       5390       5401       5400       5510       5511       5522       5521  
      5391       5392       5403       5402       5512       5513       5524       5523  
      5392       5393       5404       5403       5513       5514       5525       5524  
      5393       5394       5405       5404       5514       5515       5526       5525  
      5394       5395       5406       5405       5515       5516       5527       5526  
      5395       5396       5407       5406       5516       5517       5528       5527  
      5396       5397       5408       5407       5517       5518       5529       5528  
      5397       5398       5409       5408       5518       5519       5530       5529  
      5398       5399       5410       5409       5519       5520       5531       5530  
      5399       5400       5411       5410       5520       5521       5532       5531  
      5400       5401       5412       5411       5521       5522       5533       5532  
      5402       5403       5414       5413       5523       5524       5535       5534  
      5403       5404       5415       5414       5524       5525       5536       5535  
      5404       5405       5416       5415       5525       5526       5537       5536  
      5405       5406       5417       5416       5526       5527       5538       5537  
      5406       5407       5418       5417       5527       5528       5539       5538  
      5407       5408       5419       5418       5528       5529       5540       5539  
      5408       5409       5420       5419       5529       5530       5541       5540  
      5409       5410       5421       5420       5530       5531       5542       5541  
      5410       5411       5422       5421       5531       5532       5543       5542  
      5411       5412       5423       5422       5532       5533       5544       5543  
      5413       5414       5425       5424       5534       5535       5546       5545  
      5414       5415       5426       5425       5535       5536       5547       5546  
      5415       5416       5427       5426       5536       5537       5548       5547  
      5416       5417       5428       5427       5537       5538       5549       5548  
      5417       5418       5429       5428       5538       5539       5550       5549  
      5418       5419       5430       5429       5539       5540       5551       5550  
      5419       5420       5431       5430       5540       5541       5552       5551  
      5420       5421       5432       5431       5541       5542       5553       5552  
      5421       5422       5433       5432       5542       5543       5554       5553  
      5422       5423       5434       5433       5543       5544       5555       5554  
      5424       5425       5436       5435       5545       5546       5557       5556  
      5425       5426       5437       5436       5546       5547       5558       5557  
      5426       5427       5438       5437       5547       5548       5559       5558  
      5427       5428       5439       5438       5548       5549       5560       5559  
      5428       5429       5440       5439       5549       5550       5561       5560  
      5429       5430       5441       5440       5550       5551       5562       5561  
      5430       5431       5442       5441       5551       5552       5563       5562  
      5431       5432       5443       5442       5552       5553       5564       5563  
      5432       5433       5444       5443       5553       5554       5565       5564  
      5433       5434       5445       5444       5554       5555       5566       5565  
      5446       5447       5458       5457       5567       5568       5579       5578  
      5447       5448       5459       5458       5568       5569       5580       5579  
      5448       5449       5460       5459       5569       5570       5581       5580  
      5449       5450       5461       5460       5570       5571       5582       5581  
      5450       5451       5462       5461       5571       5572       5583       5582  
      5451       5452       5463       5462       5572       5573       5584       5583  
      5452       5453       5464       5463       5573       5574       5585       5584  
      5453       5454       5465       5464       5574       5575       5586       5585  
      5454       5455       5466       5465       5575       5576       5587       5586  
      5455       5456       5467       5466       5576       5577       5588       5587  
      5457       5458       5469       5468       5578       5579       5590       5589  
      5458       5459       5470       5469       5579       5580       5591       5590  
      5459       5460       5471       5470       5580       5581       5592       5591  
      5460       5461       5472       5471       5581       5582       5593       5592  
      5461       5462       5473       5472       5582       5583       5594       5593  
      5462       5463       5474       5473       5583       5584       5595       5594  
      5463       5464       5475       5474       5584       5585       5596       5595  
      5464       5465       5476       5475       5585       5586       5597       5596  
      5465       5466       5477       5476       5586       5587       5598       5597  
      5466       5467       5478       5477       5587       5588       5599       5598  
      5468       5469       5480       5479       5589       5590       5601       5600  
      5469       5470       5481       5480       5590       5591       5602       5601  
      5470       5471       5482       5481       5591       5592       5603       5602  
      5471       5472       5483       5482       5592       5593       5604       5603  
      5472       5473       5484       5483       5593       5594       5605       5604  
      5473       5474       5485       5484       5594       5595       5606       5605  
      5474       5475       5486       5485       5595       5596       5607       5606  
      5475       5476       5487       5486       5596       5597       5608       5607  
      5476       5477       5488       5487       5597       5598       5609       5608  
      5477       5478       5489       5488       5598       5599       5610       5609  
      5479       5480       5491       5490       5600       5601       5612       5611  
      5480       5481       5492       5491       5601       5602       5613       5612  
      5481       5482       5493       5492       5602       5603       5614       5613  
      5482       5483       5494       5493       5603       5604       5615       5614  
      5483       5484       5495       5494       5604       5605       5616       5615  
      5484       5485       5496       5495       5605       5606       5617       5616  
      5485       5486       5497       5496       5606       5607       5618       5617  
      5486       5487       5498       5497       5607       5608       5619       5618  
      5487       5488       5499       5498       5608       5609       5620       5619  
      5488       5489       5500       5499       5609       5610       5621       5620  
      5490       5491       5502       5501       5611       5612       5623       5622  
      5491       5492       5503       5502       5612       5613       5624       5623  
      5492       5493       5504       5503       5613       5614       5625       5624  
      5493       5494       5505       5504       5614       5615       5626       5625  
      5494       5495       5506       5505       5615       5616       5627       5626  
      5495       5496       5507       5506       5616       5617       5628       5627  
      5496       5497       5508       5507       5617       5618       5629       5628  
      5497       5498       5509       5508       5618       5619       5630       5629  
      5498       5499       5510       5509       5619       5620       5631       5630  
      5499       5500       5511       5510       5620       5621       5632       5631  
      5501       5502       5513       5512       5622       5623       5634       5633  
      5502       5503       5514       5513       5623       5624       5635       5634  
      5503       5504       5515       5514       5624       5625       5636       5635  
      5504       5505       5516       5515       5625       5626       5637       5636  
      5505       5506       5517       5516       5626       5627       5638       5637  
      5506       5507       5518       5517       5627       5628       5639       5638  
      5507       5508       5519       5518       5628       5629       5640       5639  
      5508       5509       5520       5519       5629       5630       5641       5640  
      5509       5510       5521       5520       5630       5631       5642       5641  
      5510       5511       5522       5521       5631       5632       5643       5642  
      5512       5513       5524       5523       5633       5634       5645       5644  
      5513       5514       5525       5524       5634       5635       5646       5645  
      5514       5515       5526       5525       5635       5636       5647       5646  
      5515       5516       5527       5526       5636       5637       5648       5647  
      5516       5517       5528       5527       5637       5638       5649       5648  
      5517       5518       5529       5528       5638       5639       5650       5649  
      5518       5519       5530       5529       5639       5640       5651       5650  
      5519       5520       5531       5530       5640       5641       5652       5651  
      5520       5521       5532       5531       5641       5642       5653       5652  
      5521       5522       5533       5532       5642       5643       5654       5653  
      5523       5524       5535       5534       5644       5645       5656       5655  
      5524       5525       5536       5535       5645       5646       5657       5656  
      5525       5526       5537       5536       5646       5647       5658       5657  
      5526       5527       5538       5537       5647       5648       5659       5658  
      5527       5528       5539       5538       5648       5649       5660       5659  
      5528       5529       5540       5539       5649       5650       5661       5660  
      5529       5530       5541       5540       5650       5651       5662       5661  
      5530       5531       5542       5541       5651       5652       5663       5662  
      5531       5532       5543       5542       5652       5653       5664       5663  
      5532       5533       5544       5543       5653       5654       5665       5664  
      5534       5535       5546       5545       5655       5656       5667       5666  
      5535       5536       5547       5546       5656       5657       5668       5667  
      5536       5537       5548       5547       5657       5658       5669       5668  
      5537       5538       5549       5548       5658       5659       5670       5669  
      5538       5539       5550       5549       5659       5660       5671       5670  
      5539       5540       5551       5550       5660       5661       5672       5671  
      5540       5541       5552       5551       5661       5662       5673       5672  
      5541       5542       5553       5552       5662       5663       5674       5673  
      5542       5543       5554       5553       5663       5664       5675       5674  
      5543       5544       5555       5554       5664       5665       5676       5675  
      5545       5546       5557       5556       5666       5667       5678       5677  
      5546       5547       5558       5557       5667       5668       5679       5678  
      5547       5548       5559       5558       5668       5669       5680       5679  
      5548       5549       5560       5559       5669       5670       5681       5680  
      5549       5550       5561       5560       5670       5671       5682       5681  
      5550       5551       5562       5561       5671       5672       5683       5682  
      5551       5552       5563       5562       5672       5673       5684       5683  
      5552       5553       5564       5563       5673       5674       5685       5684  
      5553       5554       5565       5564       5674       5675       5686       5685  
      5554       5555       5566       5565       5675       5676       5687       5686  
      5567       5568       5579       5578       5688       5689       5700       5699  
      5568       5569       5580       5579       5689       5690       5701       5700  
      5569       5570       5581       5580       5690       5691       5702       5701  
      5570       5571       5582       5581       5691       5692       5703       5702  
      5571       5572       5583       5582       5692       5693       5704       5703  
      5572       5573       5584       5583       5693       5694       5705       5704  
      5573       5574       5585       5584       5694       5695       5706       5705  
      5574       5575       5586       5585       5695       5696       5707       5706  
      5575       5576       5587       5586       5696       5697       5708       5707  
      5576       5577       5588       5587       5697       5698       5709       5708  
      5578       5579       5590       5589       5699       5700       5711       5710  
      5579       5580       5591       5590       5700       5701       5712       5711  
      5580       5581       5592       5591       5701       5702       5713       5712  
      5581       5582       5593       5592       5702       5703       5714       5713  
      5582       5583       5594       5593       5703       5704       5715       5714  
      5583       5584       5595       5594       5704       5705       5716       5715  
      5584       5585       5596       5595       5705       5706       5717       5716  
      5585       5586       5597       5596       5706       5707       5718       5717  
      5586       5587       5598       5597       5707       5708       5719       5718  
      5587       5588       5599       5598       5708       5709       5720       5719  
      5589       5590       5601       5600       5710       5711       5722       5721  
      5590       5591       5602       5601       5711       5712       5723       5722  
      5591       5592       5603       5602       5712       5713       5724       5723  
      5592       5593       5604       5603       5713       5714       5725       5724  
      5593       5594       5605       5604       5714       5715       5726       5725  
      5594       5595       5606       5605       5715       5716       5727       5726  
      5595       5596       5607       5606       5716       5717       5728       5727  
      5596       5597       5608       5607       5717       5718       5729       5728  
      5597       5598       5609       5608       5718       5719       5730       5729  
      5598       5599       5610       5609       5719       5720       5731       5730  
      5600       5601       5612       5611       5721       5722       5733       5732  
      5601       5602       5613       5612       5722       5723       5734       5733  
      5602       5603       5614       5613       5723       5724       5735       5734  
      5603       5604       5615       5614       5724       5725       5736       5735  
      5604       5605       5616       5615       5725       5726       5737       5736  
      5605       5606       5617       5616       5726       5727       5738       5737  
      5606       5607       5618       5617       5727       5728       5739       5738  
      5607       5608       5619       5618       5728       5729       5740       5739  
      5608       5609       5620       5619       5729       5730       5741       5740  
      5609       5610       5621       5620       5730       5731       5742       5741  
      5611       5612       5623       5622       5732       5733       5744       5743  
      5612       5613       5624       5623       5733       5734       5745       5744  
      5613       5614       5625       5624       5734       5735       5746       5745  
      5614       5615       5626       5625       5735       5736       5747       5746  
      5615       5616       5627       5626       5736       5737       5748       5747  
      5616       5617       5628       5627       5737       5738       5749       5748  
      5617       5618       5629       5628       5738       5739       5750       5749  
      5618       5619       5630       5629       5739       5740       5751       5750  
      5619       5620       5631       5630       5740       5741       5752       5751  
      5620       5621       5632       5631       5741       5742       5753       5752  
      5622       5623       5634       5633       5743       5744       5755       5754  
      5623       5624       5635       5634       5744       5745       5756       5755  
      5624       5625       5636       5635       5745       5746       5757       5756  
      5625       5626       5637       5636       5746       5747       5758       5757  
      5626       5627       5638       5637       5747       5748       5759       5758  
      5627       5628       5639       5638       5748       5749       5760       5759  
      5628       5629       5640       5639       5749       5750       5761       5760  
      5629       5630       5641       5640       5750       5751       5762       5761  
      5630       5631       5642       5641       5751       5752       5763       5762  
      5631       5632       5643       5642       5752       5753       5764       5763  
      5633       5634       5645       5644       5754       5755       5766       5765  
      5634       5635       5646       5645       5755       5756       5767       5766  
      5635       5636       5647       5646       5756       5757       5768       5767  
      5636       5637       5648       5647       5757       5758       5769       5768  
      5637       5638       5649       5648       5758       5759       5770       5769  
      5638       5639       5650       5649       5759       5760       5771       5770  
      5639       5640       5651       5650       5760       5761       5772       5771  
      5640       5641       5652       5651       5761       5762       5773       5772  
      5641       5642       5653       5652       5762       5763       5774       5773  
      5642       5643       5654       5653       5763       5764       5775       5774  
      5644       5645       5656       5655       5765       5766       5777       5776  
      5645       5646       5657       5656       5766       5767       5778       5777  
      5646       5647       5658       5657       5767       5768       5779       5778  
      5647       5648       5659       5658       5768       5769       5780       5779  
      5648       5649       5660       5659       5769       5770       5781       5780  
      5649       5650       5661       5660       5770       5771       5782       5781  
      5650       5651       5662       5661       5771       5772       5783       5782  
      5651       5652       5663       5662       5772       5773       5784       5783  
      5652       5653       5664       5663       5773       5774       5785       5784  
      5653       5654       5665       5664       5774       5775       5786       5785  
      5655       5656       5667       5666       5776       5777       5788       5787  
      5656       5657       5668       5667       5777       5778       5789       5788  
      5657       5658       5669       5668       5778       5779       5790       5789  
      5658       5659       5670       5669       5779       5780       5791       5790  
      5659       5660       5671       5670       5780       5781       5792       5791  
      5660       5661       5672       5671       5781       5782       5793       5792  
      5661       5662       5673       5672       5782       5783       5794       5793  
      5662       5663       5674       5673       5783       5784       5795       5794  
      5663       5664       5675       5674       5784       5785       5796       5795  
      5664       5665       5676       5675       5785       5786       5797       5796  
      5666       5667       5678       5677       5787       5788       5799       5798  
      5667       5668       5679       5678       5788       5789       5800       5799  
      5668       5669       5680       5679       5789       5790       5801       5800  
      5669       5670       5681       5680       5790       5791       5802       5801  
      5670       5671       5682       5681       5791       5792       5803       5802  
      5671       5672       5683       5682       5792       5793       5804       5803  
      5672       5673       5684       5683       5793       5794       5805       5804  
      5673       5674       5685       5684       5794       5795       5806       5805  
      5674       5675       5686       5685       5795       5796       5807       5806  
      5675       5676       5687       5686       5796       5797       5808       5807  
      5688       5689       5700       5699       5809       5810       5821       5820  
      5689       5690       5701       5700       5810       5811       5822       5821  
      5690       5691       5702       5701       5811       5812       5823       5822  
      5691       5692       5703       5702       5812       5813       5824       5823  
      5692       5693       5704       5703       5813       5814       5825       5824  
      5693       5694       5705       5704       5814       5815       5826       5825  
      5694       5695       5706       5705       5815       5816       5827       5826  
      5695       5696       5707       5706       5816       5817       5828       5827  
      5696       5697       5708       5707       5817       5818       5829       5828  
      5697       5698       5709       5708       5818       5819       5830       5829  
      5699       5700       5711       5710       5820       5821       5832       5831  
      5700       5701       5712       5711       5821       5822       5833       5832  
      5701       5702       5713       5712       5822       5823       5834       5833  
      5702       5703       5714       5713       5823       5824       5835       5834  
      5703       5704       5715       5714       5824       5825       5836       5835  
      5704       5705       5716       5715       5825       5826       5837       5836  
      5705       5706       5717       5716       5826       5827       5838       5837  
      5706       5707       5718       5717       5827       5828       5839       5838  
      5707       5708       5719       5718       5828       5829       5840       5839  
      5708       5709       5720       5719       5829       5830       5841       5840  
      5710       5711       5722       5721       5831       5832       5843       5842  
      5711       5712       5723       5722       5832       5833       5844       5843  
      5712       5713       5724       5723       5833       5834       5845       5844  
      5713       5714       5725       5724       5834       5835       5846       5845  
      5714       5715       5726       5725       5835       5836       5847       5846  
      5715       5716       5727       5726       5836       5837       5848       5847  
      5716       5717       5728       5727       5837       5838       5849       5848  
      5717       5718       5729       5728       5838       5839       5850       5849  
      5718       5719       5730       5729       5839       5840       5851       5850  
      5719       5720       5731       5730       5840       5841       5852       5851  
      5721       5722       5733       5732       5842       5843       5854       5853  
      5722       5723       5734       5733       5843       5844       5855       5854  
      5723       5724       5735       5734       5844       5845       5856       5855  
      5724       5725       5736       5735       5845       5846       5857       5856  
      5725       5726       5737       5736       5846       5847       5858       5857  
      5726       5727       5738       5737       5847       5848       5859       5858  
      5727       5728       5739       5738       5848       5849       5860       5859  
      5728       5729       5740       5739       5849       5850       5861       5860  
      5729       5730       5741       5740       5850       5851       5862       5861  
      5730       5731       5742       5741       5851       5852       5863       5862  
      5732       5733       5744       5743       5853       5854       5865       5864  
      5733       5734       5745       5744       5854       5855       5866       5865  
      5734       5735       5746       5745       5855       5856       5867       5866  
      5735       5736       5747       5746       5856       5857       5868       5867  
      5736       5737       5748       5747       5857       5858       5869       5868  
      5737       5738       5749       5748       5858       5859       5870       5869  
      5738       5739       5750       5749       5859       5860       5871       5870  
      5739       5740       5751       5750       5860       5861       5872       5871  
      5740       5741       5752       5751       5861       5862       5873       5872  
      5741       5742       5753       5752       5862       5863       5874       5873  
      5743       5744       5755       5754       5864       5865       5876       5875  
      5744       5745       5756       5755       5865       5866       5877       5876  
      5745       5746       5757       5756       5866       5867       5878       5877  
      5746       5747       5758       5757       5867       5868       5879       5878  
      5747       5748       5759       5758       5868       5869       5880       5879  
      5748       5749       5760       5759       5869       5870       5881       5880  
      5749       5750       5761       5760       5870       5871       5882       5881  
      5750       5751       5762       5761       5871       5872       5883       5882  
      5751       5752       5763       5762       5872       5873       5884       5883  
      5752       5753       5764       5763       5873       5874       5885       5884  
      5754       5755       5766       5765       5875       5876       5887       5886  
      5755       5756       5767       5766       5876       5877       5888       5887  
      5756       5757       5768       5767       5877       5878       5889       5888  
      5757       5758       5769       5768       5878       5879       5890       5889  
      5758       5759       5770       5769       5879       5880       5891       5890  
      5759       5760       5771       5770       5880       5881       5892       5891  
      5760       5761       5772       5771       5881       5882       5893       5892  
      5761       5762       5773       5772       5882       5883       5894       5893  
      5762       5763       5774       5773       5883       5884       5895       5894  
      5763       5764       5775       5774       5884       5885       5896       5895  
      5765       5766       5777       5776       5886       5887       5898       5897  
      5766       5767       5778       5777       5887       5888       5899       5898  
      5767       5768       5779       5778       5888       5889       5900       5899  
      5768       5769       5780       5779       5889       5890       5901       5900  
      5769       5770       5781       5780       5890       5891       5902       5901  
      5770       5771       5782       5781       5891       5892       5903       5902  
      5771       5772       5783       5782       5892       5893       5904       5903  
      5772       5773       5784       5783       5893       5894       5905       5904  
      5773       5774       5785       5784       5894       5895       5906       5905  
      5774       5775       5786       5785       5895       5896       5907       5906  
      5776       5777       5788       5787       5897       5898       5909       5908  
      5777       5778       5789       5788       5898       5899       5910       5909  
      5778       5779       5790       5789       5899       5900       5911       5910  
      5779       5780       5791       5790       5900       5901       5912       5911  
      5780       5781       5792       5791       5901       5902       5913       5912  
      5781       5782       5793       5792       5902       5903       5914       5913  
      5782       5783       5794       5793       5903       5904       5915       5914  
      5783       5784       5795       5794       5904       5905       5916       5915  
      5784       5785       5796       5795       5905       5906       5917       5916  
      5785       5786       5797       5796       5906       5907       5918       5917  
      5787       5788       5799       5798       5908       5909       5920       5919  
      5788       5789       5800       5799       5909       5910       5921       5920  
      5789       5790       5801       5800       5910       5911       5922       5921  
      5790       5791       5802       5801       5911       5912       5923       5922  
      5791       5792       5803       5802       5912       5913       5924       5923  
      5792       5793       5804       5803       5913       5914       5925       5924  
      5793       5794       5805       5804       5914       5915       5926       5925  
      5794       5795       5806       5805       5915       5916       5927       5926  
      5795       5796       5807       5806       5916       5917       5928       5927  
      5796       5797       5808       5807       5917       5918       5929       5928  
      5809       5810       5821       5820       5930       5931       5942       5941  
      5810       5811       5822       5821       5931       5932       5943       5942  
      5811       5812       5823       5822       5932       5933       5944       5943  
      5812       5813       5824       5823       5933       5934       5945       5944  
      5813       5814       5825       5824       5934       5935       5946       5945  
      5814       5815       5826       5825       5935       5936       5947       5946  
      5815       5816       5827       5826       5936       5937       5948       5947  
      5816       5817       5828       5827       5937       5938       5949       5948  
      5817       5818       5829       5828       5938       5939       5950       5949  
      5818       5819       5830       5829       5939       5940       5951       5950  
      5820       5821       5832       5831       5941       5942       5953       5952  
      5821       5822       5833       5832       5942       5943       5954       5953  
      5822       5823       5834       5833       5943       5944       5955       5954  
      5823       5824       5835       5834       5944       5945       5956       5955  
      5824       5825       5836       5835       5945       5946       5957       5956  
      5825       5826       5837       5836       5946       5947       5958       5957  
      5826       5827       5838       5837       5947       5948       5959       5958  
      5827       5828       5839       5838       5948       5949       5960       5959  
      5828       5829       5840       5839       5949       5950       5961       5960  
      5829       5830       5841       5840       5950       5951       5962       5961  
      5831       5832       5843       5842       5952       5953       5964       5963  
      5832       5833       5844       5843       5953       5954       5965       5964  
      5833       5834       5845       5844       5954       5955       5966       5965  
      5834       5835       5846       5845       5955       5956       5967       5966  
      5835       5836       5847       5846       5956       5957       5968       5967  
      5836       5837       5848       5847       5957       5958       5969       5968  
      5837       5838       5849       5848       5958       5959       5970       5969  
      5838       5839       5850       5849       5959       5960       5971       5970  
      5839       5840       5851       5850       5960       5961       5972       5971  
      5840       5841       5852       5851       5961       5962       5973       5972  
      5842       5843       5854       5853       5963       5964       5975       5974  
      5843       5844       5855       5854       5964       5965       5976       5975  
      5844       5845       5856       5855       5965       5966       5977       5976  
      5845       5846       5857       5856       5966       5967       5978       5977  
      5846       5847       5858       5857       5967       5968       5979       5978  
      5847       5848       5859       5858       5968       5969       5980       5979  
      5848       5849       5860       5859       5969       5970       5981       5980  
      5849       5850       5861       5860       5970       5971       5982       5981  
      5850       5851       5862       5861       5971       5972       5983       5982  
      5851       5852       5863       5862       5972       5973       5984       5983  
      5853       5854       5865       5864       5974       5975       5986       5985  
      5854       5855       5866       5865       5975       5976       5987       5986  
      5855       5856       5867       5866       5976       5977       5988       5987  
      5856       5857       5868       5867       5977       5978       5989       5988  
      5857       5858       5869       5868       5978       5979       5990       5989  
      5858       5859       5870       5869       5979       5980       5991       5990  
      5859       5860       5871       5870       5980       5981       5992       5991  
      5860       5861       5872       5871       5981       5982       5993       5992  
      5861       5862       5873       5872       5982       5983       5994       5993  
      5862       5863       5874       5873       5983       5984       5995       5994  
      5864       5865       5876       5875       5985       5986       5997       5996  
      5865       5866       5877       5876       5986       5987       5998       5997  
      5866       5867       5878       5877       5987       5988       5999       5998  
      5867       5868       5879       5878       5988       5989       6000       5999  
      5868       5869       5880       5879       5989       5990       6001       6000  
      5869       5870       5881       5880       5990       5991       6002       6001  
      5870       5871       5882       5881       5991       5992       6003       6002  
      5871       5872       5883       5882       5992       5993       6004       6003  
      5872       5873       5884       5883       5993       5994       6005       6004  
      5873       5874       5885       5884       5994       5995       6006       6005  
      5875       5876       5887       5886       5996       5997       6008       6007  
      5876       5877       5888       5887       5997       5998       6009       6008  
      5877       5878       5889       5888       5998       5999       6010       6009  
      5878       5879       5890       5889       5999       6000       6011       6010  
      5879       5880       5891       5890       6000       6001       6012       6011  
      5880       5881       5892       5891       6001       6002       6013       6012  
      5881       5882       5893       5892       6002       6003       6014       6013  
      5882       5883       5894       5893       6003       6004       6015       6014  
      5883       5884       5895       5894       6004       6005       6016       6015  
      5884       5885       5896       5895       6005       6006       6017       6016  
      5886       5887       5898       5897       6007       6008       6019       6018  
      5887       5888       5899       5898       6008       6009       6020       6019  
      5888       5889       5900       5899       6009       6010       6021       6020  
      5889       5890       5901       5900       6010       6011       6022       6021  
      5890       5891       5902       5901       6011       6012       6023       6022  
      5891       5892       5903       5902       6012       6013       6024       6023  
      5892       5893       5904       5903       6013       6014       6025       6024  
      5893       5894       5905       5904       6014       6015       6026       6025  
      5894       5895       5906       5905       6015       6016       6027       6026  
      5895       5896       5907       5906       6016       6017       6028       6027  
      5897       5898       5909       5908       6018       6019       6030       6029  
      5898       5899       5910       5909       6019       6020       6031       6030  
      5899       5900       5911       5910       6020       6021       6032       6031  
      5900       5901       5912       5911       6021       6022       6033       6032  
      5901       5902       5913       5912       6022       6023       6034       6033  
      5902       5903       5914       5913       6023       6024       6035       6034  
      5903       5904       5915       5914       6024       6025       6036       6035  
      5904       5905       5916       5915       6025       6026       6037       6036  
      5905       5906       5917       5916       6026       6027       6038       6037  
      5906       5907       5918       5917       6027       6028       6039       6038  
      5908       5909       5920       5919       6029       6030       6041       6040  
      5909       5910       5921       5920       6030       6031       6042       6041  
      5910       5911       5922       5921       6031       6032       6043       6042  
      5911       5912       5923       5922       6032       6033       6044       6043  
      5912       5913       5924       5923       6033       6034       6045       6044  
      5913       5914       5925       5924       6034       6035       6046       6045  
      5914       5915       5926       5925       6035       6036       6047       6046  
      5915       5916       5927       5926       6036       6037       6048       6047  
      5916       5917       5928       5927       6037       6038       6049       6048  
      5917       5918       5929       5928       6038       6039       6050       6049  
      5930       5931       5942       5941       6051       6052       6063       6062  
      5931       5932       5943       5942       6052       6053       6064       6063  
      5932       5933       5944       5943       6053       6054       6065       6064  
      5933       5934       5945       5944       6054       6055       6066       6065  
      5934       5935       5946       5945       6055       6056       6067       6066  
      5935       5936       5947       5946       6056       6057       6068       6067  
      5936       5937       5948       5947       6057       6058       6069       6068  
      5937       5938       5949       5948       6058       6059       6070       6069  
      5938       5939       5950       5949       6059       6060       6071       6070  
      5939       5940       5951       5950       6060       6061       6072       6071  
      5941       5942       5953       5952       6062       6063       6074       6073  
      5942       5943       5954       5953       6063       6064       6075       6074  
      5943       5944       5955       5954       6064       6065       6076       6075  
      5944       5945       5956       5955       6065       6066       6077       6076  
      5945       5946       5957       5956       6066       6067       6078       6077  
      5946       5947       5958       5957       6067       6068       6079       6078  
      5947       5948       5959       5958       6068       6069       6080       6079  
      5948       5949       5960       5959       6069       6070       6081       6080  
      5949       5950       5961       5960       6070       6071       6082       6081  
      5950       5951       5962       5961       6071       6072       6083       6082  
      5952       5953       5964       5963       6073       6074       6085       6084  
      5953       5954       5965       5964       6074       6075       6086       6085  
      5954       5955       5966       5965       6075       6076       6087       6086  
      5955       5956       5967       5966       6076       6077       6088       6087  
      5956       5957       5968       5967       6077       6078       6089       6088  
      5957       5958       5969       5968       6078       6079       6090       6089  
      5958       5959       5970       5969       6079       6080       6091       6090  
      5959       5960       5971       5970       6080       6081       6092       6091  
      5960       5961       5972       5971       6081       6082       6093       6092  
      5961       5962       5973       5972       6082       6083       6094       6093  
      5963       5964       5975       5974       6084       6085       6096       6095  
      5964       5965       5976       5975       6085       6086       6097       6096  
      5965       5966       5977       5976       6086       6087       6098       6097  
      5966       5967       5978       5977       6087       6088       6099       6098  
      5967       5968       5979       5978       6088       6089       6100       6099  
      5968       5969       5980       5979       6089       6090       6101       6100  
      5969       5970       5981       5980       6090       6091       6102       6101  
      5970       5971       5982       5981       6091       6092       6103       6102  
      5971       5972       5983       5982       6092       6093       6104       6103  
      5972       5973       5984       5983       6093       6094       6105       6104  
      5974       5975       5986       5985       6095       6096       6107       6106  
      5975       5976       5987       5986       6096       6097       6108       6107  
      5976       5977       5988       5987       6097       6098       6109       6108  
      5977       5978       5989       5988       6098       6099       6110       6109  
      5978       5979       5990       5989       6099       6100       6111       6110  
      5979       5980       5991       5990       6100       6101       6112       6111  
      5980       5981       5992       5991       6101       6102       6113       6112  
      5981       5982       5993       5992       6102       6103       6114       6113  
      5982       5983       5994       5993       6103       6104       6115       6114  
      5983       5984       5995       5994       6104       6105       6116       6115  
      5985       5986       5997       5996       6106       6107       6118       6117  
      5986       5987       5998       5997       6107       6108       6119       6118  
      5987       5988       5999       5998       6108       6109       6120       6119  
      5988       5989       6000       5999       6109       6110       6121       6120  
      5989       5990       6001       6000       6110       6111       6122       6121  
      5990       5991       6002       6001       6111       6112       6123       6122  
      5991       5992       6003       6002       6112       6113       6124       6123  
      5992       5993       6004       6003       6113       6114       6125       6124  
      5993       5994       6005       6004       6114       6115       6126       6125  
      5994       5995       6006       6005       6115       6116       6127       6126  
      5996       5997       6008       6007       6117       6118       6129       6128  
      5997       5998       6009       6008       6118       6119       6130       6129  
      5998       5999       6010       6009       6119       6120       6131       6130  
      5999       6000       6011       6010       6120       6121       6132       6131  
      6000       6001       6012       6011       6121       6122       6133       6132  
      6001       6002       6013       6012       6122       6123       6134       6133  
      6002       6003       6014       6013       6123       6124       6135       6134  
      6003       6004       6015       6014       6124       6125       6136       6135  
      6004       6005       6016       6015       6125       6126       6137       6136  
      6005       6006       6017       6016       6126       6127       6138       6137  
      6007       6008       6019       6018       6128       6129       6140       6139  
      6008       6009       6020       6019       6129       6130       6141       6140  
      6009       6010       6021       6020       6130       6131       6142       6141  
      6010       6011       6022       6021       6131       6132       6143       6142  
      6011       6012       6023       6022       6132       6133       6144       6143  
      6012       6013       6024       6023       6133       6134       6145       6144  
      6013       6014       6025       6024       6134       6135       6146       6145  
      6014       6015       6026       6025       6135       6136       6147       6146  
      6015       6016       6027       6026       6136       6137       6148       6147  
      6016       6017       6028       6027       6137       6138       6149       6148  
      6018       6019       6030       6029       6139       6140       6151       6150  
      6019       6020       6031       6030       6140       6141       6152       6151  
      6020       6021       6032       6031       6141       6142       6153       6152  
      6021       6022       6033       6032       6142       6143       6154       6153  
      6022       6023       6034       6033       6143       6144       6155       6154  
      6023       6024       6035       6034       6144       6145       6156       6155  
      6024       6025       6036       6035       6145       6146       6157       6156  
      6025       6026       6037       6036       6146       6147       6158       6157  
      6026       6027       6038       6037       6147       6148       6159       6158  
      6027       6028       6039       6038       6148       6149       6160       6159  
      6029       6030       6041       6040       6150       6151       6162       6161  
      6030       6031       6042       6041       6151       6152       6163       6162  
      6031       6032       6043       6042       6152       6153       6164       6163  
      6032       6033       6044       6043       6153       6154       6165       6164  
      6033       6034       6045       6044       6154       6155       6166       6165  
      6034       6035       6046       6045       6155       6156       6167       6166  
      6035       6036       6047       6046       6156       6157       6168       6167  
      6036       6037       6048       6047       6157       6158       6169       6168  
      6037       6038       6049       6048       6158       6159       6170       6169  
      6038       6039       6050       6049       6159       6160       6171       6170  
      6051       6052       6063       6062       6172       6173       6184       6183  
      6052       6053       6064       6063       6173       6174       6185       6184  
      6053       6054       6065       6064       6174       6175       6186       6185  
      6054       6055       6066       6065       6175       6176       6187       6186  
      6055       6056       6067       6066       6176       6177       6188       6187  
      6056       6057       6068       6067       6177       6178       6189       6188  
      6057       6058       6069       6068       6178       6179       6190       6189  
      6058       6059       6070       6069       6179       6180       6191       6190  
      6059       6060       6071       6070       6180       6181       6192       6191  
      6060       6061       6072       6071       6181       6182       6193       6192  
      6062       6063       6074       6073       6183       6184       6195       6194  
      6063       6064       6075       6074       6184       6185       6196       6195  
      6064       6065       6076       6075       6185       6186       6197       6196  
      6065       6066       6077       6076       6186       6187       6198       6197  
      6066       6067       6078       6077       6187       6188       6199       6198  
      6067       6068       6079       6078       6188       6189       6200       6199  
      6068       6069       6080       6079       6189       6190       6201       6200  
      6069       6070       6081       6080       6190       6191       6202       6201  
      6070       6071       6082       6081       6191       6192       6203       6202  
      6071       6072       6083       6082       6192       6193       6204       6203  
      6073       6074       6085       6084       6194       6195       6206       6205  
      6074       6075       6086       6085       6195       6196       6207       6206  
      6075       6076       6087       6086       6196       6197       6208       6207  
      6076       6077       6088       6087       6197       6198       6209       6208  
      6077       6078       6089       6088       6198       6199       6210       6209  
      6078       6079       6090       6089       6199       6200       6211       6210  
      6079       6080       6091       6090       6200       6201       6212       6211  
      6080       6081       6092       6091       6201       6202       6213       6212  
      6081       6082       6093       6092       6202       6203       6214       6213  
      6082       6083       6094       6093       6203       6204       6215       6214  
      6084       6085       6096       6095       6205       6206       6217       6216  
      6085       6086       6097       6096       6206       6207       6218       6217  
      6086       6087       6098       6097       6207       6208       6219       6218  
      6087       6088       6099       6098       6208       6209       6220       6219  
      6088       6089       6100       6099       6209       6210       6221       6220  
      6089       6090       6101       6100       6210       6211       6222       6221  
      6090       6091       6102       6101       6211       6212       6223       6222  
      6091       6092       6103       6102       6212       6213       6224       6223  
      6092       6093       6104       6103       6213       6214       6225       6224  
      6093       6094       6105       6104       6214       6215       6226       6225  
      6095       6096       6107       6106       6216       6217       6228       6227  
      6096       6097       6108       6107       6217       6218       6229       6228  
      6097       6098       6109       6108       6218       6219       6230       6229  
      6098       6099       6110       6109       6219       6220       6231       6230  
      6099       6100       6111       6110       6220       6221       6232       6231  
      6100       6101       6112       6111       6221       6222       6233       6232  
      6101       6102       6113       6112       6222       6223       6234       6233  
      6102       6103       6114       6113       6223       6224       6235       6234  
      6103       6104       6115       6114       6224       6225       6236       6235  
      6104       6105       6116       6115       6225       6226       6237       6236  
      6106       6107       6118       6117       6227       6228       6239       6238  
      6107       6108       6119       6118       6228       6229       6240       6239  
      6108       6109       6120       6119       6229       6230       6241       6240  
      6109       6110       6121       6120       6230       6231       6242       6241  
      6110       6111       6122       6121       6231       6232       6243       6242  
      6111       6112       6123       6122       6232       6233       6244       6243  
      6112       6113       6124       6123       6233       6234       6245       6244  
      6113       6114       6125       6124       6234       6235       6246       6245  
      6114       6115       6126       6125       6235       6236       6247       6246  
      6115       6116       6127       6126       6236       6237       6248       6247  
      6117       6118       6129       6128       6238       6239       6250       6249  
      6118       6119       6130       6129       6239       6240       6251       6250  
      6119       6120       6131       6130       6240       6241       6252       6251  
      6120       6121       6132       6131       6241       6242       6253       6252  
      6121       6122       6133       6132       6242       6243       6254       6253  
      6122       6123       6134       6133       6243       6244       6255       6254  
      6123       6124       6135       6134       6244       6245       6256       6255  
      6124       6125       6136       6135       6245       6246       6257       6256  
      6125       6126       6137       6136       6246       6247       6258       6257  
      6126       6127       6138       6137       6247       6248       6259       6258  
      6128       6129       6140       6139       6249       6250       6261       6260  
      6129       6130       6141       6140       6250       6251       6262       6261  
      6130       6131       6142       6141       6251       6252       6263       6262  
      6131       6132       6143       6142       6252       6253       6264       6263  
      6132       6133       6144       6143       6253       6254       6265       6264  
      6133       6134       6145       6144       6254       6255       6266       6265  
      6134       6135       6146       6145       6255       6256       6267       6266  
      6135       6136       6147       6146       6256       6257       6268       6267  
      6136       6137       6148       6147       6257       6258       6269       6268  
      6137       6138       6149       6148       6258       6259       6270       6269  
      6139       6140       6151       6150       6260       6261       6272       6271  
      6140       6141       6152       6151       6261       6262       6273       6272  
      6141       6142       6153       6152       6262       6263       6274       6273  
      6142       6143       6154       6153       6263       6264       6275       6274  
      6143       6144       6155       6154       6264       6265       6276       6275  
      6144       6145       6156       6155       6265       6266       6277       6276  
      6145       6146       6157       6156       6266       6267       6278       6277  
      6146       6147       6158       6157       6267       6268       6279       6278  
      6147       6148       6159       6158       6268       6269       6280       6279  
      6148       6149       6160       6159       6269       6270       6281       6280  
      6150       6151       6162       6161       6271       6272       6283       6282  
      6151       6152       6163       6162       6272       6273       6284       6283  
      6152       6153       6164       6163       6273       6274       6285       6284  
      6153       6154       6165       6164       6274       6275       6286       6285  
      6154       6155       6166       6165       6275       6276       6287       6286  
      6155       6156       6167       6166       6276       6277       6288       6287  
      6156       6157       6168       6167       6277       6278       6289       6288  
      6157       6158       6169       6168       6278       6279       6290       6289  
      6158       6159       6170       6169       6279       6280       6291       6290  
      6159       6160       6171       6170       6280       6281       6292       6291  
      6172       6173       6184       6183       6293       6294       6305       6304  
      6173       6174       6185       6184       6294       6295       6306       6305  
      6174       6175       6186       6185       6295       6296       6307       6306  
      6175       6176       6187       6186       6296       6297       6308       6307  
      6176       6177       6188       6187       6297       6298       6309       6308  
      6177       6178       6189       6188       6298       6299       6310       6309  
      6178       6179       6190       6189       6299       6300       6311       6310  
      6179       6180       6191       6190       6300       6301       6312       6311  
      6180       6181       6192       6191       6301       6302       6313       6312  
      6181       6182       6193       6192       6302       6303       6314       6313  
      6183       6184       6195       6194       6304       6305       6316       6315  
      6184       6185       6196       6195       6305       6306       6317       6316  
      6185       6186       6197       6196       6306       6307       6318       6317  
      6186       6187       6198       6197       6307       6308       6319       6318  
      6187       6188       6199       6198       6308       6309       6320       6319  
      6188       6189       6200       6199       6309       6310       6321       6320  
      6189       6190       6201       6200       6310       6311       6322       6321  
      6190       6191       6202       6201       6311       6312       6323       6322  
      6191       6192       6203       6202       6312       6313       6324       6323  
      6192       6193       6204       6203       6313       6314       6325       6324  
      6194       6195       6206       6205       6315       6316       6327       6326  
      6195       6196       6207       6206       6316       6317       6328       6327  
      6196       6197       6208       6207       6317       6318       6329       6328  
      6197       6198       6209       6208       6318       6319       6330       6329  
      6198       6199       6210       6209       6319       6320       6331       6330  
      6199       6200       6211       6210       6320       6321       6332       6331  
      6200       6201       6212       6211       6321       6322       6333       6332  
      6201       6202       6213       6212       6322       6323       6334       6333  
      6202       6203       6214       6213       6323       6324       6335       6334  
      6203       6204       6215       6214       6324       6325       6336       6335  
      6205       6206       6217       6216       6326       6327       6338       6337  
      6206       6207       6218       6217       6327       6328       6339       6338  
      6207       6208       6219       6218       6328       6329       6340       6339  
      6208       6209       6220       6219       6329       6330       6341       6340  
      6209       6210       6221       6220       6330       6331       6342       6341  
      6210       6211       6222       6221       6331       6332       6343       6342  
      6211       6212       6223       6222       6332       6333       6344       6343  
      6212       6213       6224       6223       6333       6334       6345       6344  
      6213       6214       6225       6224       6334       6335       6346       6345  
      6214       6215       6226       6225       6335       6336       6347       6346  
      6216       6217       6228       6227       6337       6338       6349       6348  
      6217       6218       6229       6228       6338       6339       6350       6349  
      6218       6219       6230       6229       6339       6340       6351       6350  
      6219       6220       6231       6230       6340       6341       6352       6351  
      6220       6221       6232       6231       6341       6342       6353       6352  
      6221       6222       6233       6232       6342       6343       6354       6353  
      6222       6223       6234       6233       6343       6344       6355       6354  
      6223       6224       6235       6234       6344       6345       6356       6355  
      6224       6225       6236       6235       6345       6346       6357       6356  
      6225       6226       6237       6236       6346       6347       6358       6357  
      6227       6228       6239       6238       6348       6349       6360       6359  
      6228       6229       6240       6239       6349       6350       6361       6360  
      6229       6230       6241       6240       6350       6351       6362       6361  
      6230       6231       6242       6241       6351       6352       6363       6362  
      6231       6232       6243       6242       6352       6353       6364       6363  
      6232       6233       6244       6243       6353       6354       6365       6364  
      6233       6234       6245       6244       6354       6355       6366       6365  
      6234       6235       6246       6245       6355       6356       6367       6366  
      6235       6236       6247       6246       6356       6357       6368       6367  
      6236       6237       6248       6247       6357       6358       6369       6368  
      6238       6239       6250       6249       6359       6360       6371       6370  
      6239       6240       6251       6250       6360       6361       6372       6371  
      6240       6241       6252       6251       6361       6362       6373       6372  
      6241       6242       6253       6252       6362       6363       6374       6373  
      6242       6243       6254       6253       6363       6364       6375       6374  
      6243       6244       6255       6254       6364       6365       6376       6375  
      6244       6245       6256       6255       6365       6366       6377       6376  
      6245       6246       6257       6256       6366       6367       6378       6377  
      6246       6247       6258       6257       6367       6368       6379       6378  
      6247       6248       6259       6258       6368       6369       6380       6379  
      6249       6250       6261       6260       6370       6371       6382       6381  
      6250       6251       6262       6261       6371       6372       6383       6382  
      6251       6252       6263       6262       6372       6373       6384       6383  
      6252       6253       6264       6263       6373       6374       6385       6384  
      6253       6254       6265       6264       6374       6375       6386       6385  
      6254       6255       6266       6265       6375       6376       6387       6386  
      6255       6256       6267       6266       6376       6377       6388       6387  
      6256       6257       6268       6267       6377       6378       6389       6388  
      6257       6258       6269       6268       6378       6379       6390       6389  
      6258       6259       6270       6269       6379       6380       6391       6390  
      6260       6261       6272       6271       6381       6382       6393       6392  
      6261       6262       6273       6272       6382       6383       6394       6393  
      6262       6263       6274       6273       6383       6384       6395       6394  
      6263       6264       6275       6274       6384       6385       6396       6395  
      6264       6265       6276       6275       6385       6386       6397       6396  
      6265       6266       6277       6276       6386       6387       6398       6397  
      6266       6267       6278       6277       6387       6388       6399       6398  
      6267       6268       6279       6278       6388       6389       6400       6399  
      6268       6269       6280       6279       6389       6390       6401       6400  
      6269       6270       6281       6280       6390       6391       6402       6401  
      6271       6272       6283       6282       6392       6393       6404       6403  
      6272       6273       6284       6283       6393       6394       6405       6404  
      6273       6274       6285       6284       6394       6395       6406       6405  
      6274       6275       6286       6285       6395       6396       6407       6406  
      6275       6276       6287       6286       6396       6397       6408       6407  
      6276       6277       6288       6287       6397       6398       6409       6408  
      6277       6278       6289       6288       6398       6399       6410       6409  
      6278       6279       6290       6289       6399       6400       6411       6410  
      6279       6280       6291       6290       6400       6401       6412       6411  
      6280       6281       6292       6291       6401       6402       6413       6412  
      6293       6294       6305       6304       6414       6415       6426       6425  
      6294       6295       6306       6305       6415       6416       6427       6426  
      6295       6296       6307       6306       6416       6417       6428       6427  
      6296       6297       6308       6307       6417       6418       6429       6428  
      6297       6298       6309       6308       6418       6419       6430       6429  
      6298       6299       6310       6309       6419       6420       6431       6430  
      6299       6300       6311       6310       6420       6421       6432       6431  
      6300       6301       6312       6311       6421       6422       6433       6432  
      6301       6302       6313       6312       6422       6423       6434       6433  
      6302       6303       6314       6313       6423       6424       6435       6434  
      6304       6305       6316       6315       6425       6426       6437       6436  
      6305       6306       6317       6316       6426       6427       6438       6437  
      6306       6307       6318       6317       6427       6428       6439       6438  
      6307       6308       6319       6318       6428       6429       6440       6439  
      6308       6309       6320       6319       6429       6430       6441       6440  
      6309       6310       6321       6320       6430       6431       6442       6441  
      6310       6311       6322       6321       6431       6432       6443       6442  
      6311       6312       6323       6322       6432       6433       6444       6443  
      6312       6313       6324       6323       6433       6434       6445       6444  
      6313       6314       6325       6324       6434       6435       6446       6445  
      6315       6316       6327       6326       6436       6437       6448       6447  
      6316       6317       6328       6327       6437       6438       6449       6448  
      6317       6318       6329       6328       6438       6439       6450       6449  
      6318       6319       6330       6329       6439       6440       6451       6450  
      6319       6320       6331       6330       6440       6441       6452       6451  
      6320       6321       6332       6331       6441       6442       6453       6452  
      6321       6322       6333       6332       6442       6443       6454       6453  
      6322       6323       6334       6333       6443       6444       6455       6454  
      6323       6324       6335       6334       6444       6445       6456       6455  
      6324       6325       6336       6335       6445       6446       6457       6456  
      6326       6327       6338       6337       6447       6448       6459       6458  
      6327       6328       6339       6338       6448       6449       6460       6459  
      6328       6329       6340       6339       6449       6450       6461       6460  
      6329       6330       6341       6340       6450       6451       6462       6461  
      6330       6331       6342       6341       6451       6452       6463       6462  
      6331       6332       6343       6342       6452       6453       6464       6463  
      6332       6333       6344       6343       6453       6454       6465       6464  
      6333       6334       6345       6344       6454       6455       6466       6465  
      6334       6335       6346       6345       6455       6456       6467       6466  
      6335       6336       6347       6346       6456       6457       6468       6467  
      6337       6338       6349       6348       6458       6459       6470       6469  
      6338       6339       6350       6349       6459       6460       6471       6470  
      6339       6340       6351       6350       6460       6461       6472       6471  
      6340       6341       6352       6351       6461       6462       6473       6472  
      6341       6342       6353       6352       6462       6463       6474       6473  
      6342       6343       6354       6353       6463       6464       6475       6474  
      6343       6344       6355       6354       6464       6465       6476       6475  
      6344       6345       6356       6355       6465       6466       6477       6476  
      6345       6346       6357       6356       6466       6467       6478       6477  
      6346       6347       6358       6357       6467       6468       6479       6478  
      6348       6349       6360       6359       6469       6470       6481       6480  
      6349       6350       6361       6360       6470       6471       6482       6481  
      6350       6351       6362       6361       6471       6472       6483       6482  
      6351       6352       6363       6362       6472       6473       6484       6483  
      6352       6353       6364       6363       6473       6474       6485       6484  
      6353       6354       6365       6364       6474       6475       6486       6485  
      6354       6355       6366       6365       6475       6476       6487       6486  
      6355       6356       6367       6366       6476       6477       6488       6487  
      6356       6357       6368       6367       6477       6478       6489       6488  
      6357       6358       6369       6368       6478       6479       6490       6489  
      6359       6360       6371       6370       6480       6481       6492       6491  
      6360       6361       6372       6371       6481       6482       6493       6492  
      6361       6362       6373       6372       6482       6483       6494       6493  
      6362       6363       6374       6373       6483       6484       6495       6494  
      6363       6364       6375       6374       6484       6485       6496       6495  
      6364       6365       6376       6375       6485       6486       6497       6496  
      6365       6366       6377       6376       6486       6487       6498       6497  
      6366       6367       6378       6377       6487       6488       6499       6498  
      6367       6368       6379       6378       6488       6489       6500       6499  
      6368       6369       6380       6379       6489       6490       6501       6500  
      6370       6371       6382       6381       6491       6492       6503       6502  
      6371       6372       6383       6382       6492       6493       6504       6503  
      6372       6373       6384       6383       6493       6494       6505       6504  
      6373       6374       6385       6384       6494       6495       6506       6505  
      6374       6375       6386       6385       6495       6496       6507       6506  
      6375       6376       6387       6386       6496       6497       6508       6507  
      6376       6377       6388       6387       6497       6498       6509       6508  
      6377       6378       6389       6388       6498       6499       6510       6509  
      6378       6379       6390       6389       6499       6500       6511       6510  
      6379       6380       6391       6390       6500       6501       6512       6511  
      6381       6382       6393       6392       6502       6503       6514       6513  
      6382       6383       6394       6393       6503       6504       6515       6514  
      6383       6384       6395       6394       6504       6505       6516       6515  
      6384       6385       6396       6395       6505       6506       6517       6516  
      6385       6386       6397       6396       6506       6507       6518       6517  
      6386       6387       6398       6397       6507       6508       6519       6518  
      6387       6388       6399       6398       6508       6509       6520       6519  
      6388       6389       6400       6399       6509       6510       6521       6520  
      6389       6390       6401       6400       6510       6511       6522       6521  
      6390       6391       6402       6401       6511       6512       6523       6522  
      6392       6393       6404       6403       6513       6514       6525       6524  
      6393       6394       6405       6404       6514       6515       6526       6525  
      6394       6395       6406       6405       6515       6516       6527       6526  
      6395       6396       6407       6406       6516       6517       6528       6527  
      6396       6397       6408       6407       6517       6518       6529       6528  
      6397       6398       6409       6408       6518       6519       6530       6529  
      6398       6399       6410       6409       6519       6520       6531       6530  
      6399       6400       6411       6410       6520       6521       6532       6531  
      6400       6401       6412       6411       6521       6522       6533       6532  
      6401       6402       6413       6412       6522       6523       6534       6533  
      6414       6415       6426       6425       6535       6536       6547       6546  
      6415       6416       6427       6426       6536       6537       6548       6547  
      6416       6417       6428       6427       6537       6538       6549       6548  
      6417       6418       6429       6428       6538       6539       6550       6549  
      6418       6419       6430       6429       6539       6540       6551       6550  
      6419       6420       6431       6430       6540       6541       6552       6551  
      6420       6421       6432       6431       6541       6542       6553       6552  
      6421       6422       6433       6432       6542       6543       6554       6553  
      6422       6423       6434       6433       6543       6544       6555       6554  
      6423       6424       6435       6434       6544       6545       6556       6555  
      6425       6426       6437       6436       6546       6547       6558       6557  
      6426       6427       6438       6437       6547       6548       6559       6558  
      6427       6428       6439       6438       6548       6549       6560       6559  
      6428       6429       6440       6439       6549       6550       6561       6560  
      6429       6430       6441       6440       6550       6551       6562       6561  
      6430       6431       6442       6441       6551       6552       6563       6562  
      6431       6432       6443       6442       6552       6553       6564       6563  
      6432       6433       6444       6443       6553       6554       6565       6564  
      6433       6434       6445       6444       6554       6555       6566       6565  
      6434       6435       6446       6445       6555       6556       6567       6566  
      6436       6437       6448       6447       6557       6558       6569       6568  
      6437       6438       6449       6448       6558       6559       6570       6569  
      6438       6439       6450       6449       6559       6560       6571       6570  
      6439       6440       6451       6450       6560       6561       6572       6571  
      6440       6441       6452       6451       6561       6562       6573       6572  
      6441       6442       6453       6452       6562       6563       6574       6573  
      6442       6443       6454       6453       6563       6564       6575       6574  
      6443       6444       6455       6454       6564       6565       6576       6575  
      6444       6445       6456       6455       6565       6566       6577       6576  
      6445       6446       6457       6456       6566       6567       6578       6577  
      6447       6448       6459       6458       6568       6569       6580       6579  
      6448       6449       6460       6459       6569       6570       6581       6580  
      6449       6450       6461       6460       6570       6571       6582       6581  
      6450       6451       6462       6461       6571       6572       6583       6582  
      6451       6452       6463       6462       6572       6573       6584       6583  
      6452       6453       6464       6463       6573       6574       6585       6584  
      6453       6454       6465       6464       6574       6575       6586       6585  
      6454       6455       6466       6465       6575       6576       6587       6586  
      6455       6456       6467       6466       6576       6577       6588       6587  
      6456       6457       6468       6467       6577       6578       6589       6588  
      6458       6459       6470       6469       6579       6580       6591       6590  
      6459       6460       6471       6470       6580       6581       6592       6591  
      6460       6461       6472       6471       6581       6582       6593       6592  
      6461       6462       6473       6472       6582       6583       6594       6593  
      6462       6463       6474       6473       6583       6584       6595       6594  
      6463       6464       6475       6474       6584       6585       6596       6595  
      6464       6465       6476       6475       6585       6586       6597       6596  
      6465       6466       6477       6476       6586       6587       6598       6597  
      6466       6467       6478       6477       6587       6588       6599       6598  
      6467       6468       6479       6478       6588       6589       6600       6599  
      6469       6470       6481       6480       6590       6591       6602       6601  
      6470       6471       6482       6481       6591       6592       6603       6602  
      6471       6472       6483       6482       6592       6593       6604       6603  
      6472       6473       6484       6483       6593       6594       6605       6604  
      6473       6474       6485       6484       6594       6595       6606       6605  
      6474       6475       6486       6485       6595       6596       6607       6606  
      6475       6476       6487       6486       6596       6597       6608       6607  
      6476       6477       6488       6487       6597       6598       6609       6608  
      6477       6478       6489       6488       6598       6599       6610       6609  
      6478       6479       6490       6489       6599       6600       6611       6610  
      6480       6481       6492       6491       6601       6602       6613       6612  
      6481       6482       6493       6492       6602       6603       6614       6613  
      6482       6483       6494       6493       6603       6604       6615       6614  
      6483       6484       6495       6494       6604       6605       6616       6615  
      6484       6485       6496       6495       6605       6606       6617       6616  
      6485       6486       6497       6496       6606       6607       6618       6617  
      6486       6487       6498       6497       6607       6608       6619       6618  
      6487       6488       6499       6498       6608       6609       6620       6619  
      6488       6489       6500       6499       6609       6610       6621       6620  
      6489       6490       6501       6500       6610       6611       6622       6621  
      6491       6492       6503       6502       6612       6613       6624       6623  
      6492       6493       6504       6503       6613       6614       6625       6624  
      6493       6494       6505       6504       6614       6615       6626       6625  
      6494       6495       6506       6505       6615       6616       6627       6626  
      6495       6496       6507       6506       6616       6617       6628       6627  
      6496       6497       6508       6507       6617       6618       6629       6628  
      6497       6498       6509       6508       6618       6619       6630       6629  
      6498       6499       6510       6509       6619       6620       6631       6630  
      6499       6500       6511       6510       6620       6621       6632       6631  
      6500       6501       6512       6511       6621       6622       6633       6632  
      6502       6503       6514       6513       6623       6624       6635       6634  
      6503       6504       6515       6514       6624       6625       6636       6635  
      6504       6505       6516       6515       6625       6626       6637       6636  
      6505       6506       6517       6516       6626       6627       6638       6637  
      6506       6507       6518       6517       6627       6628       6639       6638  
      6507       6508       6519       6518       6628       6629       6640       6639  
      6508       6509       6520       6519       6629       6630       6641       6640  
      6509       6510       6521       6520       6630       6631       6642       6641  
      6510       6511       6522       6521       6631       6632       6643       6642  
      6511       6512       6523       6522       6632       6633       6644       6643  
      6513       6514       6525       6524       6634       6635       6646       6645  
      6514       6515       6526       6525       6635       6636       6647       6646  
      6515       6516       6527       6526       6636       6637       6648       6647  
      6516       6517       6528       6527       6637       6638       6649       6648  
      6517       6518       6529       6528       6638       6639       6650       6649  
      6518       6519       6530       6529       6639       6640       6651       6650  
      6519       6520       6531       6530       6640       6641       6652       6651  
      6520       6521       6532       6531       6641       6642       6653       6652  
      6521       6522       6533       6532       6642       6643       6654       6653  
      6522       6523       6534       6533       6643       6644       6655       6654  
      6535       6536       6547       6546       6656       6657       6668       6667  
      6536       6537       6548       6547       6657       6658       6669       6668  
      6537       6538       6549       6548       6658       6659       6670       6669  
      6538       6539       6550       6549       6659       6660       6671       6670  
      6539       6540       6551       6550       6660       6661       6672       6671  
      6540       6541       6552       6551       6661       6662       6673       6672  
      6541       6542       6553       6552       6662       6663       6674       6673  
      6542       6543       6554       6553       6663       6664       6675       6674  
      6543       6544       6555       6554       6664       6665       6676       6675  
      6544       6545       6556       6555       6665       6666       6677       6676  
      6546       6547       6558       6557       6667       6668       6679       6678  
      6547       6548       6559       6558       6668       6669       6680       6679  
      6548       6549       6560       6559       6669       6670       6681       6680  
      6549       6550       6561       6560       6670       6671       6682       6681  
      6550       6551       6562       6561       6671       6672       6683       6682  
      6551       6552       6563       6562       6672       6673       6684       6683  
      6552       6553       6564       6563       6673       6674       6685       6684  
      6553       6554       6565       6564       6674       6675       6686       6685  
      6554       6555       6566       6565       6675       6676       6687       6686  
      6555       6556       6567       6566       6676       6677       6688       6687  
      6557       6558       6569       6568       6678       6679       6690       6689  
      6558       6559       6570       6569       6679       6680       6691       6690  
      6559       6560       6571       6570       6680       6681       6692       6691  
      6560       6561       6572       6571       6681       6682       6693       6692  
      6561       6562       6573       6572       6682       6683       6694       6693  
      6562       6563       6574       6573       6683       6684       6695       6694  
      6563       6564       6575       6574       6684       6685       6696       6695  
      6564       6565       6576       6575       6685       6686       6697       6696  
      6565       6566       6577       6576       6686       6687       6698       6697  
      6566       6567       6578       6577       6687       6688       6699       6698  
      6568       6569       6580       6579       6689       6690       6701       6700  
      6569       6570       6581       6580       6690       6691       6702       6701  
      6570       6571       6582       6581       6691       6692       6703       6702  
      6571       6572       6583       6582       6692       6693       6704       6703  
      6572       6573       6584       6583       6693       6694       6705       6704  
      6573       6574       6585       6584       6694       6695       6706       6705  
      6574       6575       6586       6585       6695       6696       6707       6706  
      6575       6576       6587       6586       6696       6697       6708       6707  
      6576       6577       6588       6587       6697       6698       6709       6708  
      6577       6578       6589       6588       6698       6699       6710       6709  
      6579       6580       6591       6590       6700       6701       6712       6711  
      6580       6581       6592       6591       6701       6702       6713       6712  
      6581       6582       6593       6592       6702       6703       6714       6713  
      6582       6583       6594       6593       6703       6704       6715       6714  
      6583       6584       6595       6594       6704       6705       6716       6715  
      6584       6585       6596       6595       6705       6706       6717       6716  
      6585       6586       6597       6596       6706       6707       6718       6717  
      6586       6587       6598       6597       6707       6708       6719       6718  
      6587       6588       6599       6598       6708       6709       6720       6719  
      6588       6589       6600       6599       6709       6710       6721       6720  
      6590       6591       6602       6601       6711       6712       6723       6722  
      6591       6592       6603       6602       6712       6713       6724       6723  
      6592       6593       6604       6603       6713       6714       6725       6724  
      6593       6594       6605       6604       6714       6715       6726       6725  
      6594       6595       6606       6605       6715       6716       6727       6726  
      6595       6596       6607       6606       6716       6717       6728       6727  
      6596       6597       6608       6607       6717       6718       6729       6728  
      6597       6598       6609       6608       6718       6719       6730       6729  
      6598       6599       6610       6609       6719       6720       6731       6730  
      6599       6600       6611       6610       6720       6721       6732       6731  
      6601       6602       6613       6612       6722       6723       6734       6733  
      6602       6603       6614       6613       6723       6724       6735       6734  
      6603       6604       6615       6614       6724       6725       6736       6735  
      6604       6605       6616       6615       6725       6726       6737       6736  
      6605       6606       6617       6616       6726       6727       6738       6737  
      6606       6607       6618       6617       6727       6728       6739       6738  
      6607       6608       6619       6618       6728       6729       6740       6739  
      6608       6609       6620       6619       6729       6730       6741       6740  
      6609       6610       6621       6620       6730       6731       6742       6741  
      6610       6611       6622       6621       6731       6732       6743       6742  
      6612       6613       6624       6623       6733       6734       6745       6744  
      6613       6614       6625       6624       6734       6735       6746       6745  
      6614       6615       6626       6625       6735       6736       6747       6746  
      6615       6616       6627       6626       6736       6737       6748       6747  
      6616       6617       6628       6627       6737       6738       6749       6748  
      6617       6618       6629       6628       6738       6739       6750       6749  
      6618       6619       6630       6629       6739       6740       6751       6750  
      6619       6620       6631       6630       6740       6741       6752       6751  
      6620       6621       6632       6631       6741       6742       6753       6752  
      6621       6622       6633       6632       6742       6743       6754       6753  
      6623       6624       6635       6634       6744       6745       6756       6755  
      6624       6625       6636       6635       6745       6746       6757       6756  
      6625       6626       6637       6636       6746       6747       6758       6757  
      6626       6627       6638       6637       6747       6748       6759       6758  
      6627       6628       6639       6638       6748       6749       6760       6759  
      6628       6629       6640       6639       6749       6750       6761       6760  
      6629       6630       6641       6640       6750       6751       6762       6761  
      6630       6631       6642       6641       6751       6752       6763       6762  
      6631       6632       6643       6642       6752       6753       6764       6763  
      6632       6633       6644       6643       6753       6754       6765       6764  
      6634       6635       6646       6645       6755       6756       6767       6766  
      6635       6636       6647       6646       6756       6757       6768       6767  
      6636       6637       6648       6647       6757       6758       6769       6768  
      6637       6638       6649       6648       6758       6759       6770       6769  
      6638       6639       6650       6649       6759       6760       6771       6770  
      6639       6640       6651       6650       6760       6761       6772       6771  
      6640       6641       6652       6651       6761       6762       6773       6772  
      6641       6642       6653       6652       6762       6763       6774       6773  
      6642       6643       6654       6653       6763       6764       6775       6774  
      6643       6644       6655       6654       6764       6765       6776       6775  
      6656       6657       6668       6667       6777       6778       6789       6788  
      6657       6658       6669       6668       6778       6779       6790       6789  
      6658       6659       6670       6669       6779       6780       6791       6790  
      6659       6660       6671       6670       6780       6781       6792       6791  
      6660       6661       6672       6671       6781       6782       6793       6792  
      6661       6662       6673       6672       6782       6783       6794       6793  
      6662       6663       6674       6673       6783       6784       6795       6794  
      6663       6664       6675       6674       6784       6785       6796       6795  
      6664       6665       6676       6675       6785       6786       6797       6796  
      6665       6666       6677       6676       6786       6787       6798       6797  
      6667       6668       6679       6678       6788       6789       6800       6799  
      6668       6669       6680       6679       6789       6790       6801       6800  
      6669       6670       6681       6680       6790       6791       6802       6801  
      6670       6671       6682       6681       6791       6792       6803       6802  
      6671       6672       6683       6682       6792       6793       6804       6803  
      6672       6673       6684       6683       6793       6794       6805       6804  
      6673       6674       6685       6684       6794       6795       6806       6805  
      6674       6675       6686       6685       6795       6796       6807       6806  
      6675       6676       6687       6686       6796       6797       6808       6807  
      6676       6677       6688       6687       6797       6798       6809       6808  
      6678       6679       6690       6689       6799       6800       6811       6810  
      6679       6680       6691       6690       6800       6801       6812       6811  
      6680       6681       6692       6691       6801       6802       6813       6812  
      6681       6682       6693       6692       6802       6803       6814       6813  
      6682       6683       6694       6693       6803       6804       6815       6814  
      6683       6684       6695       6694       6804       6805       6816       6815  
      6684       6685       6696       6695       6805       6806       6817       6816  
      6685       6686       6697       6696       6806       6807       6818       6817  
      6686       6687       6698       6697       6807       6808       6819       6818  
      6687       6688       6699       6698       6808       6809       6820       6819  
      6689       6690       6701       6700       6810       6811       6822       6821  
      6690       6691       6702       6701       6811       6812       6823       6822  
      6691       6692       6703       6702       6812       6813       6824       6823  
      6692       6693       6704       6703       6813       6814       6825       6824  
      6693       6694       6705       6704       6814       6815       6826       6825  
      6694       6695       6706       6705       6815       6816       6827       6826  
      6695       6696       6707       6706       6816       6817       6828       6827  
      6696       6697       6708       6707       6817       6818       6829       6828  
      6697       6698       6709       6708       6818       6819       6830       6829  
      6698       6699       6710       6709       6819       6820       6831       6830  
      6700       6701       6712       6711       6821       6822       6833       6832  
      6701       6702       6713       6712       6822       6823       6834       6833  
      6702       6703       6714       6713       6823       6824       6835       6834  
      6703       6704       6715       6714       6824       6825       6836       6835  
      6704       6705       6716       6715       6825       6826       6837       6836  
      6705       6706       6717       6716       6826       6827       6838       6837  
      6706       6707       6718       6717       6827       6828       6839       6838  
      6707       6708       6719       6718       6828       6829       6840       6839  
      6708       6709       6720       6719       6829       6830       6841       6840  
      6709       6710       6721       6720       6830       6831       6842       6841  
      6711       6712       6723       6722       6832       6833       6844       6843  
      6712       6713       6724       6723       6833       6834       6845       6844  
      6713       6714       6725       6724       6834       6835       6846       6845  
      6714       6715       6726       6725       6835       6836       6847       6846  
      6715       6716       6727       6726       6836       6837       6848       6847  
      6716       6717       6728       6727       6837       6838       6849       6848  
      6717       6718       6729       6728       6838       6839       6850       6849  
      6718       6719       6730       6729       6839       6840       6851       6850  
      6719       6720       6731       6730       6840       6841       6852       6851  
      6720       6721       6732       6731       6841       6842       6853       6852  
      6722       6723       6734       6733       6843       6844       6855       6854  
      6723       6724       6735       6734       6844       6845       6856       6855  
      6724       6725       6736       6735       6845       6846       6857       6856  
      6725       6726       6737       6736       6846       6847       6858       6857  
      6726       6727       6738       6737       6847       6848       6859       6858  
      6727       6728       6739       6738       6848       6849       6860       6859  
      6728       6729       6740       6739       6849       6850       6861       6860  
      6729       6730       6741       6740       6850       6851       6862       6861  
      6730       6731       6742       6741       6851       6852       6863       6862  
      6731       6732       6743       6742       6852       6853       6864       6863  
      6733       6734       6745       6744       6854       6855       6866       6865  
      6734       6735       6746       6745       6855       6856       6867       6866  
      6735       6736       6747       6746       6856       6857       6868       6867  
      6736       6737       6748       6747       6857       6858       6869       6868  
      6737       6738       6749       6748       6858       6859       6870       6869  
      6738       6739       6750       6749       6859       6860       6871       6870  
      6739       6740       6751       6750       6860       6861       6872       6871  
      6740       6741       6752       6751       6861       6862       6873       6872  
      6741       6742       6753       6752       6862       6863       6874       6873  
      6742       6743       6754       6753       6863       6864       6875       6874  
      6744       6745       6756       6755       6865       6866       6877       6876  
      6745       6746       6757       6756       6866       6867       6878       6877  
      6746       6747       6758       6757       6867       6868       6879       6878  
      6747       6748       6759       6758       6868       6869       6880       6879  
      6748       6749       6760       6759       6869       6870       6881       6880  
      6749       6750       6761       6760       6870       6871       6882       6881  
      6750       6751       6762       6761       6871       6872       6883       6882  
      6751       6752       6763       6762       6872       6873       6884       6883  
      6752       6753       6764       6763       6873       6874       6885       6884  
      6753       6754       6765       6764       6874       6875       6886       6885  
      6755       6756       6767       6766       6876       6877       6888       6887  
      6756       6757       6768       6767       6877       6878       6889       6888  
      6757       6758       6769       6768       6878       6879       6890       6889  
      6758       6759       6770       6769       6879       6880       6891       6890  
      6759       6760       6771       6770       6880       6881       6892       6891  
      6760       6761       6772       6771       6881       6882       6893       6892  
      6761       6762       6773       6772       6882       6883       6894       6893  
      6762       6763       6774       6773       6883       6884       6895       6894  
      6763       6764       6775       6774       6884       6885       6896       6895  
      6764       6765       6776       6775       6885       6886       6897       6896  
      6777       6778       6789       6788       6898       6899       6910       6909  
      6778       6779       6790       6789       6899       6900       6911       6910  
      6779       6780       6791       6790       6900       6901       6912       6911  
      6780       6781       6792       6791       6901       6902       6913       6912  
      6781       6782       6793       6792       6902       6903       6914       6913  
      6782       6783       6794       6793       6903       6904       6915       6914  
      6783       6784       6795       6794       6904       6905       6916       6915  
      6784       6785       6796       6795       6905       6906       6917       6916  
      6785       6786       6797       6796       6906       6907       6918       6917  
      6786       6787       6798       6797       6907       6908       6919       6918  
      6788       6789       6800       6799       6909       6910       6921       6920  
      6789       6790       6801       6800       6910       6911       6922       6921  
      6790       6791       6802       6801       6911       6912       6923       6922  
      6791       6792       6803       6802       6912       6913       6924       6923  
      6792       6793       6804       6803       6913       6914       6925       6924  
      6793       6794       6805       6804       6914       6915       6926       6925  
      6794       6795       6806       6805       6915       6916       6927       6926  
      6795       6796       6807       6806       6916       6917       6928       6927  
      6796       6797       6808       6807       6917       6918       6929       6928  
      6797       6798       6809       6808       6918       6919       6930       6929  
      6799       6800       6811       6810       6920       6921       6932       6931  
      6800       6801       6812       6811       6921       6922       6933       6932  
      6801       6802       6813       6812       6922       6923       6934       6933  
      6802       6803       6814       6813       6923       6924       6935       6934  
      6803       6804       6815       6814       6924       6925       6936       6935  
      6804       6805       6816       6815       6925       6926       6937       6936  
      6805       6806       6817       6816       6926       6927       6938       6937  
      6806       6807       6818       6817       6927       6928       6939       6938  
      6807       6808       6819       6818       6928       6929       6940       6939  
      6808       6809       6820       6819       6929       6930       6941       6940  
      6810       6811       6822       6821       6931       6932       6943       6942  
      6811       6812       6823       6822       6932       6933       6944       6943  
      6812       6813       6824       6823       6933       6934       6945       6944  
      6813       6814       6825       6824       6934       6935       6946       6945  
      6814       6815       6826       6825       6935       6936       6947       6946  
      6815       6816       6827       6826       6936       6937       6948       6947  
      6816       6817       6828       6827       6937       6938       6949       6948  
      6817       6818       6829       6828       6938       6939       6950       6949  
      6818       6819       6830       6829       6939       6940       6951       6950  
      6819       6820       6831       6830       6940       6941       6952       6951  
      6821       6822       6833       6832       6942       6943       6954       6953  
      6822       6823       6834       6833       6943       6944       6955       6954  
      6823       6824       6835       6834       6944       6945       6956       6955  
      6824       6825       6836       6835       6945       6946       6957       6956  
      6825       6826       6837       6836       6946       6947       6958       6957  
      6826       6827       6838       6837       6947       6948       6959       6958  
      6827       6828       6839       6838       6948       6949       6960       6959  
      6828       6829       6840       6839       6949       6950       6961       6960  
      6829       6830       6841       6840       6950       6951       6962       6961  
      6830       6831       6842       6841       6951       6952       6963       6962  
      6832       6833       6844       6843       6953       6954       6965       6964  
      6833       6834       6845       6844       6954       6955       6966       6965  
      6834       6835       6846       6845       6955       6956       6967       6966  
      6835       6836       6847       6846       6956       6957       6968       6967  
      6836       6837       6848       6847       6957       6958       6969       6968  
      6837       6838       6849       6848       6958       6959       6970       6969  
      6838       6839       6850       6849       6959       6960       6971       6970  
      6839       6840       6851       6850       6960       6961       6972       6971  
      6840       6841       6852       6851       6961       6962       6973       6972  
      6841       6842       6853       6852       6962       6963       6974       6973  
      6843       6844       6855       6854       6964       6965       6976       6975  
      6844       6845       6856       6855       6965       6966       6977       6976  
      6845       6846       6857       6856       6966       6967       6978       6977  
      6846       6847       6858       6857       6967       6968       6979       6978  
      6847       6848       6859       6858       6968       6969       6980       6979  
      6848       6849       6860       6859       6969       6970       6981       6980  
      6849       6850       6861       6860       6970       6971       6982       6981  
      6850       6851       6862       6861       6971       6972       6983       6982  
      6851       6852       6863       6862       6972       6973       6984       6983  
      6852       6853       6864       6863       6973       6974       6985       6984  
      6854       6855       6866       6865       6975       6976       6987       6986  
      6855       6856       6867       6866       6976       6977       6988       6987  
      6856       6857       6868       6867       6977       6978       6989       6988  
      6857       6858       6869       6868       6978       6979       6990       6989  
      6858       6859       6870       6869       6979       6980       6991       6990  
      6859       6860       6871       6870       6980       6981       6992       6991  
      6860       6861       6872       6871       6981       6982       6993       6992  
      6861       6862       6873       6872       6982       6983       6994       6993  
      6862       6863       6874       6873       6983       6984       6995       6994  
      6863       6864       6875       6874       6984       6985       6996       6995  
      6865       6866       6877       6876       6986       6987       6998       6997  
      6866       6867       6878       6877       6987       6988       6999       6998  
      6867       6868       6879       6878       6988       6989       7000       6999  
      6868       6869       6880       6879       6989       6990       7001       7000  
      6869       6870       6881       6880       6990       6991       7002       7001  
      6870       6871       6882       6881       6991       6992       7003       7002  
      6871       6872       6883       6882       6992       6993       7004       7003  
      6872       6873       6884       6883       6993       6994       7005       7004  
      6873       6874       6885       6884       6994       6995       7006       7005  
      6874       6875       6886       6885       6995       6996       7007       7006  
      6876       6877       6888       6887       6997       6998       7009       7008  
      6877       6878       6889       6888       6998       6999       7010       7009  
      6878       6879       6890       6889       6999       7000       7011       7010  
      6879       6880       6891       6890       7000       7001       7012       7011  
      6880       6881       6892       6891       7001       7002       7013       7012  
      6881       6882       6893       6892       7002       7003       7014       7013  
      6882       6883       6894       6893       7003       7004       7015       7014  
      6883       6884       6895       6894       7004       7005       7016       7015  
      6884       6885       6896       6895       7005       7006       7017       7016  
      6885       6886       6897       6896       7006       7007       7018       7017  
      6898       6899       6910       6909       7019       7020       7031       7030  
      6899       6900       6911       6910       7020       7021       7032       7031  
      6900       6901       6912       6911       7021       7022       7033       7032  
      6901       6902       6913       6912       7022       7023       7034       7033  
      6902       6903       6914       6913       7023       7024       7035       7034  
      6903       6904       6915       6914       7024       7025       7036       7035  
      6904       6905       6916       6915       7025       7026       7037       7036  
      6905       6906       6917       6916       7026       7027       7038       7037  
      6906       6907       6918       6917       7027       7028       7039       7038  
      6907       6908       6919       6918       7028       7029       7040       7039  
      6909       6910       6921       6920       7030       7031       7042       7041  
      6910       6911       6922       6921       7031       7032       7043       7042  
      6911       6912       6923       6922       7032       7033       7044       7043  
      6912       6913       6924       6923       7033       7034       7045       7044  
      6913       6914       6925       6924       7034       7035       7046       7045  
      6914       6915       6926       6925       7035       7036       7047       7046  
      6915       6916       6927       6926       7036       7037       7048       7047  
      6916       6917       6928       6927       7037       7038       7049       7048  
      6917       6918       6929       6928       7038       7039       7050       7049  
      6918       6919       6930       6929       7039       7040       7051       7050  
      6920       6921       6932       6931       7041       7042       7053       7052  
      6921       6922       6933       6932       7042       7043       7054       7053  
      6922       6923       6934       6933       7043       7044       7055       7054  
      6923       6924       6935       6934       7044       7045       7056       7055  
      6924       6925       6936       6935       7045       7046       7057       7056  
      6925       6926       6937       6936       7046       7047       7058       7057  
      6926       6927       6938       6937       7047       7048       7059       7058  
      6927       6928       6939       6938       7048       7049       7060       7059  
      6928       6929       6940       6939       7049       7050       7061       7060  
      6929       6930       6941       6940       7050       7051       7062       7061  
      6931       6932       6943       6942       7052       7053       7064       7063  
      6932       6933       6944       6943       7053       7054       7065       7064  
      6933       6934       6945       6944       7054       7055       7066       7065  
      6934       6935       6946       6945       7055       7056       7067       7066  
      6935       6936       6947       6946       7056       7057       7068       7067  
      6936       6937       6948       6947       7057       7058       7069       7068  
      6937       6938       6949       6948       7058       7059       7070       7069  
      6938       6939       6950       6949       7059       7060       7071       7070  
      6939       6940       6951       6950       7060       7061       7072       7071  
      6940       6941       6952       6951       7061       7062       7073       7072  
      6942       6943       6954       6953       7063       7064       7075       7074  
      6943       6944       6955       6954       7064       7065       7076       7075  
      6944       6945       6956       6955       7065       7066       7077       7076  
      6945       6946       6957       6956       7066       7067       7078       7077  
      6946       6947       6958       6957       7067       7068       7079       7078  
      6947       6948       6959       6958       7068       7069       7080       7079  
      6948       6949       6960       6959       7069       7070       7081       7080  
      6949       6950       6961       6960       7070       7071       7082       7081  
      6950       6951       6962       6961       7071       7072       7083       7082  
      6951       6952       6963       6962       7072       7073       7084       7083  
      6953       6954       6965       6964       7074       7075       7086       7085  
      6954       6955       6966       6965       7075       7076       7087       7086  
      6955       6956       6967       6966       7076       7077       7088       7087  
      6956       6957       6968       6967       7077       7078       7089       7088  
      6957       6958       6969       6968       7078       7079       7090       7089  
      6958       6959       6970       6969       7079       7080       7091       7090  
      6959       6960       6971       6970       7080       7081       7092       7091  
      6960       6961       6972       6971       7081       7082       7093       7092  
      6961       6962       6973       6972       7082       7083       7094       7093  
      6962       6963       6974       6973       7083       7084       7095       7094  
      6964       6965       6976       6975       7085       7086       7097       7096  
      6965       6966       6977       6976       7086       7087       7098       7097  
      6966       6967       6978       6977       7087       7088       7099       7098  
      6967       6968       6979       6978       7088       7089       7100       7099  
      6968       6969       6980       6979       7089       7090       7101       7100  
      6969       6970       6981       6980       7090       7091       7102       7101  
      6970       6971       6982       6981       7091       7092       7103       7102  
      6971       6972       6983       6982       7092       7093       7104       7103  
      6972       6973       6984       6983       7093       7094       7105       7104  
      6973       6974       6985       6984       7094       7095       7106       7105  
      6975       6976       6987       6986       7096       7097       7108       7107  
      6976       6977       6988       6987       7097       7098       7109       7108  
      6977       6978       6989       6988       7098       7099       7110       7109  
      6978       6979       6990       6989       7099       7100       7111       7110  
      6979       6980       6991       6990       7100       7101       7112       7111  
      6980       6981       6992       6991       7101       7102       7113       7112  
      6981       6982       6993       6992       7102       7103       7114       7113  
      6982       6983       6994       6993       7103       7104       7115       7114  
      6983       6984       6995       6994       7104       7105       7116       7115  
      6984       6985       6996       6995       7105       7106       7117       7116  
      6986       6987       6998       6997       7107       7108       7119       7118  
      6987       6988       6999       6998       7108       7109       7120       7119  
      6988       6989       7000       6999       7109       7110       7121       7120  
      6989       6990       7001       7000       7110       7111       7122       7121  
      6990       6991       7002       7001       7111       7112       7123       7122  
      6991       6992       7003       7002       7112       7113       7124       7123  
      6992       6993       7004       7003       7113       7114       7125       7124  
      6993       6994       7005       7004       7114       7115       7126       7125  
      6994       6995       7006       7005       7115       7116       7127       7126  
      6995       6996       7007       7006       7116       7117       7128       7127  
      6997       6998       7009       7008       7118       7119       7130       7129  
      6998       6999       7010       7009       7119       7120       7131       7130  
      6999       7000       7011       7010       7120       7121       7132       7131  
      7000       7001       7012       7011       7121       7122       7133       7132  
      7001       7002       7013       7012       7122       7123       7134       7133  
      7002       7003       7014       7013       7123       7124       7135       7134  
      7003       7004       7015       7014       7124       7125       7136       7135  
      7004       7005       7016       7015       7125       7126       7137       7136  
      7005       7006       7017       7016       7126       7127       7138       7137  
      7006       7007       7018       7017       7127       7128       7139       7138  
      7019       7020       7031       7030       7140       7141       7152       7151  
      7020       7021       7032       7031       7141       7142       7153       7152  
      7021       7022       7033       7032       7142       7143       7154       7153  
      7022       7023       7034       7033       7143       7144       7155       7154  
      7023       7024       7035       7034       7144       7145       7156       7155  
      7024       7025       7036       7035       7145       7146       7157       7156  
      7025       7026       7037       7036       7146       7147       7158       7157  
      7026       7027       7038       7037       7147       7148       7159       7158  
      7027       7028       7039       7038       7148       7149       7160       7159  
      7028       7029       7040       7039       7149       7150       7161       7160  
      7030       7031       7042       7041       7151       7152       7163       7162  
      7031       7032       7043       7042       7152       7153       7164       7163  
      7032       7033       7044       7043       7153       7154       7165       7164  
      7033       7034       7045       7044       7154       7155       7166       7165  
      7034       7035       7046       7045       7155       7156       7167       7166  
      7035       7036       7047       7046       7156       7157       7168       7167  
      7036       7037       7048       7047       7157       7158       7169       7168  
      7037       7038       7049       7048       7158       7159       7170       7169  
      7038       7039       7050       7049       7159       7160       7171       7170  
      7039       7040       7051       7050       7160       7161       7172       7171  
      7041       7042       7053       7052       7162       7163       7174       7173  
      7042       7043       7054       7053       7163       7164       7175       7174  
      7043       7044       7055       7054       7164       7165       7176       7175  
      7044       7045       7056       7055       7165       7166       7177       7176  
      7045       7046       7057       7056       7166       7167       7178       7177  
      7046       7047       7058       7057       7167       7168       7179       7178  
      7047       7048       7059       7058       7168       7169       7180       7179  
      7048       7049       7060       7059       7169       7170       7181       7180  
      7049       7050       7061       7060       7170       7171       7182       7181  
      7050       7051       7062       7061       7171       7172       7183       7182  
      7052       7053       7064       7063       7173       7174       7185       7184  
      7053       7054       7065       7064       7174       7175       7186       7185  
      7054       7055       7066       7065       7175       7176       7187       7186  
      7055       7056       7067       7066       7176       7177       7188       7187  
      7056       7057       7068       7067       7177       7178       7189       7188  
      7057       7058       7069       7068       7178       7179       7190       7189  
      7058       7059       7070       7069       7179       7180       7191       7190  
      7059       7060       7071       7070       7180       7181       7192       7191  
      7060       7061       7072       7071       7181       7182       7193       7192  
      7061       7062       7073       7072       7182       7183       7194       7193  
      7063       7064       7075       7074       7184       7185       7196       7195  
      7064       7065       7076       7075       7185       7186       7197       7196  
      7065       7066       7077       7076       7186       7187       7198       7197  
      7066       7067       7078       7077       7187       7188       7199       7198  
      7067       7068       7079       7078       7188       7189       7200       7199  
      7068       7069       7080       7079       7189       7190       7201       7200  
      7069       7070       7081       7080       7190       7191       7202       7201  
      7070       7071       7082       7081       7191       7192       7203       7202  
      7071       7072       7083       7082       7192       7193       7204       7203  
      7072       7073       7084       7083       7193       7194       7205       7204  
      7074       7075       7086       7085       7195       7196       7207       7206  
      7075       7076       7087       7086       7196       7197       7208       7207  
      7076       7077       7088       7087       7197       7198       7209       7208  
      7077       7078       7089       7088       7198       7199       7210       7209  
      7078       7079       7090       7089       7199       7200       7211       7210  
      7079       7080       7091       7090       7200       7201       7212       7211  
      7080       7081       7092       7091       7201       7202       7213       7212  
      7081       7082       7093       7092       7202       7203       7214       7213  
      7082       7083       7094       7093       7203       7204       7215       7214  
      7083       7084       7095       7094       7204       7205       7216       7215  
      7085       7086       7097       7096       7206       7207       7218       7217  
      7086       7087       7098       7097       7207       7208       7219       7218  
      7087       7088       7099       7098       7208       7209       7220       7219  
      7088       7089       7100       7099       7209       7210       7221       7220  
      7089       7090       7101       7100       7210       7211       7222       7221  
      7090       7091       7102       7101       7211       7212       7223       7222  
      7091       7092       7103       7102       7212       7213       7224       7223  
      7092       7093       7104       7103       7213       7214       7225       7224  
      7093       7094       7105       7104       7214       7215       7226       7225  
      7094       7095       7106       7105       7215       7216       7227       7226  
      7096       7097       7108       7107       7217       7218       7229       7228  
      7097       7098       7109       7108       7218       7219       7230       7229  
      7098       7099       7110       7109       7219       7220       7231       7230  
      7099       7100       7111       7110       7220       7221       7232       7231  
      7100       7101       7112       7111       7221       7222       7233       7232  
      7101       7102       7113       7112       7222       7223       7234       7233  
      7102       7103       7114       7113       7223       7224       7235       7234  
      7103       7104       7115       7114       7224       7225       7236       7235  
      7104       7105       7116       7115       7225       7226       7237       7236  
      7105       7106       7117       7116       7226       7227       7238       7237  
      7107       7108       7119       7118       7228       7229       7240       7239  
      7108       7109       7120       7119       7229       7230       7241       7240  
      7109       7110       7121       7120       7230       7231       7242       7241  
      7110       7111       7122       7121       7231       7232       7243       7242  
      7111       7112       7123       7122       7232       7233       7244       7243  
      7112       7113       7124       7123       7233       7234       7245       7244  
      7113       7114       7125       7124       7234       7235       7246       7245  
      7114       7115       7126       7125       7235       7236       7247       7246  
      7115       7116       7127       7126       7236       7237       7248       7247  
      7116       7117       7128       7127       7237       7238       7249       7248  
      7118       7119       7130       7129       7239       7240       7251       7250  
      7119       7120       7131       7130       7240       7241       7252       7251  
      7120       7121       7132       7131       7241       7242       7253       7252  
      7121       7122       7133       7132       7242       7243       7254       7253  
      7122       7123       7134       7133       7243       7244       7255       7254  
      7123       7124       7135       7134       7244       7245       7256       7255  
      7124       7125       7136       7135       7245       7246       7257       7256  
      7125       7126       7137       7136       7246       7247       7258       7257  
      7126       7127       7138       7137       7247       7248       7259       7258  
      7127       7128       7139       7138       7248       7249       7260       7259  
      7140       7141       7152       7151       7261       7262       7273       7272  
      7141       7142       7153       7152       7262       7263       7274       7273  
      7142       7143       7154       7153       7263       7264       7275       7274  
      7143       7144       7155       7154       7264       7265       7276       7275  
      7144       7145       7156       7155       7265       7266       7277       7276  
      7145       7146       7157       7156       7266       7267       7278       7277  
      7146       7147       7158       7157       7267       7268       7279       7278  
      7147       7148       7159       7158       7268       7269       7280       7279  
      7148       7149       7160       7159       7269       7270       7281       7280  
      7149       7150       7161       7160       7270       7271       7282       7281  
      7151       7152       7163       7162       7272       7273       7284       7283  
      7152       7153       7164       7163       7273       7274       7285       7284  
      7153       7154       7165       7164       7274       7275       7286       7285  
      7154       7155       7166       7165       7275       7276       7287       7286  
      7155       7156       7167       7166       7276       7277       7288       7287  
      7156       7157       7168       7167       7277       7278       7289       7288  
      7157       7158       7169       7168       7278       7279       7290       7289  
      7158       7159       7170       7169       7279       7280       7291       7290  
      7159       7160       7171       7170       7280       7281       7292       7291  
      7160       7161       7172       7171       7281       7282       7293       7292  
      7162       7163       7174       7173       7283       7284       7295       7294  
      7163       7164       7175       7174       7284       7285       7296       7295  
      7164       7165       7176       7175       7285       7286       7297       7296  
      7165       7166       7177       7176       7286       7287       7298       7297  
      7166       7167       7178       7177       7287       7288       7299       7298  
      7167       7168       7179       7178       7288       7289       7300       7299  
      7168       7169       7180       7179       7289       7290       7301       7300  
      7169       7170       7181       7180       7290       7291       7302       7301  
      7170       7171       7182       7181       7291       7292       7303       7302  
      7171       7172       7183       7182       7292       7293       7304       7303  
      7173       7174       7185       7184       7294       7295       7306       7305  
      7174       7175       7186       7185       7295       7296       7307       7306  
      7175       7176       7187       7186       7296       7297       7308       7307  
      7176       7177       7188       7187       7297       7298       7309       7308  
      7177       7178       7189       7188       7298       7299       7310       7309  
      7178       7179       7190       7189       7299       7300       7311       7310  
      7179       7180       7191       7190       7300       7301       7312       7311  
      7180       7181       7192       7191       7301       7302       7313       7312  
      7181       7182       7193       7192       7302       7303       7314       7313  
      7182       7183       7194       7193       7303       7304       7315       7314  
      7184       7185       7196       7195       7305       7306       7317       7316  
      7185       7186       7197       7196       7306       7307       7318       7317  
      7186       7187       7198       7197       7307       7308       7319       7318  
      7187       7188       7199       7198       7308       7309       7320       7319  
      7188       7189       7200       7199       7309       7310       7321       7320  
      7189       7190       7201       7200       7310       7311       7322       7321  
      7190       7191       7202       7201       7311       7312       7323       7322  
      7191       7192       7203       7202       7312       7313       7324       7323  
      7192       7193       7204       7203       7313       7314       7325       7324  
      7193       7194       7205       7204       7314       7315       7326       7325  
      7195       7196       7207       7206       7316       7317       7328       7327  
      7196       7197       7208       7207       7317       7318       7329       7328  
      7197       7198       7209       7208       7318       7319       7330       7329  
      7198       7199       7210       7209       7319       7320       7331       7330  
      7199       7200       7211       7210       7320       7321       7332       7331  
      7200       7201       7212       7211       7321       7322       7333       7332  
      7201       7202       7213       7212       7322       7323       7334       7333  
      7202       7203       7214       7213       7323       7324       7335       7334  
      7203       7204       7215       7214       7324       7325       7336       7335  
      7204       7205       7216       7215       7325       7326       7337       7336  
      7206       7207       7218       7217       7327       7328       7339       7338  
      7207       7208       7219       7218       7328       7329       7340       7339  
      7208       7209       7220       7219       7329       7330       7341       7340  
      7209       7210       7221       7220       7330       7331       7342       7341  
      7210       7211       7222       7221       7331       7332       7343       7342  
      7211       7212       7223       7222       7332       7333       7344       7343  
      7212       7213       7224       7223       7333       7334       7345       7344  
      7213       7214       7225       7224       7334       7335       7346       7345  
      7214       7215       7226       7225       7335       7336       7347       7346  
      7215       7216       7227       7226       7336       7337       7348       7347  
      7217       7218       7229       7228       7338       7339       7350       7349  
      7218       7219       7230       7229       7339       7340       7351       7350  
      7219       7220       7231       7230       7340       7341       7352       7351  
      7220       7221       7232       7231       7341       7342       7353       7352  
      7221       7222       7233       7232       7342       7343       7354       7353  
      7222       7223       7234       7233       7343       7344       7355       7354  
      7223       7224       7235       7234       7344       7345       7356       7355  
      7224       7225       7236       7235       7345       7346       7357       7356  
      7225       7226       7237       7236       7346       7347       7358       7357  
      7226       7227       7238       7237       7347       7348       7359       7358  
      7228       7229       7240       7239       7349       7350       7361       7360  
      7229       7230       7241       7240       7350       7351       7362       7361  
      7230       7231       7242       7241       7351       7352       7363       7362  
      7231       7232       7243       7242       7352       7353       7364       7363  
      7232       7233       7244       7243       7353       7354       7365       7364  
      7233       7234       7245       7244       7354       7355       7366       7365  
      7234       7235       7246       7245       7355       7356       7367       7366  
      7235       7236       7247       7246       7356       7357       7368       7367  
      7236       7237       7248       7247       7357       7358       7369       7368  
      7237       7238       7249       7248       7358       7359       7370       7369  
      7239       7240       7251       7250       7360       7361       7372       7371  
      7240       7241       7252       7251       7361       7362       7373       7372  
      7241       7242       7253       7252       7362       7363       7374       7373  
      7242       7243       7254       7253       7363       7364       7375       7374  
      7243       7244       7255       7254       7364       7365       7376       7375  
      7244       7245       7256       7255       7365       7366       7377       7376  
      7245       7246       7257       7256       7366       7367       7378       7377  
      7246       7247       7258       7257       7367       7368       7379       7378  
      7247       7248       7259       7258       7368       7369       7380       7379  
      7248       7249       7260       7259       7369       7370       7381       7380  
      7261       7262       7273       7272       7382       7383       7394       7393  
      7262       7263       7274       7273       7383       7384       7395       7394  
      7263       7264       7275       7274       7384       7385       7396       7395  
      7264       7265       7276       7275       7385       7386       7397       7396  
      7265       7266       7277       7276       7386       7387       7398       7397  
      7266       7267       7278       7277       7387       7388       7399       7398  
      7267       7268       7279       7278       7388       7389       7400       7399  
      7268       7269       7280       7279       7389       7390       7401       7400  
      7269       7270       7281       7280       7390       7391       7402       7401  
      7270       7271       7282       7281       7391       7392       7403       7402  
      7272       7273       7284       7283       7393       7394       7405       7404  
      7273       7274       7285       7284       7394       7395       7406       7405  
      7274       7275       7286       7285       7395       7396       7407       7406  
      7275       7276       7287       7286       7396       7397       7408       7407  
      7276       7277       7288       7287       7397       7398       7409       7408  
      7277       7278       7289       7288       7398       7399       7410       7409  
      7278       7279       7290       7289       7399       7400       7411       7410  
      7279       7280       7291       7290       7400       7401       7412       7411  
      7280       7281       7292       7291       7401       7402       7413       7412  
      7281       7282       7293       7292       7402       7403       7414       7413  
      7283       7284       7295       7294       7404       7405       7416       7415  
      7284       7285       7296       7295       7405       7406       7417       7416  
      7285       7286       7297       7296       7406       7407       7418       7417  
      7286       7287       7298       7297       7407       7408       7419       7418  
      7287       7288       7299       7298       7408       7409       7420       7419  
      7288       7289       7300       7299       7409       7410       7421       7420  
      7289       7290       7301       7300       7410       7411       7422       7421  
      7290       7291       7302       7301       7411       7412       7423       7422  
      7291       7292       7303       7302       7412       7413       7424       7423  
      7292       7293       7304       7303       7413       7414       7425       7424  
      7294       7295       7306       7305       7415       7416       7427       7426  
      7295       7296       7307       7306       7416       7417       7428       7427  
      7296       7297       7308       7307       7417       7418       7429       7428  
      7297       7298       7309       7308       7418       7419       7430       7429  
      7298       7299       7310       7309       7419       7420       7431       7430  
      7299       7300       7311       7310       7420       7421       7432       7431  
      7300       7301       7312       7311       7421       7422       7433       7432  
      7301       7302       7313       7312       7422       7423       7434       7433  
      7302       7303       7314       7313       7423       7424       7435       7434  
      7303       7304       7315       7314       7424       7425       7436       7435  
      7305       7306       7317       7316       7426       7427       7438       7437  
      7306       7307       7318       7317       7427       7428       7439       7438  
      7307       7308       7319       7318       7428       7429       7440       7439  
      7308       7309       7320       7319       7429       7430       7441       7440  
      7309       7310       7321       7320       7430       7431       7442       7441  
      7310       7311       7322       7321       7431       7432       7443       7442  
      7311       7312       7323       7322       7432       7433       7444       7443  
      7312       7313       7324       7323       7433       7434       7445       7444  
      7313       7314       7325       7324       7434       7435       7446       7445  
      7314       7315       7326       7325       7435       7436       7447       7446  
      7316       7317       7328       7327       7437       7438       7449       7448  
      7317       7318       7329       7328       7438       7439       7450       7449  
      7318       7319       7330       7329       7439       7440       7451       7450  
      7319       7320       7331       7330       7440       7441       7452       7451  
      7320       7321       7332       7331       7441       7442       7453       7452  
      7321       7322       7333       7332       7442       7443       7454       7453  
      7322       7323       7334       7333       7443       7444       7455       7454  
      7323       7324       7335       7334       7444       7445       7456       7455  
      7324       7325       7336       7335       7445       7446       7457       7456  
      7325       7326       7337       7336       7446       7447       7458       7457  
      7327       7328       7339       7338       7448       7449       7460       7459  
      7328       7329       7340       7339       7449       7450       7461       7460  
      7329       7330       7341       7340       7450       7451       7462       7461  
      7330       7331       7342       7341       7451       7452       7463       7462  
      7331       7332       7343       7342       7452       7453       7464       7463  
      7332       7333       7344       7343       7453       7454       7465       7464  
      7333       7334       7345       7344       7454       7455       7466       7465  
      7334       7335       7346       7345       7455       7456       7467       7466  
      7335       7336       7347       7346       7456       7457       7468       7467  
      7336       7337       7348       7347       7457       7458       7469       7468  
      7338       7339       7350       7349       7459       7460       7471       7470  
      7339       7340       7351       7350       7460       7461       7472       7471  
      7340       7341       7352       7351       7461       7462       7473       7472  
      7341       7342       7353       7352       7462       7463       7474       7473  
      7342       7343       7354       7353       7463       7464       7475       7474  
      7343       7344       7355       7354       7464       7465       7476       7475  
      7344       7345       7356       7355       7465       7466       7477       7476  
      7345       7346       7357       7356       7466       7467       7478       7477  
      7346       7347       7358       7357       7467       7468       7479       7478  
      7347       7348       7359       7358       7468       7469       7480       7479  
      7349       7350       7361       7360       7470       7471       7482       7481  
      7350       7351       7362       7361       7471       7472       7483       7482  
      7351       7352       7363       7362       7472       7473       7484       7483  
      7352       7353       7364       7363       7473       7474       7485       7484  
      7353       7354       7365       7364       7474       7475       7486       7485  
      7354       7355       7366       7365       7475       7476       7487       7486  
      7355       7356       7367       7366       7476       7477       7488       7487  
      7356       7357       7368       7367       7477       7478       7489       7488  
      7357       7358       7369       7368       7478       7479       7490       7489  
      7358       7359       7370       7369       7479       7480       7491       7490  
      7360       7361       7372       7371       7481       7482       7493       7492  
      7361       7362       7373       7372       7482       7483       7494       7493  
      7362       7363       7374       7373       7483       7484       7495       7494  
      7363       7364       7375       7374       7484       7485       7496       7495  
      7364       7365       7376       7375       7485       7486       7497       7496  
      7365       7366       7377       7376       7486       7487       7498       7497  
      7366       7367       7378       7377       7487       7488       7499       7498  
      7367       7368       7379       7378       7488       7489       7500       7499  
      7368       7369       7380       7379       7489       7490       7501       7500  
      7369       7370       7381       7380       7490       7491       7502       7501  
      7382       7383       7394       7393       7503       7504       7515       7514  
      7383       7384       7395       7394       7504       7505       7516       7515  
      7384       7385       7396       7395       7505       7506       7517       7516  
      7385       7386       7397       7396       7506       7507       7518       7517  
      7386       7387       7398       7397       7507       7508       7519       7518  
      7387       7388       7399       7398       7508       7509       7520       7519  
      7388       7389       7400       7399       7509       7510       7521       7520  
      7389       7390       7401       7400       7510       7511       7522       7521  
      7390       7391       7402       7401       7511       7512       7523       7522  
      7391       7392       7403       7402       7512       7513       7524       7523  
      7393       7394       7405       7404       7514       7515       7526       7525  
      7394       7395       7406       7405       7515       7516       7527       7526  
      7395       7396       7407       7406       7516       7517       7528       7527  
      7396       7397       7408       7407       7517       7518       7529       7528  
      7397       7398       7409       7408       7518       7519       7530       7529  
      7398       7399       7410       7409       7519       7520       7531       7530  
      7399       7400       7411       7410       7520       7521       7532       7531  
      7400       7401       7412       7411       7521       7522       7533       7532  
      7401       7402       7413       7412       7522       7523       7534       7533  
      7402       7403       7414       7413       7523       7524       7535       7534  
      7404       7405       7416       7415       7525       7526       7537       7536  
      7405       7406       7417       7416       7526       7527       7538       7537  
      7406       7407       7418       7417       7527       7528       7539       7538  
      7407       7408       7419       7418       7528       7529       7540       7539  
      7408       7409       7420       7419       7529       7530       7541       7540  
      7409       7410       7421       7420       7530       7531       7542       7541  
      7410       7411       7422       7421       7531       7532       7543       7542  
      7411       7412       7423       7422       7532       7533       7544       7543  
      7412       7413       7424       7423       7533       7534       7545       7544  
      7413       7414       7425       7424       7534       7535       7546       7545  
      7415       7416       7427       7426       7536       7537       7548       7547  
      7416       7417       7428       7427       7537       7538       7549       7548  
      7417       7418       7429       7428       7538       7539       7550       7549  
      7418       7419       7430       7429       7539       7540       7551       7550  
      7419       7420       7431       7430       7540       7541       7552       7551  
      7420       7421       7432       7431       7541       7542       7553       7552  
      7421       7422       7433       7432       7542       7543       7554       7553  
      7422       7423       7434       7433       7543       7544       7555       7554  
      7423       7424       7435       7434       7544       7545       7556       7555  
      7424       7425       7436       7435       7545       7546       7557       7556  
      7426       7427       7438       7437       7547       7548       7559       7558  
      7427       7428       7439       7438       7548       7549       7560       7559  
      7428       7429       7440       7439       7549       7550       7561       7560  
      7429       7430       7441       7440       7550       7551       7562       7561  
      7430       7431       7442       7441       7551       7552       7563       7562  
      7431       7432       7443       7442       7552       7553       7564       7563  
      7432       7433       7444       7443       7553       7554       7565       7564  
      7433       7434       7445       7444       7554       7555       7566       7565  
      7434       7435       7446       7445       7555       7556       7567       7566  
      7435       7436       7447       7446       7556       7557       7568       7567  
      7437       7438       7449       7448       7558       7559       7570       7569  
      7438       7439       7450       7449       7559       7560       7571       7570  
      7439       7440       7451       7450       7560       7561       7572       7571  
      7440       7441       7452       7451       7561       7562       7573       7572  
      7441       7442       7453       7452       7562       7563       7574       7573  
      7442       7443       7454       7453       7563       7564       7575       7574  
      7443       7444       7455       7454       7564       7565       7576       7575  
      7444       7445       7456       7455       7565       7566       7577       7576  
      7445       7446       7457       7456       7566       7567       7578       7577  
      7446       7447       7458       7457       7567       7568       7579       7578  
      7448       7449       7460       7459       7569       7570       7581       7580  
      7449       7450       7461       7460       7570       7571       7582       7581  
      7450       7451       7462       7461       7571       7572       7583       7582  
      7451       7452       7463       7462       7572       7573       7584       7583  
      7452       7453       7464       7463       7573       7574       7585       7584  
      7453       7454       7465       7464       7574       7575       7586       7585  
      7454       7455       7466       7465       7575       7576       7587       7586  
      7455       7456       7467       7466       7576       7577       7588       7587  
      7456       7457       7468       7467       7577       7578       7589       7588  
      7457       7458       7469       7468       7578       7579       7590       7589  
      7459       7460       7471       7470       7580       7581       7592       7591  
      7460       7461       7472       7471       7581       7582       7593       7592  
      7461       7462       7473       7472       7582       7583       7594       7593  
      7462       7463       7474       7473       7583       7584       7595       7594  
      7463       7464       7475       7474       7584       7585       7596       7595  
      7464       7465       7476       7475       7585       7586       7597       7596  
      7465       7466       7477       7476       7586       7587       7598       7597  
      7466       7467       7478       7477       7587       7588       7599       7598  
      7467       7468       7479       7478       7588       7589       7600       7599  
      7468       7469       7480       7479       7589       7590       7601       7600  
      7470       7471       7482       7481       7591       7592       7603       7602  
      7471       7472       7483       7482       7592       7593       7604       7603  
      7472       7473       7484       7483       7593       7594       7605       7604  
      7473       7474       7485       7484       7594       7595       7606       7605  
      7474       7475       7486       7485       7595       7596       7607       7606  
      7475       7476       7487       7486       7596       7597       7608       7607  
      7476       7477       7488       7487       7597       7598       7609       7608  
      7477       7478       7489       7488       7598       7599       7610       7609  
      7478       7479       7490       7489       7599       7600       7611       7610  
      7479       7480       7491       7490       7600       7601       7612       7611  
      7481       7482       7493       7492       7602       7603       7614       7613  
      7482       7483       7494       7493       7603       7604       7615       7614  
      7483       7484       7495       7494       7604       7605       7616       7615  
      7484       7485       7496       7495       7605       7606       7617       7616  
      7485       7486       7497       7496       7606       7607       7618       7617  
      7486       7487       7498       7497       7607       7608       7619       7618  
      7487       7488       7499       7498       7608       7609       7620       7619  
      7488       7489       7500       7499       7609       7610       7621       7620  
      7489       7490       7501       7500       7610       7611       7622       7621  
      7490       7491       7502       7501       7611       7612       7623       7622  
      7503       7504       7515       7514       7624       7625       7636       7635  
      7504       7505       7516       7515       7625       7626       7637       7636  
      7505       7506       7517       7516       7626       7627       7638       7637  
      7506       7507       7518       7517       7627       7628       7639       7638  
      7507       7508       7519       7518       7628       7629       7640       7639  
      7508       7509       7520       7519       7629       7630       7641       7640  
      7509       7510       7521       7520       7630       7631       7642       7641  
      7510       7511       7522       7521       7631       7632       7643       7642  
      7511       7512       7523       7522       7632       7633       7644       7643  
      7512       7513       7524       7523       7633       7634       7645       7644  
      7514       7515       7526       7525       7635       7636       7647       7646  
      7515       7516       7527       7526       7636       7637       7648       7647  
      7516       7517       7528       7527       7637       7638       7649       7648  
      7517       7518       7529       7528       7638       7639       7650       7649  
      7518       7519       7530       7529       7639       7640       7651       7650  
      7519       7520       7531       7530       7640       7641       7652       7651  
      7520       7521       7532       7531       7641       7642       7653       7652  
      7521       7522       7533       7532       7642       7643       7654       7653  
      7522       7523       7534       7533       7643       7644       7655       7654  
      7523       7524       7535       7534       7644       7645       7656       7655  
      7525       7526       7537       7536       7646       7647       7658       7657  
      7526       7527       7538       7537       7647       7648       7659       7658  
      7527       7528       7539       7538       7648       7649       7660       7659  
      7528       7529       7540       7539       7649       7650       7661       7660  
      7529       7530       7541       7540       7650       7651       7662       7661  
      7530       7531       7542       7541       7651       7652       7663       7662  
      7531       7532       7543       7542       7652       7653       7664       7663  
      7532       7533       7544       7543       7653       7654       7665       7664  
      7533       7534       7545       7544       7654       7655       7666       7665  
      7534       7535       7546       7545       7655       7656       7667       7666  
      7536       7537       7548       7547       7657       7658       7669       7668  
      7537       7538       7549       7548       7658       7659       7670       7669  
      7538       7539       7550       7549       7659       7660       7671       7670  
      7539       7540       7551       7550       7660       7661       7672       7671  
      7540       7541       7552       7551       7661       7662       7673       7672  
      7541       7542       7553       7552       7662       7663       7674       7673  
      7542       7543       7554       7553       7663       7664       7675       7674  
      7543       7544       7555       7554       7664       7665       7676       7675  
      7544       7545       7556       7555       7665       7666       7677       7676  
      7545       7546       7557       7556       7666       7667       7678       7677  
      7547       7548       7559       7558       7668       7669       7680       7679  
      7548       7549       7560       7559       7669       7670       7681       7680  
      7549       7550       7561       7560       7670       7671       7682       7681  
      7550       7551       7562       7561       7671       7672       7683       7682  
      7551       7552       7563       7562       7672       7673       7684       7683  
      7552       7553       7564       7563       7673       7674       7685       7684  
      7553       7554       7565       7564       7674       7675       7686       7685  
      7554       7555       7566       7565       7675       7676       7687       7686  
      7555       7556       7567       7566       7676       7677       7688       7687  
      7556       7557       7568       7567       7677       7678       7689       7688  
      7558       7559       7570       7569       7679       7680       7691       7690  
      7559       7560       7571       7570       7680       7681       7692       7691  
      7560       7561       7572       7571       7681       7682       7693       7692  
      7561       7562       7573       7572       7682       7683       7694       7693  
      7562       7563       7574       7573       7683       7684       7695       7694  
      7563       7564       7575       7574       7684       7685       7696       7695  
      7564       7565       7576       7575       7685       7686       7697       7696  
      7565       7566       7577       7576       7686       7687       7698       7697  
      7566       7567       7578       7577       7687       7688       7699       7698  
      7567       7568       7579       7578       7688       7689       7700       7699  
      7569       7570       7581       7580       7690       7691       7702       7701  
      7570       7571       7582       7581       7691       7692       7703       7702  
      7571       7572       7583       7582       7692       7693       7704       7703  
      7572       7573       7584       7583       7693       7694       7705       7704  
      7573       7574       7585       7584       7694       7695       7706       7705  
      7574       7575       7586       7585       7695       7696       7707       7706  
      7575       7576       7587       7586       7696       7697       7708       7707  
      7576       7577       7588       7587       7697       7698       7709       7708  
      7577       7578       7589       7588       7698       7699       7710       7709  
      7578       7579       7590       7589       7699       7700       7711       7710  
      7580       7581       7592       7591       7701       7702       7713       7712  
      7581       7582       7593       7592       7702       7703       7714       7713  
      7582       7583       7594       7593       7703       7704       7715       7714  
      7583       7584       7595       7594       7704       7705       7716       7715  
      7584       7585       7596       7595       7705       7706       7717       7716  
      7585       7586       7597       7596       7706       7707       7718       7717  
      7586       7587       7598       7597       7707       7708       7719       7718  
      7587       7588       7599       7598       7708       7709       7720       7719  
      7588       7589       7600       7599       7709       7710       7721       7720  
      7589       7590       7601       7600       7710       7711       7722       7721  
      7591       7592       7603       7602       7712       7713       7724       7723  
      7592       7593       7604       7603       7713       7714       7725       7724  
      7593       7594       7605       7604       7714       7715       7726       7725  
      7594       7595       7606       7605       7715       7716       7727       7726  
      7595       7596       7607       7606       7716       7717       7728       7727  
      7596       7597       7608       7607       7717       7718       7729       7728  
      7597       7598       7609       7608       7718       7719       7730       7729  
      7598       7599       7610       7609       7719       7720       7731       7730  
      7599       7600       7611       7610       7720       7721       7732       7731  
      7600       7601       7612       7611       7721       7722       7733       7732  
      7602       7603       7614       7613       7723       7724       7735       7734  
      7603       7604       7615       7614       7724       7725       7736       7735  
      7604       7605       7616       7615       7725       7726       7737       7736  
      7605       7606       7617       7616       7726       7727       7738       7737  
      7606       7607       7618       7617       7727       7728       7739       7738  
      7607       7608       7619       7618       7728       7729       7740       7739  
      7608       7609       7620       7619       7729       7730       7741       7740  
      7609       7610       7621       7620       7730       7731       7742       7741  
      7610       7611       7622       7621       7731       7732       7743       7742  
      7611       7612       7623       7622       7732       7733       7744       7743  
      7624       7625       7636       7635       7745       7746       7757       7756  
      7625       7626       7637       7636       7746       7747       7758       7757  
      7626       7627       7638       7637       7747       7748       7759       7758  
      7627       7628       7639       7638       7748       7749       7760       7759  
      7628       7629       7640       7639       7749       7750       7761       7760  
      7629       7630       7641       7640       7750       7751       7762       7761  
      7630       7631       7642       7641       7751       7752       7763       7762  
      7631       7632       7643       7642       7752       7753       7764       7763  
      7632       7633       7644       7643       7753       7754       7765       7764  
      7633       7634       7645       7644       7754       7755       7766       7765  
      7635       7636       7647       7646       7756       7757       7768       7767  
      7636       7637       7648       7647       7757       7758       7769       7768  
      7637       7638       7649       7648       7758       7759       7770       7769  
      7638       7639       7650       7649       7759       7760       7771       7770  
      7639       7640       7651       7650       7760       7761       7772       7771  
      7640       7641       7652       7651       7761       7762       7773       7772  
      7641       7642       7653       7652       7762       7763       7774       7773  
      7642       7643       7654       7653       7763       7764       7775       7774  
      7643       7644       7655       7654       7764       7765       7776       7775  
      7644       7645       7656       7655       7765       7766       7777       7776  
      7646       7647       7658       7657       7767       7768       7779       7778  
      7647       7648       7659       7658       7768       7769       7780       7779  
      7648       7649       7660       7659       7769       7770       7781       7780  
      7649       7650       7661       7660       7770       7771       7782       7781  
      7650       7651       7662       7661       7771       7772       7783       7782  
      7651       7652       7663       7662       7772       7773       7784       7783  
      7652       7653       7664       7663       7773       7774       7785       7784  
      7653       7654       7665       7664       7774       7775       7786       7785  
      7654       7655       7666       7665       7775       7776       7787       7786  
      7655       7656       7667       7666       7776       7777       7788       7787  
      7657       7658       7669       7668       7778       7779       7790       7789  
      7658       7659       7670       7669       7779       7780       7791       7790  
      7659       7660       7671       7670       7780       7781       7792       7791  
      7660       7661       7672       7671       7781       7782       7793       7792  
      7661       7662       7673       7672       7782       7783       7794       7793  
      7662       7663       7674       7673       7783       7784       7795       7794  
      7663       7664       7675       7674       7784       7785       7796       7795  
      7664       7665       7676       7675       7785       7786       7797       7796  
      7665       7666       7677       7676       7786       7787       7798       7797  
      7666       7667       7678       7677       7787       7788       7799       7798  
      7668       7669       7680       7679       7789       7790       7801       7800  
      7669       7670       7681       7680       7790       7791       7802       7801  
      7670       7671       7682       7681       7791       7792       7803       7802  
      7671       7672       7683       7682       7792       7793       7804       7803  
      7672       7673       7684       7683       7793       7794       7805       7804  
      7673       7674       7685       7684       7794       7795       7806       7805  
      7674       7675       7686       7685       7795       7796       7807       7806  
      7675       7676       7687       7686       7796       7797       7808       7807  
      7676       7677       7688       7687       7797       7798       7809       7808  
      7677       7678       7689       7688       7798       7799       7810       7809  
      7679       7680       7691       7690       7800       7801       7812       7811  
      7680       7681       7692       7691       7801       7802       7813       7812  
      7681       7682       7693       7692       7802       7803       7814       7813  
      7682       7683       7694       7693       7803       7804       7815       7814  
      7683       7684       7695       7694       7804       7805       7816       7815  
      7684       7685       7696       7695       7805       7806       7817       7816  
      7685       7686       7697       7696       7806       7807       7818       7817  
      7686       7687       7698       7697       7807       7808       7819       7818  
      7687       7688       7699       7698       7808       7809       7820       7819  
      7688       7689       7700       7699       7809       7810       7821       7820  
      7690       7691       7702       7701       7811       7812       7823       7822  
      7691       7692       7703       7702       7812       7813       7824       7823  
      7692       7693       7704       7703       7813       7814       7825       7824  
      7693       7694       7705       7704       7814       7815       7826       7825  
      7694       7695       7706       7705       7815       7816       7827       7826  
      7695       7696       7707       7706       7816       7817       7828       7827  
      7696       7697       7708       7707       7817       7818       7829       7828  
      7697       7698       7709       7708       7818       7819       7830       7829  
      7698       7699       7710       7709       7819       7820       7831       7830  
      7699       7700       7711       7710       7820       7821       7832       7831  
      7701       7702       7713       7712       7822       7823       7834       7833  
      7702       7703       7714       7713       7823       7824       7835       7834  
      7703       7704       7715       7714       7824       7825       7836       7835  
      7704       7705       7716       7715       7825       7826       7837       7836  
      7705       7706       7717       7716       7826       7827       7838       7837  
      7706       7707       7718       7717       7827       7828       7839       7838  
      7707       7708       7719       7718       7828       7829       7840       7839  
      7708       7709       7720       7719       7829       7830       7841       7840  
      7709       7710       7721       7720       7830       7831       7842       7841  
      7710       7711       7722       7721       7831       7832       7843       7842  
      7712       7713       7724       7723       7833       7834       7845       7844  
      7713       7714       7725       7724       7834       7835       7846       7845  
      7714       7715       7726       7725       7835       7836       7847       7846  
      7715       7716       7727       7726       7836       7837       7848       7847  
      7716       7717       7728       7727       7837       7838       7849       7848  
      7717       7718       7729       7728       7838       7839       7850       7849  
      7718       7719       7730       7729       7839       7840       7851       7850  
      7719       7720       7731       7730       7840       7841       7852       7851  
      7720       7721       7732       7731       7841       7842       7853       7852  
      7721       7722       7733       7732       7842       7843       7854       7853  
      7723       7724       7735       7734       7844       7845       7856       7855  
      7724       7725       7736       7735       7845       7846       7857       7856  
      7725       7726       7737       7736       7846       7847       7858       7857  
      7726       7727       7738       7737       7847       7848       7859       7858  
      7727       7728       7739       7738       7848       7849       7860       7859  
      7728       7729       7740       7739       7849       7850       7861       7860  
      7729       7730       7741       7740       7850       7851       7862       7861  
      7730       7731       7742       7741       7851       7852       7863       7862  
      7731       7732       7743       7742       7852       7853       7864       7863  
      7732       7733       7744       7743       7853       7854       7865       7864  
      7745       7746       7757       7756       7866       7867       7878       7877  
      7746       7747       7758       7757       7867       7868       7879       7878  
      7747       7748       7759       7758       7868       7869       7880       7879  
      7748       7749       7760       7759       7869       7870       7881       7880  
      7749       7750       7761       7760       7870       7871       7882       7881  
      7750       7751       7762       7761       7871       7872       7883       7882  
      7751       7752       7763       7762       7872       7873       7884       7883  
      7752       7753       7764       7763       7873       7874       7885       7884  
      7753       7754       7765       7764       7874       7875       7886       7885  
      7754       7755       7766       7765       7875       7876       7887       7886  
      7756       7757       7768       7767       7877       7878       7889       7888  
      7757       7758       7769       7768       7878       7879       7890       7889  
      7758       7759       7770       7769       7879       7880       7891       7890  
      7759       7760       7771       7770       7880       7881       7892       7891  
      7760       7761       7772       7771       7881       7882       7893       7892  
      7761       7762       7773       7772       7882       7883       7894       7893  
      7762       7763       7774       7773       7883       7884       7895       7894  
      7763       7764       7775       7774       7884       7885       7896       7895  
      7764       7765       7776       7775       7885       7886       7897       7896  
      7765       7766       7777       7776       7886       7887       7898       7897  
      7767       7768       7779       7778       7888       7889       7900       7899  
      7768       7769       7780       7779       7889       7890       7901       7900  
      7769       7770       7781       7780       7890       7891       7902       7901  
      7770       7771       7782       7781       7891       7892       7903       7902  
      7771       7772       7783       7782       7892       7893       7904       7903  
      7772       7773       7784       7783       7893       7894       7905       7904  
      7773       7774       7785       7784       7894       7895       7906       7905  
      7774       7775       7786       7785       7895       7896       7907       7906  
      7775       7776       7787       7786       7896       7897       7908       7907  
      7776       7777       7788       7787       7897       7898       7909       7908  
      7778       7779       7790       7789       7899       7900       7911       7910  
      7779       7780       7791       7790       7900       7901       7912       7911  
      7780       7781       7792       7791       7901       7902       7913       7912  
      7781       7782       7793       7792       7902       7903       7914       7913  
      7782       7783       7794       7793       7903       7904       7915       7914  
      7783       7784       7795       7794       7904       7905       7916       7915  
      7784       7785       7796       7795       7905       7906       7917       7916  
      7785       7786       7797       7796       7906       7907       7918       7917  
      7786       7787       7798       7797       7907       7908       7919       7918  
      7787       7788       7799       7798       7908       7909       7920       7919  
      7789       7790       7801       7800       7910       7911       7922       7921  
      7790       7791       7802       7801       7911       7912       7923       7922  
      7791       7792       7803       7802       7912       7913       7924       7923  
      7792       7793       7804       7803       7913       7914       7925       7924  
      7793       7794       7805       7804       7914       7915       7926       7925  
      7794       7795       7806       7805       7915       7916       7927       7926  
      7795       7796       7807       7806       7916       7917       7928       7927  
      7796       7797       7808       7807       7917       7918       7929       7928  
      7797       7798       7809       7808       7918       7919       7930       7929  
      7798       7799       7810       7809       7919       7920       7931       7930  
      7800       7801       7812       7811       7921       7922       7933       7932  
      7801       7802       7813       7812       7922       7923       7934       7933  
      7802       7803       7814       7813       7923       7924       7935       7934  
      7803       7804       7815       7814       7924       7925       7936       7935  
      7804       7805       7816       7815       7925       7926       7937       7936  
      7805       7806       7817       7816       7926       7927       7938       7937  
      7806       7807       7818       7817       7927       7928       7939       7938  
      7807       7808       7819       7818       7928       7929       7940       7939  
      7808       7809       7820       7819       7929       7930       7941       7940  
      7809       7810       7821       7820       7930       7931       7942       7941  
      7811       7812       7823       7822       7932       7933       7944       7943  
      7812       7813       7824       7823       7933       7934       7945       7944  
      7813       7814       7825       7824       7934       7935       7946       7945  
      7814       7815       7826       7825       7935       7936       7947       7946  
      7815       7816       7827       7826       7936       7937       7948       7947  
      7816       7817       7828       7827       7937       7938       7949       7948  
      7817       7818       7829       7828       7938       7939       7950       7949  
      7818       7819       7830       7829       7939       7940       7951       7950  
      7819       7820       7831       7830       7940       7941       7952       7951  
      7820       7821       7832       7831       7941       7942       7953       7952  
      7822       7823       7834       7833       7943       7944       7955       7954  
      7823       7824       7835       7834       7944       7945       7956       7955  
      7824       7825       7836       7835       7945       7946       7957       7956  
      7825       7826       7837       7836       7946       7947       7958       7957  
      7826       7827       7838       7837       7947       7948       7959       7958  
      7827       7828       7839       7838       7948       7949       7960       7959  
      7828       7829       7840       7839       7949       7950       7961       7960  
      7829       7830       7841       7840       7950       7951       7962       7961  
      7830       7831       7842       7841       7951       7952       7963       7962  
      7831       7832       7843       7842       7952       7953       7964       7963  
      7833       7834       7845       7844       7954       7955       7966       7965  
      7834       7835       7846       7845       7955       7956       7967       7966  
      7835       7836       7847       7846       7956       7957       7968       7967  
      7836       7837       7848       7847       7957       7958       7969       7968  
      7837       7838       7849       7848       7958       7959       7970       7969  
      7838       7839       7850       7849       7959       7960       7971       7970  
      7839       7840       7851       7850       7960       7961       7972       7971  
      7840       7841       7852       7851       7961       7962       7973       7972  
      7841       7842       7853       7852       7962       7963       7974       7973  
      7842       7843       7854       7853       7963       7964       7975       7974  
      7844       7845       7856       7855       7965       7966       7977       7976  
      7845       7846       7857       7856       7966       7967       7978       7977  
      7846       7847       7858       7857       7967       7968       7979       7978  
      7847       7848       7859       7858       7968       7969       7980       7979  
      7848       7849       7860       7859       7969       7970       7981       7980  
      7849       7850       7861       7860       7970       7971       7982       7981  
      7850       7851       7862       7861       7971       7972       7983       7982  
      7851       7852       7863       7862       7972       7973       7984       7983  
      7852       7853       7864       7863       7973       7974       7985       7984  
      7853       7854       7865       7864       7974       7975       7986       7985  
      7866       7867       7878       7877       7987       7988       7999       7998  
      7867       7868       7879       7878       7988       7989       8000       7999  
      7868       7869       7880       7879       7989       7990       8001       8000  
      7869       7870       7881       7880       7990       7991       8002       8001  
      7870       7871       7882       7881       7991       7992       8003       8002  
      7871       7872       7883       7882       7992       7993       8004       8003  
      7872       7873       7884       7883       7993       7994       8005       8004  
      7873       7874       7885       7884       7994       7995       8006       8005  
      7874       7875       7886       7885       7995       7996       8007       8006  
      7875       7876       7887       7886       7996       7997       8008       8007  
      7877       7878       7889       7888       7998       7999       8010       8009  
      7878       7879       7890       7889       7999       8000       8011       8010  
      7879       7880       7891       7890       8000       8001       8012       8011  
      7880       7881       7892       7891       8001       8002       8013       8012  
      7881       7882       7893       7892       8002       8003       8014       8013  
      7882       7883       7894       7893       8003       8004       8015       8014  
      7883       7884       7895       7894       8004       8005       8016       8015  
      7884       7885       7896       7895       8005       8006       8017       8016  
      7885       7886       7897       7896       8006       8007       8018       8017  
      7886       7887       7898       7897       8007       8008       8019       8018  
      7888       7889       7900       7899       8009       8010       8021       8020  
      7889       7890       7901       7900       8010       8011       8022       8021  
      7890       7891       7902       7901       8011       8012       8023       8022  
      7891       7892       7903       7902       8012       8013       8024       8023  
      7892       7893       7904       7903       8013       8014       8025       8024  
      7893       7894       7905       7904       8014       8015       8026       8025  
      7894       7895       7906       7905       8015       8016       8027       8026  
      7895       7896       7907       7906       8016       8017       8028       8027  
      7896       7897       7908       7907       8017       8018       8029       8028  
      7897       7898       7909       7908       8018       8019       8030       8029  
      7899       7900       7911       7910       8020       8021       8032       8031  
      7900       7901       7912       7911       8021       8022       8033       8032  
      7901       7902       7913       7912       8022       8023       8034       8033  
      7902       7903       7914       7913       8023       8024       8035       8034  
      7903       7904       7915       7914       8024       8025       8036       8035  
      7904       7905       7916       7915       8025       8026       8037       8036  
      7905       7906       7917       7916       8026       8027       8038       8037  
      7906       7907       7918       7917       8027       8028       8039       8038  
      7907       7908       7919       7918       8028       8029       8040       8039  
      7908       7909       7920       7919       8029       8030       8041       8040  
      7910       7911       7922       7921       8031       8032       8043       8042  
      7911       7912       7923       7922       8032       8033       8044       8043  
      7912       7913       7924       7923       8033       8034       8045       8044  
      7913       7914       7925       7924       8034       8035       8046       8045  
      7914       7915       7926       7925       8035       8036       8047       8046  
      7915       7916       7927       7926       8036       8037       8048       8047  
      7916       7917       7928       7927       8037       8038       8049       8048  
      7917       7918       7929       7928       8038       8039       8050       8049  
      7918       7919       7930       7929       8039       8040       8051       8050  
      7919       7920       7931       7930       8040       8041       8052       8051  
      7921       7922       7933       7932       8042       8043       8054       8053  
      7922       7923       7934       7933       8043       8044       8055       8054  
      7923       7924       7935       7934       8044       8045       8056       8055  
      7924       7925       7936       7935       8045       8046       8057       8056  
      7925       7926       7937       7936       8046       8047       8058       8057  
      7926       7927       7938       7937       8047       8048       8059       8058  
      7927       7928       7939       7938       8048       8049       8060       8059  
      7928       7929       7940       7939       8049       8050       8061       8060  
      7929       7930       7941       7940       8050       8051       8062       8061  
      7930       7931       7942       7941       8051       8052       8063       8062  
      7932       7933       7944       7943       8053       8054       8065       8064  
      7933       7934       7945       7944       8054       8055       8066       8065  
      7934       7935       7946       7945       8055       8056       8067       8066  
      7935       7936       7947       7946       8056       8057       8068       8067  
      7936       7937       7948       7947       8057       8058       8069       8068  
      7937       7938       7949       7948       8058       8059       8070       8069  
      7938       7939       7950       7949       8059       8060       8071       8070  
      7939       7940       7951       7950       8060       8061       8072       8071  
      7940       7941       7952       7951       8061       8062       8073       8072  
      7941       7942       7953       7952       8062       8063       8074       8073  
      7943       7944       7955       7954       8064       8065       8076       8075  
      7944       7945       7956       7955       8065       8066       8077       8076  
      7945       7946       7957       7956       8066       8067       8078       8077  
      7946       7947       7958       7957       8067       8068       8079       8078  
      7947       7948       7959       7958       8068       8069       8080       8079  
      7948       7949       7960       7959       8069       8070       8081       8080  
      7949       7950       7961       7960       8070       8071       8082       8081  
      7950       7951       7962       7961       8071       8072       8083       8082  
      7951       7952       7963       7962       8072       8073       8084       8083  
      7952       7953       7964       7963       8073       8074       8085       8084  
      7954       7955       7966       7965       8075       8076       8087       8086  
      7955       7956       7967       7966       8076       8077       8088       8087  
      7956       7957       7968       7967       8077       8078       8089       8088  
      7957       7958       7969       7968       8078       8079       8090       8089  
      7958       7959       7970       7969       8079       8080       8091       8090  
      7959       7960       7971       7970       8080       8081       8092       8091  
      7960       7961       7972       7971       8081       8082       8093       8092  
      7961       7962       7973       7972       8082       8083       8094       8093  
      7962       7963       7974       7973       8083       8084       8095       8094  
      7963       7964       7975       7974       8084       8085       8096       8095  
      7965       7966       7977       7976       8086       8087       8098       8097  
      7966       7967       7978       7977       8087       8088       8099       8098  
      7967       7968       7979       7978       8088       8089       8100       8099  
      7968       7969       7980       7979       8089       8090       8101       8100  
      7969       7970       7981       7980       8090       8091       8102       8101  
      7970       7971       7982       7981       8091       8092       8103       8102  
      7971       7972       7983       7982       8092       8093       8104       8103  
      7972       7973       7984       7983       8093       8094       8105       8104  
      7973       7974       7985       7984       8094       8095       8106       8105  
      7974       7975       7986       7985       8095       8096       8107       8106  
      7987       7988       7999       7998       8108       8109       8120       8119  
      7988       7989       8000       7999       8109       8110       8121       8120  
      7989       7990       8001       8000       8110       8111       8122       8121  
      7990       7991       8002       8001       8111       8112       8123       8122  
      7991       7992       8003       8002       8112       8113       8124       8123  
      7992       7993       8004       8003       8113       8114       8125       8124  
      7993       7994       8005       8004       8114       8115       8126       8125  
      7994       7995       8006       8005       8115       8116       8127       8126  
      7995       7996       8007       8006       8116       8117       8128       8127  
      7996       7997       8008       8007       8117       8118       8129       8128  
      7998       7999       8010       8009       8119       8120       8131       8130  
      7999       8000       8011       8010       8120       8121       8132       8131  
      8000       8001       8012       8011       8121       8122       8133       8132  
      8001       8002       8013       8012       8122       8123       8134       8133  
      8002       8003       8014       8013       8123       8124       8135       8134  
      8003       8004       8015       8014       8124       8125       8136       8135  
      8004       8005       8016       8015       8125       8126       8137       8136  
      8005       8006       8017       8016       8126       8127       8138       8137  
      8006       8007       8018       8017       8127       8128       8139       8138  
      8007       8008       8019       8018       8128       8129       8140       8139  
      8009       8010       8021       8020       8130       8131       8142       8141  
      8010       8011       8022       8021       8131       8132       8143       8142  
      8011       8012       8023       8022       8132       8133       8144       8143  
      8012       8013       8024       8023       8133       8134       8145       8144  
      8013       8014       8025       8024       8134       8135       8146       8145  
      8014       8015       8026       8025       8135       8136       8147       8146  
      8015       8016       8027       8026       8136       8137       8148       8147  
      8016       8017       8028       8027       8137       8138       8149       8148  
      8017       8018       8029       8028       8138       8139       8150       8149  
      8018       8019       8030       8029       8139       8140       8151       8150  
      8020       8021       8032       8031       8141       8142       8153       8152  
      8021       8022       8033       8032       8142       8143       8154       8153  
      8022       8023       8034       8033       8143       8144       8155       8154  
      8023       8024       8035       8034       8144       8145       8156       8155  
      8024       8025       8036       8035       8145       8146       8157       8156  
      8025       8026       8037       8036       8146       8147       8158       8157  
      8026       8027       8038       8037       8147       8148       8159       8158  
      8027       8028       8039       8038       8148       8149       8160       8159  
      8028       8029       8040       8039       8149       8150       8161       8160  
      8029       8030       8041       8040       8150       8151       8162       8161  
      8031       8032       8043       8042       8152       8153       8164       8163  
      8032       8033       8044       8043       8153       8154       8165       8164  
      8033       8034       8045       8044       8154       8155       8166       8165  
      8034       8035       8046       8045       8155       8156       8167       8166  
      8035       8036       8047       8046       8156       8157       8168       8167  
      8036       8037       8048       8047       8157       8158       8169       8168  
      8037       8038       8049       8048       8158       8159       8170       8169  
      8038       8039       8050       8049       8159       8160       8171       8170  
      8039       8040       8051       8050       8160       8161       8172       8171  
      8040       8041       8052       8051       8161       8162       8173       8172  
      8042       8043       8054       8053       8163       8164       8175       8174  
      8043       8044       8055       8054       8164       8165       8176       8175  
      8044       8045       8056       8055       8165       8166       8177       8176  
      8045       8046       8057       8056       8166       8167       8178       8177  
      8046       8047       8058       8057       8167       8168       8179       8178  
      8047       8048       8059       8058       8168       8169       8180       8179  
      8048       8049       8060       8059       8169       8170       8181       8180  
      8049       8050       8061       8060       8170       8171       8182       8181  
      8050       8051       8062       8061       8171       8172       8183       8182  
      8051       8052       8063       8062       8172       8173       8184       8183  
      8053       8054       8065       8064       8174       8175       8186       8185  
      8054       8055       8066       8065       8175       8176       8187       8186  
      8055       8056       8067       8066       8176       8177       8188       8187  
      8056       8057       8068       8067       8177       8178       8189       8188  
      8057       8058       8069       8068       8178       8179       8190       8189  
      8058       8059       8070       8069       8179       8180       8191       8190  
      8059       8060       8071       8070       8180       8181       8192       8191  
      8060       8061       8072       8071       8181       8182       8193       8192  
      8061       8062       8073       8072       8182       8183       8194       8193  
      8062       8063       8074       8073       8183       8184       8195       8194  
      8064       8065       8076       8075       8185       8186       8197       8196  
      8065       8066       8077       8076       8186       8187       8198       8197  
      8066       8067       8078       8077       8187       8188       8199       8198  
      8067       8068       8079       8078       8188       8189       8200       8199  
      8068       8069       8080       8079       8189       8190       8201       8200  
      8069       8070       8081       8080       8190       8191       8202       8201  
      8070       8071       8082       8081       8191       8192       8203       8202  
      8071       8072       8083       8082       8192       8193       8204       8203  
      8072       8073       8084       8083       8193       8194       8205       8204  
      8073       8074       8085       8084       8194       8195       8206       8205  
      8075       8076       8087       8086       8196       8197       8208       8207  
      8076       8077       8088       8087       8197       8198       8209       8208  
      8077       8078       8089       8088       8198       8199       8210       8209  
      8078       8079       8090       8089       8199       8200       8211       8210  
      8079       8080       8091       8090       8200       8201       8212       8211  
      8080       8081       8092       8091       8201       8202       8213       8212  
      8081       8082       8093       8092       8202       8203       8214       8213  
      8082       8083       8094       8093       8203       8204       8215       8214  
      8083       8084       8095       8094       8204       8205       8216       8215  
      8084       8085       8096       8095       8205       8206       8217       8216  
      8086       8087       8098       8097       8207       8208       8219       8218  
      8087       8088       8099       8098       8208       8209       8220       8219  
      8088       8089       8100       8099       8209       8210       8221       8220  
      8089       8090       8101       8100       8210       8211       8222       8221  
      8090       8091       8102       8101       8211       8212       8223       8222  
      8091       8092       8103       8102       8212       8213       8224       8223  
      8092       8093       8104       8103       8213       8214       8225       8224  
      8093       8094       8105       8104       8214       8215       8226       8225  
      8094       8095       8106       8105       8215       8216       8227       8226  
      8095       8096       8107       8106       8216       8217       8228       8227  
      8108       8109       8120       8119       8229       8230       8241       8240  
      8109       8110       8121       8120       8230       8231       8242       8241  
      8110       8111       8122       8121       8231       8232       8243       8242  
      8111       8112       8123       8122       8232       8233       8244       8243  
      8112       8113       8124       8123       8233       8234       8245       8244  
      8113       8114       8125       8124       8234       8235       8246       8245  
      8114       8115       8126       8125       8235       8236       8247       8246  
      8115       8116       8127       8126       8236       8237       8248       8247  
      8116       8117       8128       8127       8237       8238       8249       8248  
      8117       8118       8129       8128       8238       8239       8250       8249  
      8119       8120       8131       8130       8240       8241       8252       8251  
      8120       8121       8132       8131       8241       8242       8253       8252  
      8121       8122       8133       8132       8242       8243       8254       8253  
      8122       8123       8134       8133       8243       8244       8255       8254  
      8123       8124       8135       8134       8244       8245       8256       8255  
      8124       8125       8136       8135       8245       8246       8257       8256  
      8125       8126       8137       8136       8246       8247       8258       8257  
      8126       8127       8138       8137       8247       8248       8259       8258  
      8127       8128       8139       8138       8248       8249       8260       8259  
      8128       8129       8140       8139       8249       8250       8261       8260  
      8130       8131       8142       8141       8251       8252       8263       8262  
      8131       8132       8143       8142       8252       8253       8264       8263  
      8132       8133       8144       8143       8253       8254       8265       8264  
      8133       8134       8145       8144       8254       8255       8266       8265  
      8134       8135       8146       8145       8255       8256       8267       8266  
      8135       8136       8147       8146       8256       8257       8268       8267  
      8136       8137       8148       8147       8257       8258       8269       8268  
      8137       8138       8149       8148       8258       8259       8270       8269  
      8138       8139       8150       8149       8259       8260       8271       8270  
      8139       8140       8151       8150       8260       8261       8272       8271  
      8141       8142       8153       8152       8262       8263       8274       8273  
      8142       8143       8154       8153       8263       8264       8275       8274  
      8143       8144       8155       8154       8264       8265       8276       8275  
      8144       8145       8156       8155       8265       8266       8277       8276  
      8145       8146       8157       8156       8266       8267       8278       8277  
      8146       8147       8158       8157       8267       8268       8279       8278  
      8147       8148       8159       8158       8268       8269       8280       8279  
      8148       8149       8160       8159       8269       8270       8281       8280  
      8149       8150       8161       8160       8270       8271       8282       8281  
      8150       8151       8162       8161       8271       8272       8283       8282  
      8152       8153       8164       8163       8273       8274       8285       8284  
      8153       8154       8165       8164       8274       8275       8286       8285  
      8154       8155       8166       8165       8275       8276       8287       8286  
      8155       8156       8167       8166       8276       8277       8288       8287  
      8156       8157       8168       8167       8277       8278       8289       8288  
      8157       8158       8169       8168       8278       8279       8290       8289  
      8158       8159       8170       8169       8279       8280       8291       8290  
      8159       8160       8171       8170       8280       8281       8292       8291  
      8160       8161       8172       8171       8281       8282       8293       8292  
      8161       8162       8173       8172       8282       8283       8294       8293  
      8163       8164       8175       8174       8284       8285       8296       8295  
      8164       8165       8176       8175       8285       8286       8297       8296  
      8165       8166       8177       8176       8286       8287       8298       8297  
      8166       8167       8178       8177       8287       8288       8299       8298  
      8167       8168       8179       8178       8288       8289       8300       8299  
      8168       8169       8180       8179       8289       8290       8301       8300  
      8169       8170       8181       8180       8290       8291       8302       8301  
      8170       8171       8182       8181       8291       8292       8303       8302  
      8171       8172       8183       8182       8292       8293       8304       8303  
      8172       8173       8184       8183       8293       8294       8305       8304  
      8174       8175       8186       8185       8295       8296       8307       8306  
      8175       8176       8187       8186       8296       8297       8308       8307  
      8176       8177       8188       8187       8297       8298       8309       8308  
      8177       8178       8189       8188       8298       8299       8310       8309  
      8178       8179       8190       8189       8299       8300       8311       8310  
      8179       8180       8191       8190       8300       8301       8312       8311  
      8180       8181       8192       8191       8301       8302       8313       8312  
      8181       8182       8193       8192       8302       8303       8314       8313  
      8182       8183       8194       8193       8303       8304       8315       8314  
      8183       8184       8195       8194       8304       8305       8316       8315  
      8185       8186       8197       8196       8306       8307       8318       8317  
      8186       8187       8198       8197       8307       8308       8319       8318  
      8187       8188       8199       8198       8308       8309       8320       8319  
      8188       8189       8200       8199       8309       8310       8321       8320  
      8189       8190       8201       8200       8310       8311       8322       8321  
      8190       8191       8202       8201       8311       8312       8323       8322  
      8191       8192       8203       8202       8312       8313       8324       8323  
      8192       8193       8204       8203       8313       8314       8325       8324  
      8193       8194       8205       8204       8314       8315       8326       8325  
      8194       8195       8206       8205       8315       8316       8327       8326  
      8196       8197       8208       8207       8317       8318       8329       8328  
      8197       8198       8209       8208       8318       8319       8330       8329  
      8198       8199       8210       8209       8319       8320       8331       8330  
      8199       8200       8211       8210       8320       8321       8332       8331  
      8200       8201       8212       8211       8321       8322       8333       8332  
      8201       8202       8213       8212       8322       8323       8334       8333  
      8202       8203       8214       8213       8323       8324       8335       8334  
      8203       8204       8215       8214       8324       8325       8336       8335  
      8204       8205       8216       8215       8325       8326       8337       8336  
      8205       8206       8217       8216       8326       8327       8338       8337  
      8207       8208       8219       8218       8328       8329       8340       8339  
      8208       8209       8220       8219       8329       8330       8341       8340  
      8209       8210       8221       8220       8330       8331       8342       8341  
      8210       8211       8222       8221       8331       8332       8343       8342  
      8211       8212       8223       8222       8332       8333       8344       8343  
      8212       8213       8224       8223       8333       8334       8345       8344  
      8213       8214       8225       8224       8334       8335       8346       8345  
      8214       8215       8226       8225       8335       8336       8347       8346  
      8215       8216       8227       8226       8336       8337       8348       8347  
      8216       8217       8228       8227       8337       8338       8349       8348  
      8229       8230       8241       8240       8350       8351       8362       8361  
      8230       8231       8242       8241       8351       8352       8363       8362  
      8231       8232       8243       8242       8352       8353       8364       8363  
      8232       8233       8244       8243       8353       8354       8365       8364  
      8233       8234       8245       8244       8354       8355       8366       8365  
      8234       8235       8246       8245       8355       8356       8367       8366  
      8235       8236       8247       8246       8356       8357       8368       8367  
      8236       8237       8248       8247       8357       8358       8369       8368  
      8237       8238       8249       8248       8358       8359       8370       8369  
      8238       8239       8250       8249       8359       8360       8371       8370  
      8240       8241       8252       8251       8361       8362       8373       8372  
      8241       8242       8253       8252       8362       8363       8374       8373  
      8242       8243       8254       8253       8363       8364       8375       8374  
      8243       8244       8255       8254       8364       8365       8376       8375  
      8244       8245       8256       8255       8365       8366       8377       8376  
      8245       8246       8257       8256       8366       8367       8378       8377  
      8246       8247       8258       8257       8367       8368       8379       8378  
      8247       8248       8259       8258       8368       8369       8380       8379  
      8248       8249       8260       8259       8369       8370       8381       8380  
      8249       8250       8261       8260       8370       8371       8382       8381  
      8251       8252       8263       8262       8372       8373       8384       8383  
      8252       8253       8264       8263       8373       8374       8385       8384  
      8253       8254       8265       8264       8374       8375       8386       8385  
      8254       8255       8266       8265       8375       8376       8387       8386  
      8255       8256       8267       8266       8376       8377       8388       8387  
      8256       8257       8268       8267       8377       8378       8389       8388  
      8257       8258       8269       8268       8378       8379       8390       8389  
      8258       8259       8270       8269       8379       8380       8391       8390  
      8259       8260       8271       8270       8380       8381       8392       8391  
      8260       8261       8272       8271       8381       8382       8393       8392  
      8262       8263       8274       8273       8383       8384       8395       8394  
      8263       8264       8275       8274       8384       8385       8396       8395  
      8264       8265       8276       8275       8385       8386       8397       8396  
      8265       8266       8277       8276       8386       8387       8398       8397  
      8266       8267       8278       8277       8387       8388       8399       8398  
      8267       8268       8279       8278       8388       8389       8400       8399  
      8268       8269       8280       8279       8389       8390       8401       8400  
      8269       8270       8281       8280       8390       8391       8402       8401  
      8270       8271       8282       8281       8391       8392       8403       8402  
      8271       8272       8283       8282       8392       8393       8404       8403  
      8273       8274       8285       8284       8394       8395       8406       8405  
      8274       8275       8286       8285       8395       8396       8407       8406  
      8275       8276       8287       8286       8396       8397       8408       8407  
      8276       8277       8288       8287       8397       8398       8409       8408  
      8277       8278       8289       8288       8398       8399       8410       8409  
      8278       8279       8290       8289       8399       8400       8411       8410  
      8279       8280       8291       8290       8400       8401       8412       8411  
      8280       8281       8292       8291       8401       8402       8413       8412  
      8281       8282       8293       8292       8402       8403       8414       8413  
      8282       8283       8294       8293       8403       8404       8415       8414  
      8284       8285       8296       8295       8405       8406       8417       8416  
      8285       8286       8297       8296       8406       8407       8418       8417  
      8286       8287       8298       8297       8407       8408       8419       8418  
      8287       8288       8299       8298       8408       8409       8420       8419  
      8288       8289       8300       8299       8409       8410       8421       8420  
      8289       8290       8301       8300       8410       8411       8422       8421  
      8290       8291       8302       8301       8411       8412       8423       8422  
      8291       8292       8303       8302       8412       8413       8424       8423  
      8292       8293       8304       8303       8413       8414       8425       8424  
      8293       8294       8305       8304       8414       8415       8426       8425  
      8295       8296       8307       8306       8416       8417       8428       8427  
      8296       8297       8308       8307       8417       8418       8429       8428  
      8297       8298       8309       8308       8418       8419       8430       8429  
      8298       8299       8310       8309       8419       8420       8431       8430  
      8299       8300       8311       8310       8420       8421       8432       8431  
      8300       8301       8312       8311       8421       8422       8433       8432  
      8301       8302       8313       8312       8422       8423       8434       8433  
      8302       8303       8314       8313       8423       8424       8435       8434  
      8303       8304       8315       8314       8424       8425       8436       8435  
      8304       8305       8316       8315       8425       8426       8437       8436  
      8306       8307       8318       8317       8427       8428       8439       8438  
      8307       8308       8319       8318       8428       8429       8440       8439  
      8308       8309       8320       8319       8429       8430       8441       8440  
      8309       8310       8321       8320       8430       8431       8442       8441  
      8310       8311       8322       8321       8431       8432       8443       8442  
      8311       8312       8323       8322       8432       8433       8444       8443  
      8312       8313       8324       8323       8433       8434       8445       8444  
      8313       8314       8325       8324       8434       8435       8446       8445  
      8314       8315       8326       8325       8435       8436       8447       8446  
      8315       8316       8327       8326       8436       8437       8448       8447  
      8317       8318       8329       8328       8438       8439       8450       8449  
      8318       8319       8330       8329       8439       8440       8451       8450  
      8319       8320       8331       8330       8440       8441       8452       8451  
      8320       8321       8332       8331       8441       8442       8453       8452  
      8321       8322       8333       8332       8442       8443       8454       8453  
      8322       8323       8334       8333       8443       8444       8455       8454  
      8323       8324       8335       8334       8444       8445       8456       8455  
      8324       8325       8336       8335       8445       8446       8457       8456  
      8325       8326       8337       8336       8446       8447       8458       8457  
      8326       8327       8338       8337       8447       8448       8459       8458  
      8328       8329       8340       8339       8449       8450       8461       8460  
      8329       8330       8341       8340       8450       8451       8462       8461  
      8330       8331       8342       8341       8451       8452       8463       8462  
      8331       8332       8343       8342       8452       8453       8464       8463  
      8332       8333       8344       8343       8453       8454       8465       8464  
      8333       8334       8345       8344       8454       8455       8466       8465  
      8334       8335       8346       8345       8455       8456       8467       8466  
      8335       8336       8347       8346       8456       8457       8468       8467  
      8336       8337       8348       8347       8457       8458       8469       8468  
      8337       8338       8349       8348       8458       8459       8470       8469  
      8350       8351       8362       8361       8471       8472       8483       8482  
      8351       8352       8363       8362       8472       8473       8484       8483  
      8352       8353       8364       8363       8473       8474       8485       8484  
      8353       8354       8365       8364       8474       8475       8486       8485  
      8354       8355       8366       8365       8475       8476       8487       8486  
      8355       8356       8367       8366       8476       8477       8488       8487  
      8356       8357       8368       8367       8477       8478       8489       8488  
      8357       8358       8369       8368       8478       8479       8490       8489  
      8358       8359       8370       8369       8479       8480       8491       8490  
      8359       8360       8371       8370       8480       8481       8492       8491  
      8361       8362       8373       8372       8482       8483       8494       8493  
      8362       8363       8374       8373       8483       8484       8495       8494  
      8363       8364       8375       8374       8484       8485       8496       8495  
      8364       8365       8376       8375       8485       8486       8497       8496  
      8365       8366       8377       8376       8486       8487       8498       8497  
      8366       8367       8378       8377       8487       8488       8499       8498  
      8367       8368       8379       8378       8488       8489       8500       8499  
      8368       8369       8380       8379       8489       8490       8501       8500  
      8369       8370       8381       8380       8490       8491       8502       8501  
      8370       8371       8382       8381       8491       8492       8503       8502  
      8372       8373       8384       8383       8493       8494       8505       8504  
      8373       8374       8385       8384       8494       8495       8506       8505  
      8374       8375       8386       8385       8495       8496       8507       8506  
      8375       8376       8387       8386       8496       8497       8508       8507  
      8376       8377       8388       8387       8497       8498       8509       8508  
      8377       8378       8389       8388       8498       8499       8510       8509  
      8378       8379       8390       8389       8499       8500       8511       8510  
      8379       8380       8391       8390       8500       8501       8512       8511  
      8380       8381       8392       8391       8501       8502       8513       8512  
      8381       8382       8393       8392       8502       8503       8514       8513  
      8383       8384       8395       8394       8504       8505       8516       8515  
      8384       8385       8396       8395       8505       8506       8517       8516  
      8385       8386       8397       8396       8506       8507       8518       8517  
      8386       8387       8398       8397       8507       8508       8519       8518  
      8387       8388       8399       8398       8508       8509       8520       8519  
      8388       8389       8400       8399       8509       8510       8521       8520  
      8389       8390       8401       8400       8510       8511       8522       8521  
      8390       8391       8402       8401       8511       8512       8523       8522  
      8391       8392       8403       8402       8512       8513       8524       8523  
      8392       8393       8404       8403       8513       8514       8525       8524  
      8394       8395       8406       8405       8515       8516       8527       8526  
      8395       8396       8407       8406       8516       8517       8528       8527  
      8396       8397       8408       8407       8517       8518       8529       8528  
      8397       8398       8409       8408       8518       8519       8530       8529  
      8398       8399       8410       8409       8519       8520       8531       8530  
      8399       8400       8411       8410       8520       8521       8532       8531  
      8400       8401       8412       8411       8521       8522       8533       8532  
      8401       8402       8413       8412       8522       8523       8534       8533  
      8402       8403       8414       8413       8523       8524       8535       8534  
      8403       8404       8415       8414       8524       8525       8536       8535  
      8405       8406       8417       8416       8526       8527       8538       8537  
      8406       8407       8418       8417       8527       8528       8539       8538  
      8407       8408       8419       8418       8528       8529       8540       8539  
      8408       8409       8420       8419       8529       8530       8541       8540  
      8409       8410       8421       8420       8530       8531       8542       8541  
      8410       8411       8422       8421       8531       8532       8543       8542  
      8411       8412       8423       8422       8532       8533       8544       8543  
      8412       8413       8424       8423       8533       8534       8545       8544  
      8413       8414       8425       8424       8534       8535       8546       8545  
      8414       8415       8426       8425       8535       8536       8547       8546  
      8416       8417       8428       8427       8537       8538       8549       8548  
      8417       8418       8429       8428       8538       8539       8550       8549  
      8418       8419       8430       8429       8539       8540       8551       8550  
      8419       8420       8431       8430       8540       8541       8552       8551  
      8420       8421       8432       8431       8541       8542       8553       8552  
      8421       8422       8433       8432       8542       8543       8554       8553  
      8422       8423       8434       8433       8543       8544       8555       8554  
      8423       8424       8435       8434       8544       8545       8556       8555  
      8424       8425       8436       8435       8545       8546       8557       8556  
      8425       8426       8437       8436       8546       8547       8558       8557  
      8427       8428       8439       8438       8548       8549       8560       8559  
      8428       8429       8440       8439       8549       8550       8561       8560  
      8429       8430       8441       8440       8550       8551       8562       8561  
      8430       8431       8442       8441       8551       8552       8563       8562  
      8431       8432       8443       8442       8552       8553       8564       8563  
      8432       8433       8444       8443       8553       8554       8565       8564  
      8433       8434       8445       8444       8554       8555       8566       8565  
      8434       8435       8446       8445       8555       8556       8567       8566  
      8435       8436       8447       8446       8556       8557       8568       8567  
      8436       8437       8448       8447       8557       8558       8569       8568  
      8438       8439       8450       8449       8559       8560       8571       8570  
      8439       8440       8451       8450       8560       8561       8572       8571  
      8440       8441       8452       8451       8561       8562       8573       8572  
      8441       8442       8453       8452       8562       8563       8574       8573  
      8442       8443       8454       8453       8563       8564       8575       8574  
      8443       8444       8455       8454       8564       8565       8576       8575  
      8444       8445       8456       8455       8565       8566       8577       8576  
      8445       8446       8457       8456       8566       8567       8578       8577  
      8446       8447       8458       8457       8567       8568       8579       8578  
      8447       8448       8459       8458       8568       8569       8580       8579  
      8449       8450       8461       8460       8570       8571       8582       8581  
      8450       8451       8462       8461       8571       8572       8583       8582  
      8451       8452       8463       8462       8572       8573       8584       8583  
      8452       8453       8464       8463       8573       8574       8585       8584  
      8453       8454       8465       8464       8574       8575       8586       8585  
      8454       8455       8466       8465       8575       8576       8587       8586  
      8455       8456       8467       8466       8576       8577       8588       8587  
      8456       8457       8468       8467       8577       8578       8589       8588  
      8457       8458       8469       8468       8578       8579       8590       8589  
      8458       8459       8470       8469       8579       8580       8591       8590  
      8471       8472       8483       8482       8592       8593       8604       8603  
      8472       8473       8484       8483       8593       8594       8605       8604  
      8473       8474       8485       8484       8594       8595       8606       8605  
      8474       8475       8486       8485       8595       8596       8607       8606  
      8475       8476       8487       8486       8596       8597       8608       8607  
      8476       8477       8488       8487       8597       8598       8609       8608  
      8477       8478       8489       8488       8598       8599       8610       8609  
      8478       8479       8490       8489       8599       8600       8611       8610  
      8479       8480       8491       8490       8600       8601       8612       8611  
      8480       8481       8492       8491       8601       8602       8613       8612  
      8482       8483       8494       8493       8603       8604       8615       8614  
      8483       8484       8495       8494       8604       8605       8616       8615  
      8484       8485       8496       8495       8605       8606       8617       8616  
      8485       8486       8497       8496       8606       8607       8618       8617  
      8486       8487       8498       8497       8607       8608       8619       8618  
      8487       8488       8499       8498       8608       8609       8620       8619  
      8488       8489       8500       8499       8609       8610       8621       8620  
      8489       8490       8501       8500       8610       8611       8622       8621  
      8490       8491       8502       8501       8611       8612       8623       8622  
      8491       8492       8503       8502       8612       8613       8624       8623  
      8493       8494       8505       8504       8614       8615       8626       8625  
      8494       8495       8506       8505       8615       8616       8627       8626  
      8495       8496       8507       8506       8616       8617       8628       8627  
      8496       8497       8508       8507       8617       8618       8629       8628  
      8497       8498       8509       8508       8618       8619       8630       8629  
      8498       8499       8510       8509       8619       8620       8631       8630  
      8499       8500       8511       8510       8620       8621       8632       8631  
      8500       8501       8512       8511       8621       8622       8633       8632  
      8501       8502       8513       8512       8622       8623       8634       8633  
      8502       8503       8514       8513       8623       8624       8635       8634  
      8504       8505       8516       8515       8625       8626       8637       8636  
      8505       8506       8517       8516       8626       8627       8638       8637  
      8506       8507       8518       8517       8627       8628       8639       8638  
      8507       8508       8519       8518       8628       8629       8640       8639  
      8508       8509       8520       8519       8629       8630       8641       8640  
      8509       8510       8521       8520       8630       8631       8642       8641  
      8510       8511       8522       8521       8631       8632       8643       8642  
      8511       8512       8523       8522       8632       8633       8644       8643  
      8512       8513       8524       8523       8633       8634       8645       8644  
      8513       8514       8525       8524       8634       8635       8646       8645  
      8515       8516       8527       8526       8636       8637       8648       8647  
      8516       8517       8528       8527       8637       8638       8649       8648  
      8517       8518       8529       8528       8638       8639       8650       8649  
      8518       8519       8530       8529       8639       8640       8651       8650  
      8519       8520       8531       8530       8640       8641       8652       8651  
      8520       8521       8532       8531       8641       8642       8653       8652  
      8521       8522       8533       8532       8642       8643       8654       8653  
      8522       8523       8534       8533       8643       8644       8655       8654  
      8523       8524       8535       8534       8644       8645       8656       8655  
      8524       8525       8536       8535       8645       8646       8657       8656  
      8526       8527       8538       8537       8647       8648       8659       8658  
      8527       8528       8539       8538       8648       8649       8660       8659  
      8528       8529       8540       8539       8649       8650       8661       8660  
      8529       8530       8541       8540       8650       8651       8662       8661  
      8530       8531       8542       8541       8651       8652       8663       8662  
      8531       8532       8543       8542       8652       8653       8664       8663  
      8532       8533       8544       8543       8653       8654       8665       8664  
      8533       8534       8545       8544       8654       8655       8666       8665  
      8534       8535       8546       8545       8655       8656       8667       8666  
      8535       8536       8547       8546       8656       8657       8668       8667  
      8537       8538       8549       8548       8658       8659       8670       8669  
      8538       8539       8550       8549       8659       8660       8671       8670  
      8539       8540       8551       8550       8660       8661       8672       8671  
      8540       8541       8552       8551       8661       8662       8673       8672  
      8541       8542       8553       8552       8662       8663       8674       8673  
      8542       8543       8554       8553       8663       8664       8675       8674  
      8543       8544       8555       8554       8664       8665       8676       8675  
      8544       8545       8556       8555       8665       8666       8677       8676  
      8545       8546       8557       8556       8666       8667       8678       8677  
      8546       8547       8558       8557       8667       8668       8679       8678  
      8548       8549       8560       8559       8669       8670       8681       8680  
      8549       8550       8561       8560       8670       8671       8682       8681  
      8550       8551       8562       8561       8671       8672       8683       8682  
      8551       8552       8563       8562       8672       8673       8684       8683  
      8552       8553       8564       8563       8673       8674       8685       8684  
      8553       8554       8565       8564       8674       8675       8686       8685  
      8554       8555       8566       8565       8675       8676       8687       8686  
      8555       8556       8567       8566       8676       8677       8688       8687  
      8556       8557       8568       8567       8677       8678       8689       8688  
      8557       8558       8569       8568       8678       8679       8690       8689  
      8559       8560       8571       8570       8680       8681       8692       8691  
      8560       8561       8572       8571       8681       8682       8693       8692  
      8561       8562       8573       8572       8682       8683       8694       8693  
      8562       8563       8574       8573       8683       8684       8695       8694  
      8563       8564       8575       8574       8684       8685       8696       8695  
      8564       8565       8576       8575       8685       8686       8697       8696  
      8565       8566       8577       8576       8686       8687       8698       8697  
      8566       8567       8578       8577       8687       8688       8699       8698  
      8567       8568       8579       8578       8688       8689       8700       8699  
      8568       8569       8580       8579       8689       8690       8701       8700  
      8570       8571       8582       8581       8691       8692       8703       8702  
      8571       8572       8583       8582       8692       8693       8704       8703  
      8572       8573       8584       8583       8693       8694       8705       8704  
      8573       8574       8585       8584       8694       8695       8706       8705  
      8574       8575       8586       8585       8695       8696       8707       8706  
      8575       8576       8587       8586       8696       8697       8708       8707  
      8576       8577       8588       8587       8697       8698       8709       8708  
      8577       8578       8589       8588       8698       8699       8710       8709  
      8578       8579       8590       8589       8699       8700       8711       8710  
      8579       8580       8591       8590       8700       8701       8712       8711  
      8592       8593       8604       8603       8713       8714       8725       8724  
      8593       8594       8605       8604       8714       8715       8726       8725  
      8594       8595       8606       8605       8715       8716       8727       8726  
      8595       8596       8607       8606       8716       8717       8728       8727  
      8596       8597       8608       8607       8717       8718       8729       8728  
      8597       8598       8609       8608       8718       8719       8730       8729  
      8598       8599       8610       8609       8719       8720       8731       8730  
      8599       8600       8611       8610       8720       8721       8732       8731  
      8600       8601       8612       8611       8721       8722       8733       8732  
      8601       8602       8613       8612       8722       8723       8734       8733  
      8603       8604       8615       8614       8724       8725       8736       8735  
      8604       8605       8616       8615       8725       8726       8737       8736  
      8605       8606       8617       8616       8726       8727       8738       8737  
      8606       8607       8618       8617       8727       8728       8739       8738  
      8607       8608       8619       8618       8728       8729       8740       8739  
      8608       8609       8620       8619       8729       8730       8741       8740  
      8609       8610       8621       8620       8730       8731       8742       8741  
      8610       8611       8622       8621       8731       8732       8743       8742  
      8611       8612       8623       8622       8732       8733       8744       8743  
      8612       8613       8624       8623       8733       8734       8745       8744  
      8614       8615       8626       8625       8735       8736       8747       8746  
      8615       8616       8627       8626       8736       8737       8748       8747  
      8616       8617       8628       8627       8737       8738       8749       8748  
      8617       8618       8629       8628       8738       8739       8750       8749  
      8618       8619       8630       8629       8739       8740       8751       8750  
      8619       8620       8631       8630       8740       8741       8752       8751  
      8620       8621       8632       8631       8741       8742       8753       8752  
      8621       8622       8633       8632       8742       8743       8754       8753  
      8622       8623       8634       8633       8743       8744       8755       8754  
      8623       8624       8635       8634       8744       8745       8756       8755  
      8625       8626       8637       8636       8746       8747       8758       8757  
      8626       8627       8638       8637       8747       8748       8759       8758  
      8627       8628       8639       8638       8748       8749       8760       8759  
      8628       8629       8640       8639       8749       8750       8761       8760  
      8629       8630       8641       8640       8750       8751       8762       8761  
      8630       8631       8642       8641       8751       8752       8763       8762  
      8631       8632       8643       8642       8752       8753       8764       8763  
      8632       8633       8644       8643       8753       8754       8765       8764  
      8633       8634       8645       8644       8754       8755       8766       8765  
      8634       8635       8646       8645       8755       8756       8767       8766  
      8636       8637       8648       8647       8757       8758       8769       8768  
      8637       8638       8649       8648       8758       8759       8770       8769  
      8638       8639       8650       8649       8759       8760       8771       8770  
      8639       8640       8651       8650       8760       8761       8772       8771  
      8640       8641       8652       8651       8761       8762       8773       8772  
      8641       8642       8653       8652       8762       8763       8774       8773  
      8642       8643       8654       8653       8763       8764       8775       8774  
      8643       8644       8655       8654       8764       8765       8776       8775  
      8644       8645       8656       8655       8765       8766       8777       8776  
      8645       8646       8657       8656       8766       8767       8778       8777  
      8647       8648       8659       8658       8768       8769       8780       8779  
      8648       8649       8660       8659       8769       8770       8781       8780  
      8649       8650       8661       8660       8770       8771       8782       8781  
      8650       8651       8662       8661       8771       8772       8783       8782  
      8651       8652       8663       8662       8772       8773       8784       8783  
      8652       8653       8664       8663       8773       8774       8785       8784  
      8653       8654       8665       8664       8774       8775       8786       8785  
      8654       8655       8666       8665       8775       8776       8787       8786  
      8655       8656       8667       8666       8776       8777       8788       8787  
      8656       8657       8668       8667       8777       8778       8789       8788  
      8658       8659       8670       8669       8779       8780       8791       8790  
      8659       8660       8671       8670       8780       8781       8792       8791  
      8660       8661       8672       8671       8781       8782       8793       8792  
      8661       8662       8673       8672       8782       8783       8794       8793  
      8662       8663       8674       8673       8783       8784       8795       8794  
      8663       8664       8675       8674       8784       8785       8796       8795  
      8664       8665       8676       8675       8785       8786       8797       8796  
      8665       8666       8677       8676       8786       8787       8798       8797  
      8666       8667       8678       8677       8787       8788       8799       8798  
      8667       8668       8679       8678       8788       8789       8800       8799  
      8669       8670       8681       8680       8790       8791       8802       8801  
      8670       8671       8682       8681       8791       8792       8803       8802  
      8671       8672       8683       8682       8792       8793       8804       8803  
      8672       8673       8684       8683       8793       8794       8805       8804  
      8673       8674       8685       8684       8794       8795       8806       8805  
      8674       8675       8686       8685       8795       8796       8807       8806  
      8675       8676       8687       8686       8796       8797       8808       8807  
      8676       8677       8688       8687       8797       8798       8809       8808  
      8677       8678       8689       8688       8798       8799       8810       8809  
      8678       8679       8690       8689       8799       8800       8811       8810  
      8680       8681       8692       8691       8801       8802       8813       8812  
      8681       8682       8693       8692       8802       8803       8814       8813  
      8682       8683       8694       8693       8803       8804       8815       8814  
      8683       8684       8695       8694       8804       8805       8816       8815  
      8684       8685       8696       8695       8805       8806       8817       8816  
      8685       8686       8697       8696       8806       8807       8818       8817  
      8686       8687       8698       8697       8807       8808       8819       8818  
      8687       8688       8699       8698       8808       8809       8820       8819  
      8688       8689       8700       8699       8809       8810       8821       8820  
      8689       8690       8701       8700       8810       8811       8822       8821  
      8691       8692       8703       8702       8812       8813       8824       8823  
      8692       8693       8704       8703       8813       8814       8825       8824  
      8693       8694       8705       8704       8814       8815       8826       8825  
      8694       8695       8706       8705       8815       8816       8827       8826  
      8695       8696       8707       8706       8816       8817       8828       8827  
      8696       8697       8708       8707       8817       8818       8829       8828  
      8697       8698       8709       8708       8818       8819       8830       8829  
      8698       8699       8710       8709       8819       8820       8831       8830  
      8699       8700       8711       8710       8820       8821       8832       8831  
      8700       8701       8712       8711       8821       8822       8833       8832  
      8713       8714       8725       8724       8834       8835       8846       8845  
      8714       8715       8726       8725       8835       8836       8847       8846  
      8715       8716       8727       8726       8836       8837       8848       8847  
      8716       8717       8728       8727       8837       8838       8849       8848  
      8717       8718       8729       8728       8838       8839       8850       8849  
      8718       8719       8730       8729       8839       8840       8851       8850  
      8719       8720       8731       8730       8840       8841       8852       8851  
      8720       8721       8732       8731       8841       8842       8853       8852  
      8721       8722       8733       8732       8842       8843       8854       8853  
      8722       8723       8734       8733       8843       8844       8855       8854  
      8724       8725       8736       8735       8845       8846       8857       8856  
      8725       8726       8737       8736       8846       8847       8858       8857  
      8726       8727       8738       8737       8847       8848       8859       8858  
      8727       8728       8739       8738       8848       8849       8860       8859  
      8728       8729       8740       8739       8849       8850       8861       8860  
      8729       8730       8741       8740       8850       8851       8862       8861  
      8730       8731       8742       8741       8851       8852       8863       8862  
      8731       8732       8743       8742       8852       8853       8864       8863  
      8732       8733       8744       8743       8853       8854       8865       8864  
      8733       8734       8745       8744       8854       8855       8866       8865  
      8735       8736       8747       8746       8856       8857       8868       8867  
      8736       8737       8748       8747       8857       8858       8869       8868  
      8737       8738       8749       8748       8858       8859       8870       8869  
      8738       8739       8750       8749       8859       8860       8871       8870  
      8739       8740       8751       8750       8860       8861       8872       8871  
      8740       8741       8752       8751       8861       8862       8873       8872  
      8741       8742       8753       8752       8862       8863       8874       8873  
      8742       8743       8754       8753       8863       8864       8875       8874  
      8743       8744       8755       8754       8864       8865       8876       8875  
      8744       8745       8756       8755       8865       8866       8877       8876  
      8746       8747       8758       8757       8867       8868       8879       8878  
      8747       8748       8759       8758       8868       8869       8880       8879  
      8748       8749       8760       8759       8869       8870       8881       8880  
      8749       8750       8761       8760       8870       8871       8882       8881  
      8750       8751       8762       8761       8871       8872       8883       8882  
      8751       8752       8763       8762       8872       8873       8884       8883  
      8752       8753       8764       8763       8873       8874       8885       8884  
      8753       8754       8765       8764       8874       8875       8886       8885  
      8754       8755       8766       8765       8875       8876       8887       8886  
      8755       8756       8767       8766       8876       8877       8888       8887  
      8757       8758       8769       8768       8878       8879       8890       8889  
      8758       8759       8770       8769       8879       8880       8891       8890  
      8759       8760       8771       8770       8880       8881       8892       8891  
      8760       8761       8772       8771       8881       8882       8893       8892  
      8761       8762       8773       8772       8882       8883       8894       8893  
      8762       8763       8774       8773       8883       8884       8895       8894  
      8763       8764       8775       8774       8884       8885       8896       8895  
      8764       8765       8776       8775       8885       8886       8897       8896  
      8765       8766       8777       8776       8886       8887       8898       8897  
      8766       8767       8778       8777       8887       8888       8899       8898  
      8768       8769       8780       8779       8889       8890       8901       8900  
      8769       8770       8781       8780       8890       8891       8902       8901  
      8770       8771       8782       8781       8891       8892       8903       8902  
      8771       8772       8783       8782       8892       8893       8904       8903  
      8772       8773       8784       8783       8893       8894       8905       8904  
      8773       8774       8785       8784       8894       8895       8906       8905  
      8774       8775       8786       8785       8895       8896       8907       8906  
      8775       8776       8787       8786       8896       8897       8908       8907  
      8776       8777       8788       8787       8897       8898       8909       8908  
      8777       8778       8789       8788       8898       8899       8910       8909  
      8779       8780       8791       8790       8900       8901       8912       8911  
      8780       8781       8792       8791       8901       8902       8913       8912  
      8781       8782       8793       8792       8902       8903       8914       8913  
      8782       8783       8794       8793       8903       8904       8915       8914  
      8783       8784       8795       8794       8904       8905       8916       8915  
      8784       8785       8796       8795       8905       8906       8917       8916  
      8785       8786       8797       8796       8906       8907       8918       8917  
      8786       8787       8798       8797       8907       8908       8919       8918  
      8787       8788       8799       8798       8908       8909       8920       8919  
      8788       8789       8800       8799       8909       8910       8921       8920  
      8790       8791       8802       8801       8911       8912       8923       8922  
      8791       8792       8803       8802       8912       8913       8924       8923  
      8792       8793       8804       8803       8913       8914       8925       8924  
      8793       8794       8805       8804       8914       8915       8926       8925  
      8794       8795       8806       8805       8915       8916       8927       8926  
      8795       8796       8807       8806       8916       8917       8928       8927  
      8796       8797       8808       8807       8917       8918       8929       8928  
      8797       8798       8809       8808       8918       8919       8930       8929  
      8798       8799       8810       8809       8919       8920       8931       8930  
      8799       8800       8811       8810       8920       8921       8932       8931  
      8801       8802       8813       8812       8922       8923       8934       8933  
      8802       8803       8814       8813       8923       8924       8935       8934  
      8803       8804       8815       8814       8924       8925       8936       8935  
      8804       8805       8816       8815       8925       8926       8937       8936  
      8805       8806       8817       8816       8926       8927       8938       8937  
      8806       8807       8818       8817       8927       8928       8939       8938  
      8807       8808       8819       8818       8928       8929       8940       8939  
      8808       8809       8820       8819       8929       8930       8941       8940  
      8809       8810       8821       8820       8930       8931       8942       8941  
      8810       8811       8822       8821       8931       8932       8943       8942  
      8812       8813       8824       8823       8933       8934       8945       8944  
      8813       8814       8825       8824       8934       8935       8946       8945  
      8814       8815       8826       8825       8935       8936       8947       8946  
      8815       8816       8827       8826       8936       8937       8948       8947  
      8816       8817       8828       8827       8937       8938       8949       8948  
      8817       8818       8829       8828       8938       8939       8950       8949  
      8818       8819       8830       8829       8939       8940       8951       8950  
      8819       8820       8831       8830       8940       8941       8952       8951  
      8820       8821       8832       8831       8941       8942       8953       8952  
      8821       8822       8833       8832       8942       8943       8954       8953  
      8834       8835       8846       8845       8955       8956       8967       8966  
      8835       8836       8847       8846       8956       8957       8968       8967  
      8836       8837       8848       8847       8957       8958       8969       8968  
      8837       8838       8849       8848       8958       8959       8970       8969  
      8838       8839       8850       8849       8959       8960       8971       8970  
      8839       8840       8851       8850       8960       8961       8972       8971  
      8840       8841       8852       8851       8961       8962       8973       8972  
      8841       8842       8853       8852       8962       8963       8974       8973  
      8842       8843       8854       8853       8963       8964       8975       8974  
      8843       8844       8855       8854       8964       8965       8976       8975  
      8845       8846       8857       8856       8966       8967       8978       8977  
      8846       8847       8858       8857       8967       8968       8979       8978  
      8847       8848       8859       8858       8968       8969       8980       8979  
      8848       8849       8860       8859       8969       8970       8981       8980  
      8849       8850       8861       8860       8970       8971       8982       8981  
      8850       8851       8862       8861       8971       8972       8983       8982  
      8851       8852       8863       8862       8972       8973       8984       8983  
      8852       8853       8864       8863       8973       8974       8985       8984  
      8853       8854       8865       8864       8974       8975       8986       8985  
      8854       8855       8866       8865       8975       8976       8987       8986  
      8856       8857       8868       8867       8977       8978       8989       8988  
      8857       8858       8869       8868       8978       8979       8990       8989  
      8858       8859       8870       8869       8979       8980       8991       8990  
      8859       8860       8871       8870       8980       8981       8992       8991  
      8860       8861       8872       8871       8981       8982       8993       8992  
      8861       8862       8873       8872       8982       8983       8994       8993  
      8862       8863       8874       8873       8983       8984       8995       8994  
      8863       8864       8875       8874       8984       8985       8996       8995  
      8864       8865       8876       8875       8985       8986       8997       8996  
      8865       8866       8877       8876       8986       8987       8998       8997  
      8867       8868       8879       8878       8988       8989       9000       8999  
      8868       8869       8880       8879       8989       8990       9001       9000  
      8869       8870       8881       8880       8990       8991       9002       9001  
      8870       8871       8882       8881       8991       8992       9003       9002  
      8871       8872       8883       8882       8992       8993       9004       9003  
      8872       8873       8884       8883       8993       8994       9005       9004  
      8873       8874       8885       8884       8994       8995       9006       9005  
      8874       8875       8886       8885       8995       8996       9007       9006  
      8875       8876       8887       8886       8996       8997       9008       9007  
      8876       8877       8888       8887       8997       8998       9009       9008  
      8878       8879       8890       8889       8999       9000       9011       9010  
      8879       8880       8891       8890       9000       9001       9012       9011  
      8880       8881       8892       8891       9001       9002       9013       9012  
      8881       8882       8893       8892       9002       9003       9014       9013  
      8882       8883       8894       8893       9003       9004       9015       9014  
      8883       8884       8895       8894       9004       9005       9016       9015  
      8884       8885       8896       8895       9005       9006       9017       9016  
      8885       8886       8897       8896       9006       9007       9018       9017  
      8886       8887       8898       8897       9007       9008       9019       9018  
      8887       8888       8899       8898       9008       9009       9020       9019  
      8889       8890       8901       8900       9010       9011       9022       9021  
      8890       8891       8902       8901       9011       9012       9023       9022  
      8891       8892       8903       8902       9012       9013       9024       9023  
      8892       8893       8904       8903       9013       9014       9025       9024  
      8893       8894       8905       8904       9014       9015       9026       9025  
      8894       8895       8906       8905       9015       9016       9027       9026  
      8895       8896       8907       8906       9016       9017       9028       9027  
      8896       8897       8908       8907       9017       9018       9029       9028  
      8897       8898       8909       8908       9018       9019       9030       9029  
      8898       8899       8910       8909       9019       9020       9031       9030  
      8900       8901       8912       8911       9021       9022       9033       9032  
      8901       8902       8913       8912       9022       9023       9034       9033  
      8902       8903       8914       8913       9023       9024       9035       9034  
      8903       8904       8915       8914       9024       9025       9036       9035  
      8904       8905       8916       8915       9025       9026       9037       9036  
      8905       8906       8917       8916       9026       9027       9038       9037  
      8906       8907       8918       8917       9027       9028       9039       9038  
      8907       8908       8919       8918       9028       9029       9040       9039  
      8908       8909       8920       8919       9029       9030       9041       9040  
      8909       8910       8921       8920       9030       9031       9042       9041  
      8911       8912       8923       8922       9032       9033       9044       9043  
      8912       8913       8924       8923       9033       9034       9045       9044  
      8913       8914       8925       8924       9034       9035       9046       9045  
      8914       8915       8926       8925       9035       9036       9047       9046  
      8915       8916       8927       8926       9036       9037       9048       9047  
      8916       8917       8928       8927       9037       9038       9049       9048  
      8917       8918       8929       8928       9038       9039       9050       9049  
      8918       8919       8930       8929       9039       9040       9051       9050  
      8919       8920       8931       8930       9040       9041       9052       9051  
      8920       8921       8932       8931       9041       9042       9053       9052  
      8922       8923       8934       8933       9043       9044       9055       9054  
      8923       8924       8935       8934       9044       9045       9056       9055  
      8924       8925       8936       8935       9045       9046       9057       9056  
      8925       8926       8937       8936       9046       9047       9058       9057  
      8926       8927       8938       8937       9047       9048       9059       9058  
      8927       8928       8939       8938       9048       9049       9060       9059  
      8928       8929       8940       8939       9049       9050       9061       9060  
      8929       8930       8941       8940       9050       9051       9062       9061  
      8930       8931       8942       8941       9051       9052       9063       9062  
      8931       8932       8943       8942       9052       9053       9064       9063  
      8933       8934       8945       8944       9054       9055       9066       9065  
      8934       8935       8946       8945       9055       9056       9067       9066  
      8935       8936       8947       8946       9056       9057       9068       9067  
      8936       8937       8948       8947       9057       9058       9069       9068  
      8937       8938       8949       8948       9058       9059       9070       9069  
      8938       8939       8950       8949       9059       9060       9071       9070  
      8939       8940       8951       8950       9060       9061       9072       9071  
      8940       8941       8952       8951       9061       9062       9073       9072  
      8941       8942       8953       8952       9062       9063       9074       9073  
      8942       8943       8954       8953       9063       9064       9075       9074  
      8955       8956       8967       8966       9076       9077       9088       9087  
      8956       8957       8968       8967       9077       9078       9089       9088  
      8957       8958       8969       8968       9078       9079       9090       9089  
      8958       8959       8970       8969       9079       9080       9091       9090  
      8959       8960       8971       8970       9080       9081       9092       9091  
      8960       8961       8972       8971       9081       9082       9093       9092  
      8961       8962       8973       8972       9082       9083       9094       9093  
      8962       8963       8974       8973       9083       9084       9095       9094  
      8963       8964       8975       8974       9084       9085       9096       9095  
      8964       8965       8976       8975       9085       9086       9097       9096  
      8966       8967       8978       8977       9087       9088       9099       9098  
      8967       8968       8979       8978       9088       9089       9100       9099  
      8968       8969       8980       8979       9089       9090       9101       9100  
      8969       8970       8981       8980       9090       9091       9102       9101  
      8970       8971       8982       8981       9091       9092       9103       9102  
      8971       8972       8983       8982       9092       9093       9104       9103  
      8972       8973       8984       8983       9093       9094       9105       9104  
      8973       8974       8985       8984       9094       9095       9106       9105  
      8974       8975       8986       8985       9095       9096       9107       9106  
      8975       8976       8987       8986       9096       9097       9108       9107  
      8977       8978       8989       8988       9098       9099       9110       9109  
      8978       8979       8990       8989       9099       9100       9111       9110  
      8979       8980       8991       8990       9100       9101       9112       9111  
      8980       8981       8992       8991       9101       9102       9113       9112  
      8981       8982       8993       8992       9102       9103       9114       9113  
      8982       8983       8994       8993       9103       9104       9115       9114  
      8983       8984       8995       8994       9104       9105       9116       9115  
      8984       8985       8996       8995       9105       9106       9117       9116  
      8985       8986       8997       8996       9106       9107       9118       9117  
      8986       8987       8998       8997       9107       9108       9119       9118  
      8988       8989       9000       8999       9109       9110       9121       9120  
      8989       8990       9001       9000       9110       9111       9122       9121  
      8990       8991       9002       9001       9111       9112       9123       9122  
      8991       8992       9003       9002       9112       9113       9124       9123  
      8992       8993       9004       9003       9113       9114       9125       9124  
      8993       8994       9005       9004       9114       9115       9126       9125  
      8994       8995       9006       9005       9115       9116       9127       9126  
      8995       8996       9007       9006       9116       9117       9128       9127  
      8996       8997       9008       9007       9117       9118       9129       9128  
      8997       8998       9009       9008       9118       9119       9130       9129  
      8999       9000       9011       9010       9120       9121       9132       9131  
      9000       9001       9012       9011       9121       9122       9133       9132  
      9001       9002       9013       9012       9122       9123       9134       9133  
      9002       9003       9014       9013       9123       9124       9135       9134  
      9003       9004       9015       9014       9124       9125       9136       9135  
      9004       9005       9016       9015       9125       9126       9137       9136  
      9005       9006       9017       9016       9126       9127       9138       9137  
      9006       9007       9018       9017       9127       9128       9139       9138  
      9007       9008       9019       9018       9128       9129       9140       9139  
      9008       9009       9020       9019       9129       9130       9141       9140  
      9010       9011       9022       9021       9131       9132       9143       9142  
      9011       9012       9023       9022       9132       9133       9144       9143  
      9012       9013       9024       9023       9133       9134       9145       9144  
      9013       9014       9025       9024       9134       9135       9146       9145  
      9014       9015       9026       9025       9135       9136       9147       9146  
      9015       9016       9027       9026       9136       9137       9148       9147  
      9016       9017       9028       9027       9137       9138       9149       9148  
      9017       9018       9029       9028       9138       9139       9150       9149  
      9018       9019       9030       9029       9139       9140       9151       9150  
      9019       9020       9031       9030       9140       9141       9152       9151  
      9021       9022       9033       9032       9142       9143       9154       9153  
      9022       9023       9034       9033       9143       9144       9155       9154  
      9023       9024       9035       9034       9144       9145       9156       9155  
      9024       9025       9036       9035       9145       9146       9157       9156  
      9025       9026       9037       9036       9146       9147       9158       9157  
      9026       9027       9038       9037       9147       9148       9159       9158  
      9027       9028       9039       9038       9148       9149       9160       9159  
      9028       9029       9040       9039       9149       9150       9161       9160  
      9029       9030       9041       9040       9150       9151       9162       9161  
      9030       9031       9042       9041       9151       9152       9163       9162  
      9032       9033       9044       9043       9153       9154       9165       9164  
      9033       9034       9045       9044       9154       9155       9166       9165  
      9034       9035       9046       9045       9155       9156       9167       9166  
      9035       9036       9047       9046       9156       9157       9168       9167  
      9036       9037       9048       9047       9157       9158       9169       9168  
      9037       9038       9049       9048       9158       9159       9170       9169  
      9038       9039       9050       9049       9159       9160       9171       9170  
      9039       9040       9051       9050       9160       9161       9172       9171  
      9040       9041       9052       9051       9161       9162       9173       9172  
      9041       9042       9053       9052       9162       9163       9174       9173  
      9043       9044       9055       9054       9164       9165       9176       9175  
      9044       9045       9056       9055       9165       9166       9177       9176  
      9045       9046       9057       9056       9166       9167       9178       9177  
      9046       9047       9058       9057       9167       9168       9179       9178  
      9047       9048       9059       9058       9168       9169       9180       9179  
      9048       9049       9060       9059       9169       9170       9181       9180  
      9049       9050       9061       9060       9170       9171       9182       9181  
      9050       9051       9062       9061       9171       9172       9183       9182  
      9051       9052       9063       9062       9172       9173       9184       9183  
      9052       9053       9064       9063       9173       9174       9185       9184  
      9054       9055       9066       9065       9175       9176       9187       9186  
      9055       9056       9067       9066       9176       9177       9188       9187  
      9056       9057       9068       9067       9177       9178       9189       9188  
      9057       9058       9069       9068       9178       9179       9190       9189  
      9058       9059       9070       9069       9179       9180       9191       9190  
      9059       9060       9071       9070       9180       9181       9192       9191  
      9060       9061       9072       9071       9181       9182       9193       9192  
      9061       9062       9073       9072       9182       9183       9194       9193  
      9062       9063       9074       9073       9183       9184       9195       9194  
      9063       9064       9075       9074       9184       9185       9196       9195  
      9076       9077       9088       9087       9197       9198       9209       9208  
      9077       9078       9089       9088       9198       9199       9210       9209  
      9078       9079       9090       9089       9199       9200       9211       9210  
      9079       9080       9091       9090       9200       9201       9212       9211  
      9080       9081       9092       9091       9201       9202       9213       9212  
      9081       9082       9093       9092       9202       9203       9214       9213  
      9082       9083       9094       9093       9203       9204       9215       9214  
      9083       9084       9095       9094       9204       9205       9216       9215  
      9084       9085       9096       9095       9205       9206       9217       9216  
      9085       9086       9097       9096       9206       9207       9218       9217  
      9087       9088       9099       9098       9208       9209       9220       9219  
      9088       9089       9100       9099       9209       9210       9221       9220  
      9089       9090       9101       9100       9210       9211       9222       9221  
      9090       9091       9102       9101       9211       9212       9223       9222  
      9091       9092       9103       9102       9212       9213       9224       9223  
      9092       9093       9104       9103       9213       9214       9225       9224  
      9093       9094       9105       9104       9214       9215       9226       9225  
      9094       9095       9106       9105       9215       9216       9227       9226  
      9095       9096       9107       9106       9216       9217       9228       9227  
      9096       9097       9108       9107       9217       9218       9229       9228  
      9098       9099       9110       9109       9219       9220       9231       9230  
      9099       9100       9111       9110       9220       9221       9232       9231  
      9100       9101       9112       9111       9221       9222       9233       9232  
      9101       9102       9113       9112       9222       9223       9234       9233  
      9102       9103       9114       9113       9223       9224       9235       9234  
      9103       9104       9115       9114       9224       9225       9236       9235  
      9104       9105       9116       9115       9225       9226       9237       9236  
      9105       9106       9117       9116       9226       9227       9238       9237  
      9106       9107       9118       9117       9227       9228       9239       9238  
      9107       9108       9119       9118       9228       9229       9240       9239  
      9109       9110       9121       9120       9230       9231       9242       9241  
      9110       9111       9122       9121       9231       9232       9243       9242  
      9111       9112       9123       9122       9232       9233       9244       9243  
      9112       9113       9124       9123       9233       9234       9245       9244  
      9113       9114       9125       9124       9234       9235       9246       9245  
      9114       9115       9126       9125       9235       9236       9247       9246  
      9115       9116       9127       9126       9236       9237       9248       9247  
      9116       9117       9128       9127       9237       9238       9249       9248  
      9117       9118       9129       9128       9238       9239       9250       9249  
      9118       9119       9130       9129       9239       9240       9251       9250  
      9120       9121       9132       9131       9241       9242       9253       9252  
      9121       9122       9133       9132       9242       9243       9254       9253  
      9122       9123       9134       9133       9243       9244       9255       9254  
      9123       9124       9135       9134       9244       9245       9256       9255  
      9124       9125       9136       9135       9245       9246       9257       9256  
      9125       9126       9137       9136       9246       9247       9258       9257  
      9126       9127       9138       9137       9247       9248       9259       9258  
      9127       9128       9139       9138       9248       9249       9260       9259  
      9128       9129       9140       9139       9249       9250       9261       9260  
      9129       9130       9141       9140       9250       9251       9262       9261  
      9131       9132       9143       9142       9252       9253       9264       9263  
      9132       9133       9144       9143       9253       9254       9265       9264  
      9133       9134       9145       9144       9254       9255       9266       9265  
      9134       9135       9146       9145       9255       9256       9267       9266  
      9135       9136       9147       9146       9256       9257       9268       9267  
      9136       9137       9148       9147       9257       9258       9269       9268  
      9137       9138       9149       9148       9258       9259       9270       9269  
      9138       9139       9150       9149       9259       9260       9271       9270  
      9139       9140       9151       9150       9260       9261       9272       9271  
      9140       9141       9152       9151       9261       9262       9273       9272  
      9142       9143       9154       9153       9263       9264       9275       9274  
      9143       9144       9155       9154       9264       9265       9276       9275  
      9144       9145       9156       9155       9265       9266       9277       9276  
      9145       9146       9157       9156       9266       9267       9278       9277  
      9146       9147       9158       9157       9267       9268       9279       9278  
      9147       9148       9159       9158       9268       9269       9280       9279  
      9148       9149       9160       9159       9269       9270       9281       9280  
      9149       9150       9161       9160       9270       9271       9282       9281  
      9150       9151       9162       9161       9271       9272       9283       9282  
      9151       9152       9163       9162       9272       9273       9284       9283  
      9153       9154       9165       9164       9274       9275       9286       9285  
      9154       9155       9166       9165       9275       9276       9287       9286  
      9155       9156       9167       9166       9276       9277       9288       9287  
      9156       9157       9168       9167       9277       9278       9289       9288  
      9157       9158       9169       9168       9278       9279       9290       9289  
      9158       9159       9170       9169       9279       9280       9291       9290  
      9159       9160       9171       9170       9280       9281       9292       9291  
      9160       9161       9172       9171       9281       9282       9293       9292  
      9161       9162       9173       9172       9282       9283       9294       9293  
      9162       9163       9174       9173       9283       9284       9295       9294  
      9164       9165       9176       9175       9285       9286       9297       9296  
      9165       9166       9177       9176       9286       9287       9298       9297  
      9166       9167       9178       9177       9287       9288       9299       9298  
      9167       9168       9179       9178       9288       9289       9300       9299  
      9168       9169       9180       9179       9289       9290       9301       9300  
      9169       9170       9181       9180       9290       9291       9302       9301  
      9170       9171       9182       9181       9291       9292       9303       9302  
      9171       9172       9183       9182       9292       9293       9304       9303  
      9172       9173       9184       9183       9293       9294       9305       9304  
      9173       9174       9185       9184       9294       9295       9306       9305  
      9175       9176       9187       9186       9296       9297       9308       9307  
      9176       9177       9188       9187       9297       9298       9309       9308  
      9177       9178       9189       9188       9298       9299       9310       9309  
      9178       9179       9190       9189       9299       9300       9311       9310  
      9179       9180       9191       9190       9300       9301       9312       9311  
      9180       9181       9192       9191       9301       9302       9313       9312  
      9181       9182       9193       9192       9302       9303       9314       9313  
      9182       9183       9194       9193       9303       9304       9315       9314  
      9183       9184       9195       9194       9304       9305       9316       9315  
      9184       9185       9196       9195       9305       9306       9317       9316  
      9197       9198       9209       9208       9318       9319       9330       9329  
      9198       9199       9210       9209       9319       9320       9331       9330  
      9199       9200       9211       9210       9320       9321       9332       9331  
      9200       9201       9212       9211       9321       9322       9333       9332  
      9201       9202       9213       9212       9322       9323       9334       9333  
      9202       9203       9214       9213       9323       9324       9335       9334  
      9203       9204       9215       9214       9324       9325       9336       9335  
      9204       9205       9216       9215       9325       9326       9337       9336  
      9205       9206       9217       9216       9326       9327       9338       9337  
      9206       9207       9218       9217       9327       9328       9339       9338  
      9208       9209       9220       9219       9329       9330       9341       9340  
      9209       9210       9221       9220       9330       9331       9342       9341  
      9210       9211       9222       9221       9331       9332       9343       9342  
      9211       9212       9223       9222       9332       9333       9344       9343  
      9212       9213       9224       9223       9333       9334       9345       9344  
      9213       9214       9225       9224       9334       9335       9346       9345  
      9214       9215       9226       9225       9335       9336       9347       9346  
      9215       9216       9227       9226       9336       9337       9348       9347  
      9216       9217       9228       9227       9337       9338       9349       9348  
      9217       9218       9229       9228       9338       9339       9350       9349  
      9219       9220       9231       9230       9340       9341       9352       9351  
      9220       9221       9232       9231       9341       9342       9353       9352  
      9221       9222       9233       9232       9342       9343       9354       9353  
      9222       9223       9234       9233       9343       9344       9355       9354  
      9223       9224       9235       9234       9344       9345       9356       9355  
      9224       9225       9236       9235       9345       9346       9357       9356  
      9225       9226       9237       9236       9346       9347       9358       9357  
      9226       9227       9238       9237       9347       9348       9359       9358  
      9227       9228       9239       9238       9348       9349       9360       9359  
      9228       9229       9240       9239       9349       9350       9361       9360  
      9230       9231       9242       9241       9351       9352       9363       9362  
      9231       9232       9243       9242       9352       9353       9364       9363  
      9232       9233       9244       9243       9353       9354       9365       9364  
      9233       9234       9245       9244       9354       9355       9366       9365  
      9234       9235       9246       9245       9355       9356       9367       9366  
      9235       9236       9247       9246       9356       9357       9368       9367  
      9236       9237       9248       9247       9357       9358       9369       9368  
      9237       9238       9249       9248       9358       9359       9370       9369  
      9238       9239       9250       9249       9359       9360       9371       9370  
      9239       9240       9251       9250       9360       9361       9372       9371  
      9241       9242       9253       9252       9362       9363       9374       9373  
      9242       9243       9254       9253       9363       9364       9375       9374  
      9243       9244       9255       9254       9364       9365       9376       9375  
      9244       9245       9256       9255       9365       9366       9377       9376  
      9245       9246       9257       9256       9366       9367       9378       9377  
      9246       9247       9258       9257       9367       9368       9379       9378  
      9247       9248       9259       9258       9368       9369       9380       9379  
      9248       9249       9260       9259       9369       9370       9381       9380  
      9249       9250       9261       9260       9370       9371       9382       9381  
      9250       9251       9262       9261       9371       9372       9383       9382  
      9252       9253       9264       9263       9373       9374       9385       9384  
      9253       9254       9265       9264       9374       9375       9386       9385  
      9254       9255       9266       9265       9375       9376       9387       9386  
      9255       9256       9267       9266       9376       9377       9388       9387  
      9256       9257       9268       9267       9377       9378       9389       9388  
      9257       9258       9269       9268       9378       9379       9390       9389  
      9258       9259       9270       9269       9379       9380       9391       9390  
      9259       9260       9271       9270       9380       9381       9392       9391  
      9260       9261       9272       9271       9381       9382       9393       9392  
      9261       9262       9273       9272       9382       9383       9394       9393  
      9263       9264       9275       9274       9384       9385       9396       9395  
      9264       9265       9276       9275       9385       9386       9397       9396  
      9265       9266       9277       9276       9386       9387       9398       9397  
      9266       9267       9278       9277       9387       9388       9399       9398  
      9267       9268       9279       9278       9388       9389       9400       9399  
      9268       9269       9280       9279       9389       9390       9401       9400  
      9269       9270       9281       9280       9390       9391       9402       9401  
      9270       9271       9282       9281       9391       9392       9403       9402  
      9271       9272       9283       9282       9392       9393       9404       9403  
      9272       9273       9284       9283       9393       9394       9405       9404  
      9274       9275       9286       9285       9395       9396       9407       9406  
      9275       9276       9287       9286       9396       9397       9408       9407  
      9276       9277       9288       9287       9397       9398       9409       9408  
      9277       9278       9289       9288       9398       9399       9410       9409  
      9278       9279       9290       9289       9399       9400       9411       9410  
      9279       9280       9291       9290       9400       9401       9412       9411  
      9280       9281       9292       9291       9401       9402       9413       9412  
      9281       9282       9293       9292       9402       9403       9414       9413  
      9282       9283       9294       9293       9403       9404       9415       9414  
      9283       9284       9295       9294       9404       9405       9416       9415  
      9285       9286       9297       9296       9406       9407       9418       9417  
      9286       9287       9298       9297       9407       9408       9419       9418  
      9287       9288       9299       9298       9408       9409       9420       9419  
      9288       9289       9300       9299       9409       9410       9421       9420  
      9289       9290       9301       9300       9410       9411       9422       9421  
      9290       9291       9302       9301       9411       9412       9423       9422  
      9291       9292       9303       9302       9412       9413       9424       9423  
      9292       9293       9304       9303       9413       9414       9425       9424  
      9293       9294       9305       9304       9414       9415       9426       9425  
      9294       9295       9306       9305       9415       9416       9427       9426  
      9296       9297       9308       9307       9417       9418       9429       9428  
      9297       9298       9309       9308       9418       9419       9430       9429  
      9298       9299       9310       9309       9419       9420       9431       9430  
      9299       9300       9311       9310       9420       9421       9432       9431  
      9300       9301       9312       9311       9421       9422       9433       9432  
      9301       9302       9313       9312       9422       9423       9434       9433  
      9302       9303       9314       9313       9423       9424       9435       9434  
      9303       9304       9315       9314       9424       9425       9436       9435  
      9304       9305       9316       9315       9425       9426       9437       9436  
      9305       9306       9317       9316       9426       9427       9438       9437  
      9318       9319       9330       9329       9439       9440       9451       9450  
      9319       9320       9331       9330       9440       9441       9452       9451  
      9320       9321       9332       9331       9441       9442       9453       9452  
      9321       9322       9333       9332       9442       9443       9454       9453  
      9322       9323       9334       9333       9443       9444       9455       9454  
      9323       9324       9335       9334       9444       9445       9456       9455  
      9324       9325       9336       9335       9445       9446       9457       9456  
      9325       9326       9337       9336       9446       9447       9458       9457  
      9326       9327       9338       9337       9447       9448       9459       9458  
      9327       9328       9339       9338       9448       9449       9460       9459  
      9329       9330       9341       9340       9450       9451       9462       9461  
      9330       9331       9342       9341       9451       9452       9463       9462  
      9331       9332       9343       9342       9452       9453       9464       9463  
      9332       9333       9344       9343       9453       9454       9465       9464  
      9333       9334       9345       9344       9454       9455       9466       9465  
      9334       9335       9346       9345       9455       9456       9467       9466  
      9335       9336       9347       9346       9456       9457       9468       9467  
      9336       9337       9348       9347       9457       9458       9469       9468  
      9337       9338       9349       9348       9458       9459       9470       9469  
      9338       9339       9350       9349       9459       9460       9471       9470  
      9340       9341       9352       9351       9461       9462       9473       9472  
      9341       9342       9353       9352       9462       9463       9474       9473  
      9342       9343       9354       9353       9463       9464       9475       9474  
      9343       9344       9355       9354       9464       9465       9476       9475  
      9344       9345       9356       9355       9465       9466       9477       9476  
      9345       9346       9357       9356       9466       9467       9478       9477  
      9346       9347       9358       9357       9467       9468       9479       9478  
      9347       9348       9359       9358       9468       9469       9480       9479  
      9348       9349       9360       9359       9469       9470       9481       9480  
      9349       9350       9361       9360       9470       9471       9482       9481  
      9351       9352       9363       9362       9472       9473       9484       9483  
      9352       9353       9364       9363       9473       9474       9485       9484  
      9353       9354       9365       9364       9474       9475       9486       9485  
      9354       9355       9366       9365       9475       9476       9487       9486  
      9355       9356       9367       9366       9476       9477       9488       9487  
      9356       9357       9368       9367       9477       9478       9489       9488  
      9357       9358       9369       9368       9478       9479       9490       9489  
      9358       9359       9370       9369       9479       9480       9491       9490  
      9359       9360       9371       9370       9480       9481       9492       9491  
      9360       9361       9372       9371       9481       9482       9493       9492  
      9362       9363       9374       9373       9483       9484       9495       9494  
      9363       9364       9375       9374       9484       9485       9496       9495  
      9364       9365       9376       9375       9485       9486       9497       9496  
      9365       9366       9377       9376       9486       9487       9498       9497  
      9366       9367       9378       9377       9487       9488       9499       9498  
      9367       9368       9379       9378       9488       9489       9500       9499  
      9368       9369       9380       9379       9489       9490       9501       9500  
      9369       9370       9381       9380       9490       9491       9502       9501  
      9370       9371       9382       9381       9491       9492       9503       9502  
      9371       9372       9383       9382       9492       9493       9504       9503  
      9373       9374       9385       9384       9494       9495       9506       9505  
      9374       9375       9386       9385       9495       9496       9507       9506  
      9375       9376       9387       9386       9496       9497       9508       9507  
      9376       9377       9388       9387       9497       9498       9509       9508  
      9377       9378       9389       9388       9498       9499       9510       9509  
      9378       9379       9390       9389       9499       9500       9511       9510  
      9379       9380       9391       9390       9500       9501       9512       9511  
      9380       9381       9392       9391       9501       9502       9513       9512  
      9381       9382       9393       9392       9502       9503       9514       9513  
      9382       9383       9394       9393       9503       9504       9515       9514  
      9384       9385       9396       9395       9505       9506       9517       9516  
      9385       9386       9397       9396       9506       9507       9518       9517  
      9386       9387       9398       9397       9507       9508       9519       9518  
      9387       9388       9399       9398       9508       9509       9520       9519  
      9388       9389       9400       9399       9509       9510       9521       9520  
      9389       9390       9401       9400       9510       9511       9522       9521  
      9390       9391       9402       9401       9511       9512       9523       9522  
      9391       9392       9403       9402       9512       9513       9524       9523  
      9392       9393       9404       9403       9513       9514       9525       9524  
      9393       9394       9405       9404       9514       9515       9526       9525  
      9395       9396       9407       9406       9516       9517       9528       9527  
      9396       9397       9408       9407       9517       9518       9529       9528  
      9397       9398       9409       9408       9518       9519       9530       9529  
      9398       9399       9410       9409       9519       9520       9531       9530  
      9399       9400       9411       9410       9520       9521       9532       9531  
      9400       9401       9412       9411       9521       9522       9533       9532  
      9401       9402       9413       9412       9522       9523       9534       9533  
      9402       9403       9414       9413       9523       9524       9535       9534  
      9403       9404       9415       9414       9524       9525       9536       9535  
      9404       9405       9416       9415       9525       9526       9537       9536  
      9406       9407       9418       9417       9527       9528       9539       9538  
      9407       9408       9419       9418       9528       9529       9540       9539  
      9408       9409       9420       9419       9529       9530       9541       9540  
      9409       9410       9421       9420       9530       9531       9542       9541  
      9410       9411       9422       9421       9531       9532       9543       9542  
      9411       9412       9423       9422       9532       9533       9544       9543  
      9412       9413       9424       9423       9533       9534       9545       9544  
      9413       9414       9425       9424       9534       9535       9546       9545  
      9414       9415       9426       9425       9535       9536       9547       9546  
      9415       9416       9427       9426       9536       9537       9548       9547  
      9417       9418       9429       9428       9538       9539       9550       9549  
      9418       9419       9430       9429       9539       9540       9551       9550  
      9419       9420       9431       9430       9540       9541       9552       9551  
      9420       9421       9432       9431       9541       9542       9553       9552  
      9421       9422       9433       9432       9542       9543       9554       9553  
      9422       9423       9434       9433       9543       9544       9555       9554  
      9423       9424       9435       9434       9544       9545       9556       9555  
      9424       9425       9436       9435       9545       9546       9557       9556  
      9425       9426       9437       9436       9546       9547       9558       9557  
      9426       9427       9438       9437       9547       9548       9559       9558  
      9439       9440       9451       9450       9560       9561       9572       9571  
      9440       9441       9452       9451       9561       9562       9573       9572  
      9441       9442       9453       9452       9562       9563       9574       9573  
      9442       9443       9454       9453       9563       9564       9575       9574  
      9443       9444       9455       9454       9564       9565       9576       9575  
      9444       9445       9456       9455       9565       9566       9577       9576  
      9445       9446       9457       9456       9566       9567       9578       9577  
      9446       9447       9458       9457       9567       9568       9579       9578  
      9447       9448       9459       9458       9568       9569       9580       9579  
      9448       9449       9460       9459       9569       9570       9581       9580  
      9450       9451       9462       9461       9571       9572       9583       9582  
      9451       9452       9463       9462       9572       9573       9584       9583  
      9452       9453       9464       9463       9573       9574       9585       9584  
      9453       9454       9465       9464       9574       9575       9586       9585  
      9454       9455       9466       9465       9575       9576       9587       9586  
      9455       9456       9467       9466       9576       9577       9588       9587  
      9456       9457       9468       9467       9577       9578       9589       9588  
      9457       9458       9469       9468       9578       9579       9590       9589  
      9458       9459       9470       9469       9579       9580       9591       9590  
      9459       9460       9471       9470       9580       9581       9592       9591  
      9461       9462       9473       9472       9582       9583       9594       9593  
      9462       9463       9474       9473       9583       9584       9595       9594  
      9463       9464       9475       9474       9584       9585       9596       9595  
      9464       9465       9476       9475       9585       9586       9597       9596  
      9465       9466       9477       9476       9586       9587       9598       9597  
      9466       9467       9478       9477       9587       9588       9599       9598  
      9467       9468       9479       9478       9588       9589       9600       9599  
      9468       9469       9480       9479       9589       9590       9601       9600  
      9469       9470       9481       9480       9590       9591       9602       9601  
      9470       9471       9482       9481       9591       9592       9603       9602  
      9472       9473       9484       9483       9593       9594       9605       9604  
      9473       9474       9485       9484       9594       9595       9606       9605  
      9474       9475       9486       9485       9595       9596       9607       9606  
      9475       9476       9487       9486       9596       9597       9608       9607  
      9476       9477       9488       9487       9597       9598       9609       9608  
      9477       9478       9489       9488       9598       9599       9610       9609  
      9478       9479       9490       9489       9599       9600       9611       9610  
      9479       9480       9491       9490       9600       9601       9612       9611  
      9480       9481       9492       9491       9601       9602       9613       9612  
      9481       9482       9493       9492       9602       9603       9614       9613  
      9483       9484       9495       9494       9604       9605       9616       9615  
      9484       9485       9496       9495       9605       9606       9617       9616  
      9485       9486       9497       9496       9606       9607       9618       9617  
      9486       9487       9498       9497       9607       9608       9619       9618  
      9487       9488       9499       9498       9608       9609       9620       9619  
      9488       9489       9500       9499       9609       9610       9621       9620  
      9489       9490       9501       9500       9610       9611       9622       9621  
      9490       9491       9502       9501       9611       9612       9623       9622  
      9491       9492       9503       9502       9612       9613       9624       9623  
      9492       9493       9504       9503       9613       9614       9625       9624  
      9494       9495       9506       9505       9615       9616       9627       9626  
      9495       9496       9507       9506       9616       9617       9628       9627  
      9496       9497       9508       9507       9617       9618       9629       9628  
      9497       9498       9509       9508       9618       9619       9630       9629  
      9498       9499       9510       9509       9619       9620       9631       9630  
      9499       9500       9511       9510       9620       9621       9632       9631  
      9500       9501       9512       9511       9621       9622       9633       9632  
      9501       9502       9513       9512       9622       9623       9634       9633  
      9502       9503       9514       9513       9623       9624       9635       9634  
      9503       9504       9515       9514       9624       9625       9636       9635  
      9505       9506       9517       9516       9626       9627       9638       9637  
      9506       9507       9518       9517       9627       9628       9639       9638  
      9507       9508       9519       9518       9628       9629       9640       9639  
      9508       9509       9520       9519       9629       9630       9641       9640  
      9509       9510       9521       9520       9630       9631       9642       9641  
      9510       9511       9522       9521       9631       9632       9643       9642  
      9511       9512       9523       9522       9632       9633       9644       9643  
      9512       9513       9524       9523       9633       9634       9645       9644  
      9513       9514       9525       9524       9634       9635       9646       9645  
      9514       9515       9526       9525       9635       9636       9647       9646  
      9516       9517       9528       9527       9637       9638       9649       9648  
      9517       9518       9529       9528       9638       9639       9650       9649  
      9518       9519       9530       9529       9639       9640       9651       9650  
      9519       9520       9531       9530       9640       9641       9652       9651  
      9520       9521       9532       9531       9641       9642       9653       9652  
      9521       9522       9533       9532       9642       9643       9654       9653  
      9522       9523       9534       9533       9643       9644       9655       9654  
      9523       9524       9535       9534       9644       9645       9656       9655  
      9524       9525       9536       9535       9645       9646       9657       9656  
      9525       9526       9537       9536       9646       9647       9658       9657  
      9527       9528       9539       9538       9648       9649       9660       9659  
      9528       9529       9540       9539       9649       9650       9661       9660  
      9529       9530       9541       9540       9650       9651       9662       9661  
      9530       9531       9542       9541       9651       9652       9663       9662  
      9531       9532       9543       9542       9652       9653       9664       9663  
      9532       9533       9544       9543       9653       9654       9665       9664  
      9533       9534       9545       9544       9654       9655       9666       9665  
      9534       9535       9546       9545       9655       9656       9667       9666  
      9535       9536       9547       9546       9656       9657       9668       9667  
      9536       9537       9548       9547       9657       9658       9669       9668  
      9538       9539       9550       9549       9659       9660       9671       9670  
      9539       9540       9551       9550       9660       9661       9672       9671  
      9540       9541       9552       9551       9661       9662       9673       9672  
      9541       9542       9553       9552       9662       9663       9674       9673  
      9542       9543       9554       9553       9663       9664       9675       9674  
      9543       9544       9555       9554       9664       9665       9676       9675  
      9544       9545       9556       9555       9665       9666       9677       9676  
      9545       9546       9557       9556       9666       9667       9678       9677  
      9546       9547       9558       9557       9667       9668       9679       9678  
      9547       9548       9559       9558       9668       9669       9680       9679  
      9560       9561       9572       9571       9681       9682       9693       9692  
      9561       9562       9573       9572       9682       9683       9694       9693  
      9562       9563       9574       9573       9683       9684       9695       9694  
      9563       9564       9575       9574       9684       9685       9696       9695  
      9564       9565       9576       9575       9685       9686       9697       9696  
      9565       9566       9577       9576       9686       9687       9698       9697  
      9566       9567       9578       9577       9687       9688       9699       9698  
      9567       9568       9579       9578       9688       9689       9700       9699  
      9568       9569       9580       9579       9689       9690       9701       9700  
      9569       9570       9581       9580       9690       9691       9702       9701  
      9571       9572       9583       9582       9692       9693       9704       9703  
      9572       9573       9584       9583       9693       9694       9705       9704  
      9573       9574       9585       9584       9694       9695       9706       9705  
      9574       9575       9586       9585       9695       9696       9707       9706  
      9575       9576       9587       9586       9696       9697       9708       9707  
      9576       9577       9588       9587       9697       9698       9709       9708  
      9577       9578       9589       9588       9698       9699       9710       9709  
      9578       9579       9590       9589       9699       9700       9711       9710  
      9579       9580       9591       9590       9700       9701       9712       9711  
      9580       9581       9592       9591       9701       9702       9713       9712  
      9582       9583       9594       9593       9703       9704       9715       9714  
      9583       9584       9595       9594       9704       9705       9716       9715  
      9584       9585       9596       9595       9705       9706       9717       9716  
      9585       9586       9597       9596       9706       9707       9718       9717  
      9586       9587       9598       9597       9707       9708       9719       9718  
      9587       9588       9599       9598       9708       9709       9720       9719  
      9588       9589       9600       9599       9709       9710       9721       9720  
      9589       9590       9601       9600       9710       9711       9722       9721  
      9590       9591       9602       9601       9711       9712       9723       9722  
      9591       9592       9603       9602       9712       9713       9724       9723  
      9593       9594       9605       9604       9714       9715       9726       9725  
      9594       9595       9606       9605       9715       9716       9727       9726  
      9595       9596       9607       9606       9716       9717       9728       9727  
      9596       9597       9608       9607       9717       9718       9729       9728  
      9597       9598       9609       9608       9718       9719       9730       9729  
      9598       9599       9610       9609       9719       9720       9731       9730  
      9599       9600       9611       9610       9720       9721       9732       9731  
      9600       9601       9612       9611       9721       9722       9733       9732  
      9601       9602       9613       9612       9722       9723       9734       9733  
      9602       9603       9614       9613       9723       9724       9735       9734  
      9604       9605       9616       9615       9725       9726       9737       9736  
      9605       9606       9617       9616       9726       9727       9738       9737  
      9606       9607       9618       9617       9727       9728       9739       9738  
      9607       9608       9619       9618       9728       9729       9740       9739  
      9608       9609       9620       9619       9729       9730       9741       9740  
      9609       9610       9621       9620       9730       9731       9742       9741  
      9610       9611       9622       9621       9731       9732       9743       9742  
      9611       9612       9623       9622       9732       9733       9744       9743  
      9612       9613       9624       9623       9733       9734       9745       9744  
      9613       9614       9625       9624       9734       9735       9746       9745  
      9615       9616       9627       9626       9736       9737       9748       9747  
      9616       9617       9628       9627       9737       9738       9749       9748  
      9617       9618       9629       9628       9738       9739       9750       9749  
      9618       9619       9630       9629       9739       9740       9751       9750  
      9619       9620       9631       9630       9740       9741       9752       9751  
      9620       9621       9632       9631       9741       9742       9753       9752  
      9621       9622       9633       9632       9742       9743       9754       9753  
      9622       9623       9634       9633       9743       9744       9755       9754  
      9623       9624       9635       9634       9744       9745       9756       9755  
      9624       9625       9636       9635       9745       9746       9757       9756  
      9626       9627       9638       9637       9747       9748       9759       9758  
      9627       9628       9639       9638       9748       9749       9760       9759  
      9628       9629       9640       9639       9749       9750       9761       9760  
      9629       9630       9641       9640       9750       9751       9762       9761  
      9630       9631       9642       9641       9751       9752       9763       9762  
      9631       9632       9643       9642       9752       9753       9764       9763  
      9632       9633       9644       9643       9753       9754       9765       9764  
      9633       9634       9645       9644       9754       9755       9766       9765  
      9634       9635       9646       9645       9755       9756       9767       9766  
      9635       9636       9647       9646       9756       9757       9768       9767  
      9637       9638       9649       9648       9758       9759       9770       9769  
      9638       9639       9650       9649       9759       9760       9771       9770  
      9639       9640       9651       9650       9760       9761       9772       9771  
      9640       9641       9652       9651       9761       9762       9773       9772  
      9641       9642       9653       9652       9762       9763       9774       9773  
      9642       9643       9654       9653       9763       9764       9775       9774  
      9643       9644       9655       9654       9764       9765       9776       9775  
      9644       9645       9656       9655       9765       9766       9777       9776  
      9645       9646       9657       9656       9766       9767       9778       9777  
      9646       9647       9658       9657       9767       9768       9779       9778  
      9648       9649       9660       9659       9769       9770       9781       9780  
      9649       9650       9661       9660       9770       9771       9782       9781  
      9650       9651       9662       9661       9771       9772       9783       9782  
      9651       9652       9663       9662       9772       9773       9784       9783  
      9652       9653       9664       9663       9773       9774       9785       9784  
      9653       9654       9665       9664       9774       9775       9786       9785  
      9654       9655       9666       9665       9775       9776       9787       9786  
      9655       9656       9667       9666       9776       9777       9788       9787  
      9656       9657       9668       9667       9777       9778       9789       9788  
      9657       9658       9669       9668       9778       9779       9790       9789  
      9659       9660       9671       9670       9780       9781       9792       9791  
      9660       9661       9672       9671       9781       9782       9793       9792  
      9661       9662       9673       9672       9782       9783       9794       9793  
      9662       9663       9674       9673       9783       9784       9795       9794  
      9663       9664       9675       9674       9784       9785       9796       9795  
      9664       9665       9676       9675       9785       9786       9797       9796  
      9665       9666       9677       9676       9786       9787       9798       9797  
      9666       9667       9678       9677       9787       9788       9799       9798  
      9667       9668       9679       9678       9788       9789       9800       9799  
      9668       9669       9680       9679       9789       9790       9801       9800  
      9681       9682       9693       9692       9802       9803       9814       9813  
      9682       9683       9694       9693       9803       9804       9815       9814  
      9683       9684       9695       9694       9804       9805       9816       9815  
      9684       9685       9696       9695       9805       9806       9817       9816  
      9685       9686       9697       9696       9806       9807       9818       9817  
      9686       9687       9698       9697       9807       9808       9819       9818  
      9687       9688       9699       9698       9808       9809       9820       9819  
      9688       9689       9700       9699       9809       9810       9821       9820  
      9689       9690       9701       9700       9810       9811       9822       9821  
      9690       9691       9702       9701       9811       9812       9823       9822  
      9692       9693       9704       9703       9813       9814       9825       9824  
      9693       9694       9705       9704       9814       9815       9826       9825  
      9694       9695       9706       9705       9815       9816       9827       9826  
      9695       9696       9707       9706       9816       9817       9828       9827  
      9696       9697       9708       9707       9817       9818       9829       9828  
      9697       9698       9709       9708       9818       9819       9830       9829  
      9698       9699       9710       9709       9819       9820       9831       9830  
      9699       9700       9711       9710       9820       9821       9832       9831  
      9700       9701       9712       9711       9821       9822       9833       9832  
      9701       9702       9713       9712       9822       9823       9834       9833  
      9703       9704       9715       9714       9824       9825       9836       9835  
      9704       9705       9716       9715       9825       9826       9837       9836  
      9705       9706       9717       9716       9826       9827       9838       9837  
      9706       9707       9718       9717       9827       9828       9839       9838  
      9707       9708       9719       9718       9828       9829       9840       9839  
      9708       9709       9720       9719       9829       9830       9841       9840  
      9709       9710       9721       9720       9830       9831       9842       9841  
      9710       9711       9722       9721       9831       9832       9843       9842  
      9711       9712       9723       9722       9832       9833       9844       9843  
      9712       9713       9724       9723       9833       9834       9845       9844  
      9714       9715       9726       9725       9835       9836       9847       9846  
      9715       9716       9727       9726       9836       9837       9848       9847  
      9716       9717       9728       9727       9837       9838       9849       9848  
      9717       9718       9729       9728       9838       9839       9850       9849  
      9718       9719       9730       9729       9839       9840       9851       9850  
      9719       9720       9731       9730       9840       9841       9852       9851  
      9720       9721       9732       9731       9841       9842       9853       9852  
      9721       9722       9733       9732       9842       9843       9854       9853  
      9722       9723       9734       9733       9843       9844       9855       9854  
      9723       9724       9735       9734       9844       9845       9856       9855  
      9725       9726       9737       9736       9846       9847       9858       9857  
      9726       9727       9738       9737       9847       9848       9859       9858  
      9727       9728       9739       9738       9848       9849       9860       9859  
      9728       9729       9740       9739       9849       9850       9861       9860  
      9729       9730       9741       9740       9850       9851       9862       9861  
      9730       9731       9742       9741       9851       9852       9863       9862  
      9731       9732       9743       9742       9852       9853       9864       9863  
      9732       9733       9744       9743       9853       9854       9865       9864  
      9733       9734       9745       9744       9854       9855       9866       9865  
      9734       9735       9746       9745       9855       9856       9867       9866  
      9736       9737       9748       9747       9857       9858       9869       9868  
      9737       9738       9749       9748       9858       9859       9870       9869  
      9738       9739       9750       9749       9859       9860       9871       9870  
      9739       9740       9751       9750       9860       9861       9872       9871  
      9740       9741       9752       9751       9861       9862       9873       9872  
      9741       9742       9753       9752       9862       9863       9874       9873  
      9742       9743       9754       9753       9863       9864       9875       9874  
      9743       9744       9755       9754       9864       9865       9876       9875  
      9744       9745       9756       9755       9865       9866       9877       9876  
      9745       9746       9757       9756       9866       9867       9878       9877  
      9747       9748       9759       9758       9868       9869       9880       9879  
      9748       9749       9760       9759       9869       9870       9881       9880  
      9749       9750       9761       9760       9870       9871       9882       9881  
      9750       9751       9762       9761       9871       9872       9883       9882  
      9751       9752       9763       9762       9872       9873       9884       9883  
      9752       9753       9764       9763       9873       9874       9885       9884  
      9753       9754       9765       9764       9874       9875       9886       9885  
      9754       9755       9766       9765       9875       9876       9887       9886  
      9755       9756       9767       9766       9876       9877       9888       9887  
      9756       9757       9768       9767       9877       9878       9889       9888  
      9758       9759       9770       9769       9879       9880       9891       9890  
      9759       9760       9771       9770       9880       9881       9892       9891  
      9760       9761       9772       9771       9881       9882       9893       9892  
      9761       9762       9773       9772       9882       9883       9894       9893  
      9762       9763       9774       9773       9883       9884       9895       9894  
      9763       9764       9775       9774       9884       9885       9896       9895  
      9764       9765       9776       9775       9885       9886       9897       9896  
      9765       9766       9777       9776       9886       9887       9898       9897  
      9766       9767       9778       9777       9887       9888       9899       9898  
      9767       9768       9779       9778       9888       9889       9900       9899  
      9769       9770       9781       9780       9890       9891       9902       9901  
      9770       9771       9782       9781       9891       9892       9903       9902  
      9771       9772       9783       9782       9892       9893       9904       9903  
      9772       9773       9784       9783       9893       9894       9905       9904  
      9773       9774       9785       9784       9894       9895       9906       9905  
      9774       9775       9786       9785       9895       9896       9907       9906  
      9775       9776       9787       9786       9896       9897       9908       9907  
      9776       9777       9788       9787       9897       9898       9909       9908  
      9777       9778       9789       9788       9898       9899       9910       9909  
      9778       9779       9790       9789       9899       9900       9911       9910  
      9780       9781       9792       9791       9901       9902       9913       9912  
      9781       9782       9793       9792       9902       9903       9914       9913  
      9782       9783       9794       9793       9903       9904       9915       9914  
      9783       9784       9795       9794       9904       9905       9916       9915  
      9784       9785       9796       9795       9905       9906       9917       9916  
      9785       9786       9797       9796       9906       9907       9918       9917  
      9786       9787       9798       9797       9907       9908       9919       9918  
      9787       9788       9799       9798       9908       9909       9920       9919  
      9788       9789       9800       9799       9909       9910       9921       9920  
      9789       9790       9801       9800       9910       9911       9922       9921  
      9802       9803       9814       9813       9923       9924       9935       9934  
      9803       9804       9815       9814       9924       9925       9936       9935  
      9804       9805       9816       9815       9925       9926       9937       9936  
      9805       9806       9817       9816       9926       9927       9938       9937  
      9806       9807       9818       9817       9927       9928       9939       9938  
      9807       9808       9819       9818       9928       9929       9940       9939  
      9808       9809       9820       9819       9929       9930       9941       9940  
      9809       9810       9821       9820       9930       9931       9942       9941  
      9810       9811       9822       9821       9931       9932       9943       9942  
      9811       9812       9823       9822       9932       9933       9944       9943  
      9813       9814       9825       9824       9934       9935       9946       9945  
      9814       9815       9826       9825       9935       9936       9947       9946  
      9815       9816       9827       9826       9936       9937       9948       9947  
      9816       9817       9828       9827       9937       9938       9949       9948  
      9817       9818       9829       9828       9938       9939       9950       9949  
      9818       9819       9830       9829       9939       9940       9951       9950  
      9819       9820       9831       9830       9940       9941       9952       9951  
      9820       9821       9832       9831       9941       9942       9953       9952  
      9821       9822       9833       9832       9942       9943       9954       9953  
      9822       9823       9834       9833       9943       9944       9955       9954  
      9824       9825       9836       9835       9945       9946       9957       9956  
      9825       9826       9837       9836       9946       9947       9958       9957  
      9826       9827       9838       9837       9947       9948       9959       9958  
      9827       9828       9839       9838       9948       9949       9960       9959  
      9828       9829       9840       9839       9949       9950       9961       9960  
      9829       9830       9841       9840       9950       9951       9962       9961  
      9830       9831       9842       9841       9951       9952       9963       9962  
      9831       9832       9843       9842       9952       9953       9964       9963  
      9832       9833       9844       9843       9953       9954       9965       9964  
      9833       9834       9845       9844       9954       9955       9966       9965  
      9835       9836       9847       9846       9956       9957       9968       9967  
      9836       9837       9848       9847       9957       9958       9969       9968  
      9837       9838       9849       9848       9958       9959       9970       9969  
      9838       9839       9850       9849       9959       9960       9971       9970  
      9839       9840       9851       9850       9960       9961       9972       9971  
      9840       9841       9852       9851       9961       9962       9973       9972  
      9841       9842       9853       9852       9962       9963       9974       9973  
      9842       9843       9854       9853       9963       9964       9975       9974  
      9843       9844       9855       9854       9964       9965       9976       9975  
      9844       9845       9856       9855       9965       9966       9977       9976  
      9846       9847       9858       9857       9967       9968       9979       9978  
      9847       9848       9859       9858       9968       9969       9980       9979  
      9848       9849       9860       9859       9969       9970       9981       9980  
      9849       9850       9861       9860       9970       9971       9982       9981  
      9850       9851       9862       9861       9971       9972       9983       9982  
      9851       9852       9863       9862       9972       9973       9984       9983  
      9852       9853       9864       9863       9973       9974       9985       9984  
      9853       9854       9865       9864       9974       9975       9986       9985  
      9854       9855       9866       9865       9975       9976       9987       9986  
      9855       9856       9867       9866       9976       9977       9988       9987  
      9857       9858       9869       9868       9978       9979       9990       9989  
      9858       9859       9870       9869       9979       9980       9991       9990  
      9859       9860       9871       9870       9980       9981       9992       9991  
      9860       9861       9872       9871       9981       9982       9993       9992  
      9861       9862       9873       9872       9982       9983       9994       9993  
      9862       9863       9874       9873       9983       9984       9995       9994  
      9863       9864       9875       9874       9984       9985       9996       9995  
      9864       9865       9876       9875       9985       9986       9997       9996  
      9865       9866       9877       9876       9986       9987       9998       9997  
      9866       9867       9878       9877       9987       9988       9999       9998  
      9868       9869       9880       9879       9989       9990      10001      10000  
      9869       9870       9881       9880       9990       9991      10002      10001  
      9870       9871       9882       9881       9991       9992      10003      10002  
      9871       9872       9883       9882       9992       9993      10004      10003  
      9872       9873       9884       9883       9993       9994      10005      10004  
      9873       9874       9885       9884       9994       9995      10006      10005  
      9874       9875       9886       9885       9995       9996      10007      10006  
      9875       9876       9887       9886       9996       9997      10008      10007  
      9876       9877       9888       9887       9997       9998      10009      10008  
      9877       9878       9889       9888       9998       9999      10010      10009  
      9879       9880       9891       9890      10000      10001      10012      10011  
      9880       9881       9892       9891      10001      10002      10013      10012  
      9881       9882       9893       9892      10002      10003      10014      10013  
      9882       9883       9894       9893      10003      10004      10015      10014  
      9883       9884       9895       9894      10004      10005      10016      10015  
      9884       9885       9896       9895      10005      10006      10017      10016  
      9885       9886       9897       9896      10006      10007      10018      10017  
      9886       9887       9898       9897      10007      10008      10019      10018  
      9887       9888       9899       9898      10008      10009      10020      10019  
      9888       9889       9900       9899      10009      10010      10021      10020  
      9890       9891       9902       9901      10011      10012      10023      10022  
      9891       9892       9903       9902      10012      10013      10024      10023  
      9892       9893       9904       9903      10013      10014      10025      10024  
      9893       9894       9905       9904      10014      10015      10026      10025  
      9894       9895       9906       9905      10015      10016      10027      10026  
      9895       9896       9907       9906      10016      10017      10028      10027  
      9896       9897       9908       9907      10017      10018      10029      10028  
      9897       9898       9909       9908      10018      10019      10030      10029  
      9898       9899       9910       9909      10019      10020      10031      10030  
      9899       9900       9911       9910      10020      10021      10032      10031  
      9901       9902       9913       9912      10022      10023      10034      10033  
      9902       9903       9914       9913      10023      10024      10035      10034  
      9903       9904       9915       9914      10024      10025      10036      10035  
      9904       9905       9916       9915      10025      10026      10037      10036  
      9905       9906       9917       9916      10026      10027      10038      10037  
      9906       9907       9918       9917      10027      10028      10039      10038  
      9907       9908       9919       9918      10028      10029      10040      10039  
      9908       9909       9920       9919      10029      10030      10041      10040  
      9909       9910       9921       9920      10030      10031      10042      10041  
      9910       9911       9922       9921      10031      10032      10043      10042  
      9923       9924       9935       9934      10044      10045      10056      10055  
      9924       9925       9936       9935      10045      10046      10057      10056  
      9925       9926       9937       9936      10046      10047      10058      10057  
      9926       9927       9938       9937      10047      10048      10059      10058  
      9927       9928       9939       9938      10048      10049      10060      10059  
      9928       9929       9940       9939      10049      10050      10061      10060  
      9929       9930       9941       9940      10050      10051      10062      10061  
      9930       9931       9942       9941      10051      10052      10063      10062  
      9931       9932       9943       9942      10052      10053      10064      10063  
      9932       9933       9944       9943      10053      10054      10065      10064  
      9934       9935       9946       9945      10055      10056      10067      10066  
      9935       9936       9947       9946      10056      10057      10068      10067  
      9936       9937       9948       9947      10057      10058      10069      10068  
      9937       9938       9949       9948      10058      10059      10070      10069  
      9938       9939       9950       9949      10059      10060      10071      10070  
      9939       9940       9951       9950      10060      10061      10072      10071  
      9940       9941       9952       9951      10061      10062      10073      10072  
      9941       9942       9953       9952      10062      10063      10074      10073  
      9942       9943       9954       9953      10063      10064      10075      10074  
      9943       9944       9955       9954      10064      10065      10076      10075  
      9945       9946       9957       9956      10066      10067      10078      10077  
      9946       9947       9958       9957      10067      10068      10079      10078  
      9947       9948       9959       9958      10068      10069      10080      10079  
      9948       9949       9960       9959      10069      10070      10081      10080  
      9949       9950       9961       9960      10070      10071      10082      10081  
      9950       9951       9962       9961      10071      10072      10083      10082  
      9951       9952       9963       9962      10072      10073      10084      10083  
      9952       9953       9964       9963      10073      10074      10085      10084  
      9953       9954       9965       9964      10074      10075      10086      10085  
      9954       9955       9966       9965      10075      10076      10087      10086  
      9956       9957       9968       9967      10077      10078      10089      10088  
      9957       9958       9969       9968      10078      10079      10090      10089  
      9958       9959       9970       9969      10079      10080      10091      10090  
      9959       9960       9971       9970      10080      10081      10092      10091  
      9960       9961       9972       9971      10081      10082      10093      10092  
      9961       9962       9973       9972      10082      10083      10094      10093  
      9962       9963       9974       9973      10083      10084      10095      10094  
      9963       9964       9975       9974      10084      10085      10096      10095  
      9964       9965       9976       9975      10085      10086      10097      10096  
      9965       9966       9977       9976      10086      10087      10098      10097  
      9967       9968       9979       9978      10088      10089      10100      10099  
      9968       9969       9980       9979      10089      10090      10101      10100  
      9969       9970       9981       9980      10090      10091      10102      10101  
      9970       9971       9982       9981      10091      10092      10103      10102  
      9971       9972       9983       9982      10092      10093      10104      10103  
      9972       9973       9984       9983      10093      10094      10105      10104  
      9973       9974       9985       9984      10094      10095      10106      10105  
      9974       9975       9986       9985      10095      10096      10107      10106  
      9975       9976       9987       9986      10096      10097      10108      10107  
      9976       9977       9988       9987      10097      10098      10109      10108  
      9978       9979       9990       9989      10099      10100      10111      10110  
      9979       9980       9991       9990      10100      10101      10112      10111  
      9980       9981       9992       9991      10101      10102      10113      10112  
      9981       9982       9993       9992      10102      10103      10114      10113  
      9982       9983       9994       9993      10103      10104      10115      10114  
      9983       9984       9995       9994      10104      10105      10116      10115  
      9984       9985       9996       9995      10105      10106      10117      10116  
      9985       9986       9997       9996      10106      10107      10118      10117  
      9986       9987       9998       9997      10107      10108      10119      10118  
      9987       9988       9999       9998      10108      10109      10120      10119  
      9989       9990      10001      10000      10110      10111      10122      10121  
      9990       9991      10002      10001      10111      10112      10123      10122  
      9991       9992      10003      10002      10112      10113      10124      10123  
      9992       9993      10004      10003      10113      10114      10125      10124  
      9993       9994      10005      10004      10114      10115      10126      10125  
      9994       9995      10006      10005      10115      10116      10127      10126  
      9995       9996      10007      10006      10116      10117      10128      10127  
      9996       9997      10008      10007      10117      10118      10129      10128  
      9997       9998      10009      10008      10118      10119      10130      10129  
      9998       9999      10010      10009      10119      10120      10131      10130  
     10000      10001      10012      10011      10121      10122      10133      10132  
     10001      10002      10013      10012      10122      10123      10134      10133  
     10002      10003      10014      10013      10123      10124      10135      10134  
     10003      10004      10015      10014      10124      10125      10136      10135  
     10004      10005      10016      10015      10125      10126      10137      10136  
     10005      10006      10017      10016      10126      10127      10138      10137  
     10006      10007      10018      10017      10127      10128      10139      10138  
     10007      10008      10019      10018      10128      10129      10140      10139  
     10008      10009      10020      10019      10129      10130      10141      10140  
     10009      10010      10021      10020      10130      10131      10142      10141  
     10011      10012      10023      10022      10132      10133      10144      10143  
     10012      10013      10024      10023      10133      10134      10145      10144  
     10013      10014      10025      10024      10134      10135      10146      10145  
     10014      10015      10026      10025      10135      10136      10147      10146  
     10015      10016      10027      10026      10136      10137      10148      10147  
     10016      10017      10028      10027      10137      10138      10149      10148  
     10017      10018      10029      10028      10138      10139      10150      10149  
     10018      10019      10030      10029      10139      10140      10151      10150  
     10019      10020      10031      10030      10140      10141      10152      10151  
     10020      10021      10032      10031      10141      10142      10153      10152  
     10022      10023      10034      10033      10143      10144      10155      10154  
     10023      10024      10035      10034      10144      10145      10156      10155  
     10024      10025      10036      10035      10145      10146      10157      10156  
     10025      10026      10037      10036      10146      10147      10158      10157  
     10026      10027      10038      10037      10147      10148      10159      10158  
     10027      10028      10039      10038      10148      10149      10160      10159  
     10028      10029      10040      10039      10149      10150      10161      10160  
     10029      10030      10041      10040      10150      10151      10162      10161  
     10030      10031      10042      10041      10151      10152      10163      10162  
     10031      10032      10043      10042      10152      10153      10164      10163  
     10044      10045      10056      10055      10165      10166      10177      10176  
     10045      10046      10057      10056      10166      10167      10178      10177  
     10046      10047      10058      10057      10167      10168      10179      10178  
     10047      10048      10059      10058      10168      10169      10180      10179  
     10048      10049      10060      10059      10169      10170      10181      10180  
     10049      10050      10061      10060      10170      10171      10182      10181  
     10050      10051      10062      10061      10171      10172      10183      10182  
     10051      10052      10063      10062      10172      10173      10184      10183  
     10052      10053      10064      10063      10173      10174      10185      10184  
     10053      10054      10065      10064      10174      10175      10186      10185  
     10055      10056      10067      10066      10176      10177      10188      10187  
     10056      10057      10068      10067      10177      10178      10189      10188  
     10057      10058      10069      10068      10178      10179      10190      10189  
     10058      10059      10070      10069      10179      10180      10191      10190  
     10059      10060      10071      10070      10180      10181      10192      10191  
     10060      10061      10072      10071      10181      10182      10193      10192  
     10061      10062      10073      10072      10182      10183      10194      10193  
     10062      10063      10074      10073      10183      10184      10195      10194  
     10063      10064      10075      10074      10184      10185      10196      10195  
     10064      10065      10076      10075      10185      10186      10197      10196  
     10066      10067      10078      10077      10187      10188      10199      10198  
     10067      10068      10079      10078      10188      10189      10200      10199  
     10068      10069      10080      10079      10189      10190      10201      10200  
     10069      10070      10081      10080      10190      10191      10202      10201  
     10070      10071      10082      10081      10191      10192      10203      10202  
     10071      10072      10083      10082      10192      10193      10204      10203  
     10072      10073      10084      10083      10193      10194      10205      10204  
     10073      10074      10085      10084      10194      10195      10206      10205  
     10074      10075      10086      10085      10195      10196      10207      10206  
     10075      10076      10087      10086      10196      10197      10208      10207  
     10077      10078      10089      10088      10198      10199      10210      10209  
     10078      10079      10090      10089      10199      10200      10211      10210  
     10079      10080      10091      10090      10200      10201      10212      10211  
     10080      10081      10092      10091      10201      10202      10213      10212  
     10081      10082      10093      10092      10202      10203      10214      10213  
     10082      10083      10094      10093      10203      10204      10215      10214  
     10083      10084      10095      10094      10204      10205      10216      10215  
     10084      10085      10096      10095      10205      10206      10217      10216  
     10085      10086      10097      10096      10206      10207      10218      10217  
     10086      10087      10098      10097      10207      10208      10219      10218  
     10088      10089      10100      10099      10209      10210      10221      10220  
     10089      10090      10101      10100      10210      10211      10222      10221  
     10090      10091      10102      10101      10211      10212      10223      10222  
     10091      10092      10103      10102      10212      10213      10224      10223  
     10092      10093      10104      10103      10213      10214      10225      10224  
     10093      10094      10105      10104      10214      10215      10226      10225  
     10094      10095      10106      10105      10215      10216      10227      10226  
     10095      10096      10107      10106      10216      10217      10228      10227  
     10096      10097      10108      10107      10217      10218      10229      10228  
     10097      10098      10109      10108      10218      10219      10230      10229  
     10099      10100      10111      10110      10220      10221      10232      10231  
     10100      10101      10112      10111      10221      10222      10233      10232  
     10101      10102      10113      10112      10222      10223      10234      10233  
     10102      10103      10114      10113      10223      10224      10235      10234  
     10103      10104      10115      10114      10224      10225      10236      10235  
     10104      10105      10116      10115      10225      10226      10237      10236  
     10105      10106      10117      10116      10226      10227      10238      10237  
     10106      10107      10118      10117      10227      10228      10239      10238  
     10107      10108      10119      10118      10228      10229      10240      10239  
     10108      10109      10120      10119      10229      10230      10241      10240  
     10110      10111      10122      10121      10231      10232      10243      10242  
     10111      10112      10123      10122      10232      10233      10244      10243  
     10112      10113      10124      10123      10233      10234      10245      10244  
     10113      10114      10125      10124      10234      10235      10246      10245  
     10114      10115      10126      10125      10235      10236      10247      10246  
     10115      10116      10127      10126      10236      10237      10248      10247  
     10116      10117      10128      10127      10237      10238      10249      10248  
     10117      10118      10129      10128      10238      10239      10250      10249  
     10118      10119      10130      10129      10239      10240      10251      10250  
     10119      10120      10131      10130      10240      10241      10252      10251  
     10121      10122      10133      10132      10242      10243      10254      10253  
     10122      10123      10134      10133      10243      10244      10255      10254  
     10123      10124      10135      10134      10244      10245      10256      10255  
     10124      10125      10136      10135      10245      10246      10257      10256  
     10125      10126      10137      10136      10246      10247      10258      10257  
     10126      10127      10138      10137      10247      10248      10259      10258  
     10127      10128      10139      10138      10248      10249      10260      10259  
     10128      10129      10140      10139      10249      10250      10261      10260  
     10129      10130      10141      10140      10250      10251      10262      10261  
     10130      10131      10142      10141      10251      10252      10263      10262  
     10132      10133      10144      10143      10253      10254      10265      10264  
     10133      10134      10145      10144      10254      10255      10266      10265  
     10134      10135      10146      10145      10255      10256      10267      10266  
     10135      10136      10147      10146      10256      10257      10268      10267  
     10136      10137      10148      10147      10257      10258      10269      10268  
     10137      10138      10149      10148      10258      10259      10270      10269  
     10138      10139      10150      10149      10259      10260      10271      10270  
     10139      10140      10151      10150      10260      10261      10272      10271  
     10140      10141      10152      10151      10261      10262      10273      10272  
     10141      10142      10153      10152      10262      10263      10274      10273  
     10143      10144      10155      10154      10264      10265      10276      10275  
     10144      10145      10156      10155      10265      10266      10277      10276  
     10145      10146      10157      10156      10266      10267      10278      10277  
     10146      10147      10158      10157      10267      10268      10279      10278  
     10147      10148      10159      10158      10268      10269      10280      10279  
     10148      10149      10160      10159      10269      10270      10281      10280  
     10149      10150      10161      10160      10270      10271      10282      10281  
     10150      10151      10162      10161      10271      10272      10283      10282  
     10151      10152      10163      10162      10272      10273      10284      10283  
     10152      10153      10164      10163      10273      10274      10285      10284  
     10165      10166      10177      10176      10286      10287      10298      10297  
     10166      10167      10178      10177      10287      10288      10299      10298  
     10167      10168      10179      10178      10288      10289      10300      10299  
     10168      10169      10180      10179      10289      10290      10301      10300  
     10169      10170      10181      10180      10290      10291      10302      10301  
     10170      10171      10182      10181      10291      10292      10303      10302  
     10171      10172      10183      10182      10292      10293      10304      10303  
     10172      10173      10184      10183      10293      10294      10305      10304  
     10173      10174      10185      10184      10294      10295      10306      10305  
     10174      10175      10186      10185      10295      10296      10307      10306  
     10176      10177      10188      10187      10297      10298      10309      10308  
     10177      10178      10189      10188      10298      10299      10310      10309  
     10178      10179      10190      10189      10299      10300      10311      10310  
     10179      10180      10191      10190      10300      10301      10312      10311  
     10180      10181      10192      10191      10301      10302      10313      10312  
     10181      10182      10193      10192      10302      10303      10314      10313  
     10182      10183      10194      10193      10303      10304      10315      10314  
     10183      10184      10195      10194      10304      10305      10316      10315  
     10184      10185      10196      10195      10305      10306      10317      10316  
     10185      10186      10197      10196      10306      10307      10318      10317  
     10187      10188      10199      10198      10308      10309      10320      10319  
     10188      10189      10200      10199      10309      10310      10321      10320  
     10189      10190      10201      10200      10310      10311      10322      10321  
     10190      10191      10202      10201      10311      10312      10323      10322  
     10191      10192      10203      10202      10312      10313      10324      10323  
     10192      10193      10204      10203      10313      10314      10325      10324  
     10193      10194      10205      10204      10314      10315      10326      10325  
     10194      10195      10206      10205      10315      10316      10327      10326  
     10195      10196      10207      10206      10316      10317      10328      10327  
     10196      10197      10208      10207      10317      10318      10329      10328  
     10198      10199      10210      10209      10319      10320      10331      10330  
     10199      10200      10211      10210      10320      10321      10332      10331  
     10200      10201      10212      10211      10321      10322      10333      10332  
     10201      10202      10213      10212      10322      10323      10334      10333  
     10202      10203      10214      10213      10323      10324      10335      10334  
     10203      10204      10215      10214      10324      10325      10336      10335  
     10204      10205      10216      10215      10325      10326      10337      10336  
     10205      10206      10217      10216      10326      10327      10338      10337  
     10206      10207      10218      10217      10327      10328      10339      10338  
     10207      10208      10219      10218      10328      10329      10340      10339  
     10209      10210      10221      10220      10330      10331      10342      10341  
     10210      10211      10222      10221      10331      10332      10343      10342  
     10211      10212      10223      10222      10332      10333      10344      10343  
     10212      10213      10224      10223      10333      10334      10345      10344  
     10213      10214      10225      10224      10334      10335      10346      10345  
     10214      10215      10226      10225      10335      10336      10347      10346  
     10215      10216      10227      10226      10336      10337      10348      10347  
     10216      10217      10228      10227      10337      10338      10349      10348  
     10217      10218      10229      10228      10338      10339      10350      10349  
     10218      10219      10230      10229      10339      10340      10351      10350  
     10220      10221      10232      10231      10341      10342      10353      10352  
     10221      10222      10233      10232      10342      10343      10354      10353  
     10222      10223      10234      10233      10343      10344      10355      10354  
     10223      10224      10235      10234      10344      10345      10356      10355  
     10224      10225      10236      10235      10345      10346      10357      10356  
     10225      10226      10237      10236      10346      10347      10358      10357  
     10226      10227      10238      10237      10347      10348      10359      10358  
     10227      10228      10239      10238      10348      10349      10360      10359  
     10228      10229      10240      10239      10349      10350      10361      10360  
     10229      10230      10241      10240      10350      10351      10362      10361  
     10231      10232      10243      10242      10352      10353      10364      10363  
     10232      10233      10244      10243      10353      10354      10365      10364  
     10233      10234      10245      10244      10354      10355      10366      10365  
     10234      10235      10246      10245      10355      10356      10367      10366  
     10235      10236      10247      10246      10356      10357      10368      10367  
     10236      10237      10248      10247      10357      10358      10369      10368  
     10237      10238      10249      10248      10358      10359      10370      10369  
     10238      10239      10250      10249      10359      10360      10371      10370  
     10239      10240      10251      10250      10360      10361      10372      10371  
     10240      10241      10252      10251      10361      10362      10373      10372  
     10242      10243      10254      10253      10363      10364      10375      10374  
     10243      10244      10255      10254      10364      10365      10376      10375  
     10244      10245      10256      10255      10365      10366      10377      10376  
     10245      10246      10257      10256      10366      10367      10378      10377  
     10246      10247      10258      10257      10367      10368      10379      10378  
     10247      10248      10259      10258      10368      10369      10380      10379  
     10248      10249      10260      10259      10369      10370      10381      10380  
     10249      10250      10261      10260      10370      10371      10382      10381  
     10250      10251      10262      10261      10371      10372      10383      10382  
     10251      10252      10263      10262      10372      10373      10384      10383  
     10253      10254      10265      10264      10374      10375      10386      10385  
     10254      10255      10266      10265      10375      10376      10387      10386  
     10255      10256      10267      10266      10376      10377      10388      10387  
     10256      10257      10268      10267      10377      10378      10389      10388  
     10257      10258      10269      10268      10378      10379      10390      10389  
     10258      10259      10270      10269      10379      10380      10391      10390  
     10259      10260      10271      10270      10380      10381      10392      10391  
     10260      10261      10272      10271      10381      10382      10393      10392  
     10261      10262      10273      10272      10382      10383      10394      10393  
     10262      10263      10274      10273      10383      10384      10395      10394  
     10264      10265      10276      10275      10385      10386      10397      10396  
     10265      10266      10277      10276      10386      10387      10398      10397  
     10266      10267      10278      10277      10387      10388      10399      10398  
     10267      10268      10279      10278      10388      10389      10400      10399  
     10268      10269      10280      10279      10389      10390      10401      10400  
     10269      10270      10281      10280      10390      10391      10402      10401  
     10270      10271      10282      10281      10391      10392      10403      10402  
     10271      10272      10283      10282      10392      10393      10404      10403  
     10272      10273      10284      10283      10393      10394      10405      10404  
     10273      10274      10285      10284      10394      10395      10406      10405  
     10286      10287      10298      10297      10407      10408      10419      10418  
     10287      10288      10299      10298      10408      10409      10420      10419  
     10288      10289      10300      10299      10409      10410      10421      10420  
     10289      10290      10301      10300      10410      10411      10422      10421  
     10290      10291      10302      10301      10411      10412      10423      10422  
     10291      10292      10303      10302      10412      10413      10424      10423  
     10292      10293      10304      10303      10413      10414      10425      10424  
     10293      10294      10305      10304      10414      10415      10426      10425  
     10294      10295      10306      10305      10415      10416      10427      10426  
     10295      10296      10307      10306      10416      10417      10428      10427  
     10297      10298      10309      10308      10418      10419      10430      10429  
     10298      10299      10310      10309      10419      10420      10431      10430  
     10299      10300      10311      10310      10420      10421      10432      10431  
     10300      10301      10312      10311      10421      10422      10433      10432  
     10301      10302      10313      10312      10422      10423      10434      10433  
     10302      10303      10314      10313      10423      10424      10435      10434  
     10303      10304      10315      10314      10424      10425      10436      10435  
     10304      10305      10316      10315      10425      10426      10437      10436  
     10305      10306      10317      10316      10426      10427      10438      10437  
     10306      10307      10318      10317      10427      10428      10439      10438  
     10308      10309      10320      10319      10429      10430      10441      10440  
     10309      10310      10321      10320      10430      10431      10442      10441  
     10310      10311      10322      10321      10431      10432      10443      10442  
     10311      10312      10323      10322      10432      10433      10444      10443  
     10312      10313      10324      10323      10433      10434      10445      10444  
     10313      10314      10325      10324      10434      10435      10446      10445  
     10314      10315      10326      10325      10435      10436      10447      10446  
     10315      10316      10327      10326      10436      10437      10448      10447  
     10316      10317      10328      10327      10437      10438      10449      10448  
     10317      10318      10329      10328      10438      10439      10450      10449  
     10319      10320      10331      10330      10440      10441      10452      10451  
     10320      10321      10332      10331      10441      10442      10453      10452  
     10321      10322      10333      10332      10442      10443      10454      10453  
     10322      10323      10334      10333      10443      10444      10455      10454  
     10323      10324      10335      10334      10444      10445      10456      10455  
     10324      10325      10336      10335      10445      10446      10457      10456  
     10325      10326      10337      10336      10446      10447      10458      10457  
     10326      10327      10338      10337      10447      10448      10459      10458  
     10327      10328      10339      10338      10448      10449      10460      10459  
     10328      10329      10340      10339      10449      10450      10461      10460  
     10330      10331      10342      10341      10451      10452      10463      10462  
     10331      10332      10343      10342      10452      10453      10464      10463  
     10332      10333      10344      10343      10453      10454      10465      10464  
     10333      10334      10345      10344      10454      10455      10466      10465  
     10334      10335      10346      10345      10455      10456      10467      10466  
     10335      10336      10347      10346      10456      10457      10468      10467  
     10336      10337      10348      10347      10457      10458      10469      10468  
     10337      10338      10349      10348      10458      10459      10470      10469  
     10338      10339      10350      10349      10459      10460      10471      10470  
     10339      10340      10351      10350      10460      10461      10472      10471  
     10341      10342      10353      10352      10462      10463      10474      10473  
     10342      10343      10354      10353      10463      10464      10475      10474  
     10343      10344      10355      10354      10464      10465      10476      10475  
     10344      10345      10356      10355      10465      10466      10477      10476  
     10345      10346      10357      10356      10466      10467      10478      10477  
     10346      10347      10358      10357      10467      10468      10479      10478  
     10347      10348      10359      10358      10468      10469      10480      10479  
     10348      10349      10360      10359      10469      10470      10481      10480  
     10349      10350      10361      10360      10470      10471      10482      10481  
     10350      10351      10362      10361      10471      10472      10483      10482  
     10352      10353      10364      10363      10473      10474      10485      10484  
     10353      10354      10365      10364      10474      10475      10486      10485  
     10354      10355      10366      10365      10475      10476      10487      10486  
     10355      10356      10367      10366      10476      10477      10488      10487  
     10356      10357      10368      10367      10477      10478      10489      10488  
     10357      10358      10369      10368      10478      10479      10490      10489  
     10358      10359      10370      10369      10479      10480      10491      10490  
     10359      10360      10371      10370      10480      10481      10492      10491  
     10360      10361      10372      10371      10481      10482      10493      10492  
     10361      10362      10373      10372      10482      10483      10494      10493  
     10363      10364      10375      10374      10484      10485      10496      10495  
     10364      10365      10376      10375      10485      10486      10497      10496  
     10365      10366      10377      10376      10486      10487      10498      10497  
     10366      10367      10378      10377      10487      10488      10499      10498  
     10367      10368      10379      10378      10488      10489      10500      10499  
     10368      10369      10380      10379      10489      10490      10501      10500  
     10369      10370      10381      10380      10490      10491      10502      10501  
     10370      10371      10382      10381      10491      10492      10503      10502  
     10371      10372      10383      10382      10492      10493      10504      10503  
     10372      10373      10384      10383      10493      10494      10505      10504  
     10374      10375      10386      10385      10495      10496      10507      10506  
     10375      10376      10387      10386      10496      10497      10508      10507  
     10376      10377      10388      10387      10497      10498      10509      10508  
     10377      10378      10389      10388      10498      10499      10510      10509  
     10378      10379      10390      10389      10499      10500      10511      10510  
     10379      10380      10391      10390      10500      10501      10512      10511  
     10380      10381      10392      10391      10501      10502      10513      10512  
     10381      10382      10393      10392      10502      10503      10514      10513  
     10382      10383      10394      10393      10503      10504      10515      10514  
     10383      10384      10395      10394      10504      10505      10516      10515  
     10385      10386      10397      10396      10506      10507      10518      10517  
     10386      10387      10398      10397      10507      10508      10519      10518  
     10387      10388      10399      10398      10508      10509      10520      10519  
     10388      10389      10400      10399      10509      10510      10521      10520  
     10389      10390      10401      10400      10510      10511      10522      10521  
     10390      10391      10402      10401      10511      10512      10523      10522  
     10391      10392      10403      10402      10512      10513      10524      10523  
     10392      10393      10404      10403      10513      10514      10525      10524  
     10393      10394      10405      10404      10514      10515      10526      10525  
     10394      10395      10406      10405      10515      10516      10527      10526  
     10407      10408      10419      10418      10528      10529      10540      10539  
     10408      10409      10420      10419      10529      10530      10541      10540  
     10409      10410      10421      10420      10530      10531      10542      10541  
     10410      10411      10422      10421      10531      10532      10543      10542  
     10411      10412      10423      10422      10532      10533      10544      10543  
     10412      10413      10424      10423      10533      10534      10545      10544  
     10413      10414      10425      10424      10534      10535      10546      10545  
     10414      10415      10426      10425      10535      10536      10547      10546  
     10415      10416      10427      10426      10536      10537      10548      10547  
     10416      10417      10428      10427      10537      10538      10549      10548  
     10418      10419      10430      10429      10539      10540      10551      10550  
     10419      10420      10431      10430      10540      10541      10552      10551  
     10420      10421      10432      10431      10541      10542      10553      10552  
     10421      10422      10433      10432      10542      10543      10554      10553  
     10422      10423      10434      10433      10543      10544      10555      10554  
     10423      10424      10435      10434      10544      10545      10556      10555  
     10424      10425      10436      10435      10545      10546      10557      10556  
     10425      10426      10437      10436      10546      10547      10558      10557  
     10426      10427      10438      10437      10547      10548      10559      10558  
     10427      10428      10439      10438      10548      10549      10560      10559  
     10429      10430      10441      10440      10550      10551      10562      10561  
     10430      10431      10442      10441      10551      10552      10563      10562  
     10431      10432      10443      10442      10552      10553      10564      10563  
     10432      10433      10444      10443      10553      10554      10565      10564  
     10433      10434      10445      10444      10554      10555      10566      10565  
     10434      10435      10446      10445      10555      10556      10567      10566  
     10435      10436      10447      10446      10556      10557      10568      10567  
     10436      10437      10448      10447      10557      10558      10569      10568  
     10437      10438      10449      10448      10558      10559      10570      10569  
     10438      10439      10450      10449      10559      10560      10571      10570  
     10440      10441      10452      10451      10561      10562      10573      10572  
     10441      10442      10453      10452      10562      10563      10574      10573  
     10442      10443      10454      10453      10563      10564      10575      10574  
     10443      10444      10455      10454      10564      10565      10576      10575  
     10444      10445      10456      10455      10565      10566      10577      10576  
     10445      10446      10457      10456      10566      10567      10578      10577  
     10446      10447      10458      10457      10567      10568      10579      10578  
     10447      10448      10459      10458      10568      10569      10580      10579  
     10448      10449      10460      10459      10569      10570      10581      10580  
     10449      10450      10461      10460      10570      10571      10582      10581  
     10451      10452      10463      10462      10572      10573      10584      10583  
     10452      10453      10464      10463      10573      10574      10585      10584  
     10453      10454      10465      10464      10574      10575      10586      10585  
     10454      10455      10466      10465      10575      10576      10587      10586  
     10455      10456      10467      10466      10576      10577      10588      10587  
     10456      10457      10468      10467      10577      10578      10589      10588  
     10457      10458      10469      10468      10578      10579      10590      10589  
     10458      10459      10470      10469      10579      10580      10591      10590  
     10459      10460      10471      10470      10580      10581      10592      10591  
     10460      10461      10472      10471      10581      10582      10593      10592  
     10462      10463      10474      10473      10583      10584      10595      10594  
     10463      10464      10475      10474      10584      10585      10596      10595  
     10464      10465      10476      10475      10585      10586      10597      10596  
     10465      10466      10477      10476      10586      10587      10598      10597  
     10466      10467      10478      10477      10587      10588      10599      10598  
     10467      10468      10479      10478      10588      10589      10600      10599  
     10468      10469      10480      10479      10589      10590      10601      10600  
     10469      10470      10481      10480      10590      10591      10602      10601  
     10470      10471      10482      10481      10591      10592      10603      10602  
     10471      10472      10483      10482      10592      10593      10604      10603  
     10473      10474      10485      10484      10594      10595      10606      10605  
     10474      10475      10486      10485      10595      10596      10607      10606  
     10475      10476      10487      10486      10596      10597      10608      10607  
     10476      10477      10488      10487      10597      10598      10609      10608  
     10477      10478      10489      10488      10598      10599      10610      10609  
     10478      10479      10490      10489      10599      10600      10611      10610  
     10479      10480      10491      10490      10600      10601      10612      10611  
     10480      10481      10492      10491      10601      10602      10613      10612  
     10481      10482      10493      10492      10602      10603      10614      10613  
     10482      10483      10494      10493      10603      10604      10615      10614  
     10484      10485      10496      10495      10605      10606      10617      10616  
     10485      10486      10497      10496      10606      10607      10618      10617  
     10486      10487      10498      10497      10607      10608      10619      10618  
     10487      10488      10499      10498      10608      10609      10620      10619  
     10488      10489      10500      10499      10609      10610      10621      10620  
     10489      10490      10501      10500      10610      10611      10622      10621  
     10490      10491      10502      10501      10611      10612      10623      10622  
     10491      10492      10503      10502      10612      10613      10624      10623  
     10492      10493      10504      10503      10613      10614      10625      10624  
     10493      10494      10505      10504      10614      10615      10626      10625  
     10495      10496      10507      10506      10616      10617      10628      10627  
     10496      10497      10508      10507      10617      10618      10629      10628  
     10497      10498      10509      10508      10618      10619      10630      10629  
     10498      10499      10510      10509      10619      10620      10631      10630  
     10499      10500      10511      10510      10620      10621      10632      10631  
     10500      10501      10512      10511      10621      10622      10633      10632  
     10501      10502      10513      10512      10622      10623      10634      10633  
     10502      10503      10514      10513      10623      10624      10635      10634  
     10503      10504      10515      10514      10624      10625      10636      10635  
     10504      10505      10516      10515      10625      10626      10637      10636  
     10506      10507      10518      10517      10627      10628      10639      10638  
     10507      10508      10519      10518      10628      10629      10640      10639  
     10508      10509      10520      10519      10629      10630      10641      10640  
     10509      10510      10521      10520      10630      10631      10642      10641  
     10510      10511      10522      10521      10631      10632      10643      10642  
     10511      10512      10523      10522      10632      10633      10644      10643  
     10512      10513      10524      10523      10633      10634      10645      10644  
     10513      10514      10525      10524      10634      10635      10646      10645  
     10514      10515      10526      10525      10635      10636      10647      10646  
     10515      10516      10527      10526      10636      10637      10648      10647  
     10528      10529      10540      10539      10649      10650      10661      10660  
     10529      10530      10541      10540      10650      10651      10662      10661  
     10530      10531      10542      10541      10651      10652      10663      10662  
     10531      10532      10543      10542      10652      10653      10664      10663  
     10532      10533      10544      10543      10653      10654      10665      10664  
     10533      10534      10545      10544      10654      10655      10666      10665  
     10534      10535      10546      10545      10655      10656      10667      10666  
     10535      10536      10547      10546      10656      10657      10668      10667  
     10536      10537      10548      10547      10657      10658      10669      10668  
     10537      10538      10549      10548      10658      10659      10670      10669  
     10539      10540      10551      10550      10660      10661      10672      10671  
     10540      10541      10552      10551      10661      10662      10673      10672  
     10541      10542      10553      10552      10662      10663      10674      10673  
     10542      10543      10554      10553      10663      10664      10675      10674  
     10543      10544      10555      10554      10664      10665      10676      10675  
     10544      10545      10556      10555      10665      10666      10677      10676  
     10545      10546      10557      10556      10666      10667      10678      10677  
     10546      10547      10558      10557      10667      10668      10679      10678  
     10547      10548      10559      10558      10668      10669      10680      10679  
     10548      10549      10560      10559      10669      10670      10681      10680  
     10550      10551      10562      10561      10671      10672      10683      10682  
     10551      10552      10563      10562      10672      10673      10684      10683  
     10552      10553      10564      10563      10673      10674      10685      10684  
     10553      10554      10565      10564      10674      10675      10686      10685  
     10554      10555      10566      10565      10675      10676      10687      10686  
     10555      10556      10567      10566      10676      10677      10688      10687  
     10556      10557      10568      10567      10677      10678      10689      10688  
     10557      10558      10569      10568      10678      10679      10690      10689  
     10558      10559      10570      10569      10679      10680      10691      10690  
     10559      10560      10571      10570      10680      10681      10692      10691  
     10561      10562      10573      10572      10682      10683      10694      10693  
     10562      10563      10574      10573      10683      10684      10695      10694  
     10563      10564      10575      10574      10684      10685      10696      10695  
     10564      10565      10576      10575      10685      10686      10697      10696  
     10565      10566      10577      10576      10686      10687      10698      10697  
     10566      10567      10578      10577      10687      10688      10699      10698  
     10567      10568      10579      10578      10688      10689      10700      10699  
     10568      10569      10580      10579      10689      10690      10701      10700  
     10569      10570      10581      10580      10690      10691      10702      10701  
     10570      10571      10582      10581      10691      10692      10703      10702  
     10572      10573      10584      10583      10693      10694      10705      10704  
     10573      10574      10585      10584      10694      10695      10706      10705  
     10574      10575      10586      10585      10695      10696      10707      10706  
     10575      10576      10587      10586      10696      10697      10708      10707  
     10576      10577      10588      10587      10697      10698      10709      10708  
     10577      10578      10589      10588      10698      10699      10710      10709  
     10578      10579      10590      10589      10699      10700      10711      10710  
     10579      10580      10591      10590      10700      10701      10712      10711  
     10580      10581      10592      10591      10701      10702      10713      10712  
     10581      10582      10593      10592      10702      10703      10714      10713  
     10583      10584      10595      10594      10704      10705      10716      10715  
     10584      10585      10596      10595      10705      10706      10717      10716  
     10585      10586      10597      10596      10706      10707      10718      10717  
     10586      10587      10598      10597      10707      10708      10719      10718  
     10587      10588      10599      10598      10708      10709      10720      10719  
     10588      10589      10600      10599      10709      10710      10721      10720  
     10589      10590      10601      10600      10710      10711      10722      10721  
     10590      10591      10602      10601      10711      10712      10723      10722  
     10591      10592      10603      10602      10712      10713      10724      10723  
     10592      10593      10604      10603      10713      10714      10725      10724  
     10594      10595      10606      10605      10715      10716      10727      10726  
     10595      10596      10607      10606      10716      10717      10728      10727  
     10596      10597      10608      10607      10717      10718      10729      10728  
     10597      10598      10609      10608      10718      10719      10730      10729  
     10598      10599      10610      10609      10719      10720      10731      10730  
     10599      10600      10611      10610      10720      10721      10732      10731  
     10600      10601      10612      10611      10721      10722      10733      10732  
     10601      10602      10613      10612      10722      10723      10734      10733  
     10602      10603      10614      10613      10723      10724      10735      10734  
     10603      10604      10615      10614      10724      10725      10736      10735  
     10605      10606      10617      10616      10726      10727      10738      10737  
     10606      10607      10618      10617      10727      10728      10739      10738  
     10607      10608      10619      10618      10728      10729      10740      10739  
     10608      10609      10620      10619      10729      10730      10741      10740  
     10609      10610      10621      10620      10730      10731      10742      10741  
     10610      10611      10622      10621      10731      10732      10743      10742  
     10611      10612      10623      10622      10732      10733      10744      10743  
     10612      10613      10624      10623      10733      10734      10745      10744  
     10613      10614      10625      10624      10734      10735      10746      10745  
     10614      10615      10626      10625      10735      10736      10747      10746  
     10616      10617      10628      10627      10737      10738      10749      10748  
     10617      10618      10629      10628      10738      10739      10750      10749  
     10618      10619      10630      10629      10739      10740      10751      10750  
     10619      10620      10631      10630      10740      10741      10752      10751  
     10620      10621      10632      10631      10741      10742      10753      10752  
     10621      10622      10633      10632      10742      10743      10754      10753  
     10622      10623      10634      10633      10743      10744      10755      10754  
     10623      10624      10635      10634      10744      10745      10756      10755  
     10624      10625      10636      10635      10745      10746      10757      10756  
     10625      10626      10637      10636      10746      10747      10758      10757  
     10627      10628      10639      10638      10748      10749      10760      10759  
     10628      10629      10640      10639      10749      10750      10761      10760  
     10629      10630      10641      10640      10750      10751      10762      10761  
     10630      10631      10642      10641      10751      10752      10763      10762  
     10631      10632      10643      10642      10752      10753      10764      10763  
     10632      10633      10644      10643      10753      10754      10765      10764  
     10633      10634      10645      10644      10754      10755      10766      10765  
     10634      10635      10646      10645      10755      10756      10767      10766  
     10635      10636      10647      10646      10756      10757      10768      10767  
     10636      10637      10648      10647      10757      10758      10769      10768  
     10649      10650      10661      10660      10770      10771      10782      10781  
     10650      10651      10662      10661      10771      10772      10783      10782  
     10651      10652      10663      10662      10772      10773      10784      10783  
     10652      10653      10664      10663      10773      10774      10785      10784  
     10653      10654      10665      10664      10774      10775      10786      10785  
     10654      10655      10666      10665      10775      10776      10787      10786  
     10655      10656      10667      10666      10776      10777      10788      10787  
     10656      10657      10668      10667      10777      10778      10789      10788  
     10657      10658      10669      10668      10778      10779      10790      10789  
     10658      10659      10670      10669      10779      10780      10791      10790  
     10660      10661      10672      10671      10781      10782      10793      10792  
     10661      10662      10673      10672      10782      10783      10794      10793  
     10662      10663      10674      10673      10783      10784      10795      10794  
     10663      10664      10675      10674      10784      10785      10796      10795  
     10664      10665      10676      10675      10785      10786      10797      10796  
     10665      10666      10677      10676      10786      10787      10798      10797  
     10666      10667      10678      10677      10787      10788      10799      10798  
     10667      10668      10679      10678      10788      10789      10800      10799  
     10668      10669      10680      10679      10789      10790      10801      10800  
     10669      10670      10681      10680      10790      10791      10802      10801  
     10671      10672      10683      10682      10792      10793      10804      10803  
     10672      10673      10684      10683      10793      10794      10805      10804  
     10673      10674      10685      10684      10794      10795      10806      10805  
     10674      10675      10686      10685      10795      10796      10807      10806  
     10675      10676      10687      10686      10796      10797      10808      10807  
     10676      10677      10688      10687      10797      10798      10809      10808  
     10677      10678      10689      10688      10798      10799      10810      10809  
     10678      10679      10690      10689      10799      10800      10811      10810  
     10679      10680      10691      10690      10800      10801      10812      10811  
     10680      10681      10692      10691      10801      10802      10813      10812  
     10682      10683      10694      10693      10803      10804      10815      10814  
     10683      10684      10695      10694      10804      10805      10816      10815  
     10684      10685      10696      10695      10805      10806      10817      10816  
     10685      10686      10697      10696      10806      10807      10818      10817  
     10686      10687      10698      10697      10807      10808      10819      10818  
     10687      10688      10699      10698      10808      10809      10820      10819  
     10688      10689      10700      10699      10809      10810      10821      10820  
     10689      10690      10701      10700      10810      10811      10822      10821  
     10690      10691      10702      10701      10811      10812      10823      10822  
     10691      10692      10703      10702      10812      10813      10824      10823  
     10693      10694      10705      10704      10814      10815      10826      10825  
     10694      10695      10706      10705      10815      10816      10827      10826  
     10695      10696      10707      10706      10816      10817      10828      10827  
     10696      10697      10708      10707      10817      10818      10829      10828  
     10697      10698      10709      10708      10818      10819      10830      10829  
     10698      10699      10710      10709      10819      10820      10831      10830  
     10699      10700      10711      10710      10820      10821      10832      10831  
     10700      10701      10712      10711      10821      10822      10833      10832  
     10701      10702      10713      10712      10822      10823      10834      10833  
     10702      10703      10714      10713      10823      10824      10835      10834  
     10704      10705      10716      10715      10825      10826      10837      10836  
     10705      10706      10717      10716      10826      10827      10838      10837  
     10706      10707      10718      10717      10827      10828      10839      10838  
     10707      10708      10719      10718      10828      10829      10840      10839  
     10708      10709      10720      10719      10829      10830      10841      10840  
     10709      10710      10721      10720      10830      10831      10842      10841  
     10710      10711      10722      10721      10831      10832      10843      10842  
     10711      10712      10723      10722      10832      10833      10844      10843  
     10712      10713      10724      10723      10833      10834      10845      10844  
     10713      10714      10725      10724      10834      10835      10846      10845  
     10715      10716      10727      10726      10836      10837      10848      10847  
     10716      10717      10728      10727      10837      10838      10849      10848  
     10717      10718      10729      10728      10838      10839      10850      10849  
     10718      10719      10730      10729      10839      10840      10851      10850  
     10719      10720      10731      10730      10840      10841      10852      10851  
     10720      10721      10732      10731      10841      10842      10853      10852  
     10721      10722      10733      10732      10842      10843      10854      10853  
     10722      10723      10734      10733      10843      10844      10855      10854  
     10723      10724      10735      10734      10844      10845      10856      10855  
     10724      10725      10736      10735      10845      10846      10857      10856  
     10726      10727      10738      10737      10847      10848      10859      10858  
     10727      10728      10739      10738      10848      10849      10860      10859  
     10728      10729      10740      10739      10849      10850      10861      10860  
     10729      10730      10741      10740      10850      10851      10862      10861  
     10730      10731      10742      10741      10851      10852      10863      10862  
     10731      10732      10743      10742      10852      10853      10864      10863  
     10732      10733      10744      10743      10853      10854      10865      10864  
     10733      10734      10745      10744      10854      10855      10866      10865  
     10734      10735      10746      10745      10855      10856      10867      10866  
     10735      10736      10747      10746      10856      10857      10868      10867  
     10737      10738      10749      10748      10858      10859      10870      10869  
     10738      10739      10750      10749      10859      10860      10871      10870  
     10739      10740      10751      10750      10860      10861      10872      10871  
     10740      10741      10752      10751      10861      10862      10873      10872  
     10741      10742      10753      10752      10862      10863      10874      10873  
     10742      10743      10754      10753      10863      10864      10875      10874  
     10743      10744      10755      10754      10864      10865      10876      10875  
     10744      10745      10756      10755      10865      10866      10877      10876  
     10745      10746      10757      10756      10866      10867      10878      10877  
     10746      10747      10758      10757      10867      10868      10879      10878  
     10748      10749      10760      10759      10869      10870      10881      10880  
     10749      10750      10761      10760      10870      10871      10882      10881  
     10750      10751      10762      10761      10871      10872      10883      10882  
     10751      10752      10763      10762      10872      10873      10884      10883  
     10752      10753      10764      10763      10873      10874      10885      10884  
     10753      10754      10765      10764      10874      10875      10886      10885  
     10754      10755      10766      10765      10875      10876      10887      10886  
     10755      10756      10767      10766      10876      10877      10888      10887  
     10756      10757      10768      10767      10877      10878      10889      10888  
     10757      10758      10769      10768      10878      10879      10890      10889  
     10770      10771      10782      10781      10891      10892      10903      10902  
     10771      10772      10783      10782      10892      10893      10904      10903  
     10772      10773      10784      10783      10893      10894      10905      10904  
     10773      10774      10785      10784      10894      10895      10906      10905  
     10774      10775      10786      10785      10895      10896      10907      10906  
     10775      10776      10787      10786      10896      10897      10908      10907  
     10776      10777      10788      10787      10897      10898      10909      10908  
     10777      10778      10789      10788      10898      10899      10910      10909  
     10778      10779      10790      10789      10899      10900      10911      10910  
     10779      10780      10791      10790      10900      10901      10912      10911  
     10781      10782      10793      10792      10902      10903      10914      10913  
     10782      10783      10794      10793      10903      10904      10915      10914  
     10783      10784      10795      10794      10904      10905      10916      10915  
     10784      10785      10796      10795      10905      10906      10917      10916  
     10785      10786      10797      10796      10906      10907      10918      10917  
     10786      10787      10798      10797      10907      10908      10919      10918  
     10787      10788      10799      10798      10908      10909      10920      10919  
     10788      10789      10800      10799      10909      10910      10921      10920  
     10789      10790      10801      10800      10910      10911      10922      10921  
     10790      10791      10802      10801      10911      10912      10923      10922  
     10792      10793      10804      10803      10913      10914      10925      10924  
     10793      10794      10805      10804      10914      10915      10926      10925  
     10794      10795      10806      10805      10915      10916      10927      10926  
     10795      10796      10807      10806      10916      10917      10928      10927  
     10796      10797      10808      10807      10917      10918      10929      10928  
     10797      10798      10809      10808      10918      10919      10930      10929  
     10798      10799      10810      10809      10919      10920      10931      10930  
     10799      10800      10811      10810      10920      10921      10932      10931  
     10800      10801      10812      10811      10921      10922      10933      10932  
     10801      10802      10813      10812      10922      10923      10934      10933  
     10803      10804      10815      10814      10924      10925      10936      10935  
     10804      10805      10816      10815      10925      10926      10937      10936  
     10805      10806      10817      10816      10926      10927      10938      10937  
     10806      10807      10818      10817      10927      10928      10939      10938  
     10807      10808      10819      10818      10928      10929      10940      10939  
     10808      10809      10820      10819      10929      10930      10941      10940  
     10809      10810      10821      10820      10930      10931      10942      10941  
     10810      10811      10822      10821      10931      10932      10943      10942  
     10811      10812      10823      10822      10932      10933      10944      10943  
     10812      10813      10824      10823      10933      10934      10945      10944  
     10814      10815      10826      10825      10935      10936      10947      10946  
     10815      10816      10827      10826      10936      10937      10948      10947  
     10816      10817      10828      10827      10937      10938      10949      10948  
     10817      10818      10829      10828      10938      10939      10950      10949  
     10818      10819      10830      10829      10939      10940      10951      10950  
     10819      10820      10831      10830      10940      10941      10952      10951  
     10820      10821      10832      10831      10941      10942      10953      10952  
     10821      10822      10833      10832      10942      10943      10954      10953  
     10822      10823      10834      10833      10943      10944      10955      10954  
     10823      10824      10835      10834      10944      10945      10956      10955  
     10825      10826      10837      10836      10946      10947      10958      10957  
     10826      10827      10838      10837      10947      10948      10959      10958  
     10827      10828      10839      10838      10948      10949      10960      10959  
     10828      10829      10840      10839      10949      10950      10961      10960  
     10829      10830      10841      10840      10950      10951      10962      10961  
     10830      10831      10842      10841      10951      10952      10963      10962  
     10831      10832      10843      10842      10952      10953      10964      10963  
     10832      10833      10844      10843      10953      10954      10965      10964  
     10833      10834      10845      10844      10954      10955      10966      10965  
     10834      10835      10846      10845      10955      10956      10967      10966  
     10836      10837      10848      10847      10957      10958      10969      10968  
     10837      10838      10849      10848      10958      10959      10970      10969  
     10838      10839      10850      10849      10959      10960      10971      10970  
     10839      10840      10851      10850      10960      10961      10972      10971  
     10840      10841      10852      10851      10961      10962      10973      10972  
     10841      10842      10853      10852      10962      10963      10974      10973  
     10842      10843      10854      10853      10963      10964      10975      10974  
     10843      10844      10855      10854      10964      10965      10976      10975  
     10844      10845      10856      10855      10965      10966      10977      10976  
     10845      10846      10857      10856      10966      10967      10978      10977  
     10847      10848      10859      10858      10968      10969      10980      10979  
     10848      10849      10860      10859      10969      10970      10981      10980  
     10849      10850      10861      10860      10970      10971      10982      10981  
     10850      10851      10862      10861      10971      10972      10983      10982  
     10851      10852      10863      10862      10972      10973      10984      10983  
     10852      10853      10864      10863      10973      10974      10985      10984  
     10853      10854      10865      10864      10974      10975      10986      10985  
     10854      10855      10866      10865      10975      10976      10987      10986  
     10855      10856      10867      10866      10976      10977      10988      10987  
     10856      10857      10868      10867      10977      10978      10989      10988  
     10858      10859      10870      10869      10979      10980      10991      10990  
     10859      10860      10871      10870      10980      10981      10992      10991  
     10860      10861      10872      10871      10981      10982      10993      10992  
     10861      10862      10873      10872      10982      10983      10994      10993  
     10862      10863      10874      10873      10983      10984      10995      10994  
     10863      10864      10875      10874      10984      10985      10996      10995  
     10864      10865      10876      10875      10985      10986      10997      10996  
     10865      10866      10877      10876      10986      10987      10998      10997  
     10866      10867      10878      10877      10987      10988      10999      10998  
     10867      10868      10879      10878      10988      10989      11000      10999  
     10869      10870      10881      10880      10990      10991      11002      11001  
     10870      10871      10882      10881      10991      10992      11003      11002  
     10871      10872      10883      10882      10992      10993      11004      11003  
     10872      10873      10884      10883      10993      10994      11005      11004  
     10873      10874      10885      10884      10994      10995      11006      11005  
     10874      10875      10886      10885      10995      10996      11007      11006  
     10875      10876      10887      10886      10996      10997      11008      11007  
     10876      10877      10888      10887      10997      10998      11009      11008  
     10877      10878      10889      10888      10998      10999      11010      11009  
     10878      10879      10890      10889      10999      11000      11011      11010  
     10891      10892      10903      10902      11012      11013      11024      11023  
     10892      10893      10904      10903      11013      11014      11025      11024  
     10893      10894      10905      10904      11014      11015      11026      11025  
     10894      10895      10906      10905      11015      11016      11027      11026  
     10895      10896      10907      10906      11016      11017      11028      11027  
     10896      10897      10908      10907      11017      11018      11029      11028  
     10897      10898      10909      10908      11018      11019      11030      11029  
     10898      10899      10910      10909      11019      11020      11031      11030  
     10899      10900      10911      10910      11020      11021      11032      11031  
     10900      10901      10912      10911      11021      11022      11033      11032  
     10902      10903      10914      10913      11023      11024      11035      11034  
     10903      10904      10915      10914      11024      11025      11036      11035  
     10904      10905      10916      10915      11025      11026      11037      11036  
     10905      10906      10917      10916      11026      11027      11038      11037  
     10906      10907      10918      10917      11027      11028      11039      11038  
     10907      10908      10919      10918      11028      11029      11040      11039  
     10908      10909      10920      10919      11029      11030      11041      11040  
     10909      10910      10921      10920      11030      11031      11042      11041  
     10910      10911      10922      10921      11031      11032      11043      11042  
     10911      10912      10923      10922      11032      11033      11044      11043  
     10913      10914      10925      10924      11034      11035      11046      11045  
     10914      10915      10926      10925      11035      11036      11047      11046  
     10915      10916      10927      10926      11036      11037      11048      11047  
     10916      10917      10928      10927      11037      11038      11049      11048  
     10917      10918      10929      10928      11038      11039      11050      11049  
     10918      10919      10930      10929      11039      11040      11051      11050  
     10919      10920      10931      10930      11040      11041      11052      11051  
     10920      10921      10932      10931      11041      11042      11053      11052  
     10921      10922      10933      10932      11042      11043      11054      11053  
     10922      10923      10934      10933      11043      11044      11055      11054  
     10924      10925      10936      10935      11045      11046      11057      11056  
     10925      10926      10937      10936      11046      11047      11058      11057  
     10926      10927      10938      10937      11047      11048      11059      11058  
     10927      10928      10939      10938      11048      11049      11060      11059  
     10928      10929      10940      10939      11049      11050      11061      11060  
     10929      10930      10941      10940      11050      11051      11062      11061  
     10930      10931      10942      10941      11051      11052      11063      11062  
     10931      10932      10943      10942      11052      11053      11064      11063  
     10932      10933      10944      10943      11053      11054      11065      11064  
     10933      10934      10945      10944      11054      11055      11066      11065  
     10935      10936      10947      10946      11056      11057      11068      11067  
     10936      10937      10948      10947      11057      11058      11069      11068  
     10937      10938      10949      10948      11058      11059      11070      11069  
     10938      10939      10950      10949      11059      11060      11071      11070  
     10939      10940      10951      10950      11060      11061      11072      11071  
     10940      10941      10952      10951      11061      11062      11073      11072  
     10941      10942      10953      10952      11062      11063      11074      11073  
     10942      10943      10954      10953      11063      11064      11075      11074  
     10943      10944      10955      10954      11064      11065      11076      11075  
     10944      10945      10956      10955      11065      11066      11077      11076  
     10946      10947      10958      10957      11067      11068      11079      11078  
     10947      10948      10959      10958      11068      11069      11080      11079  
     10948      10949      10960      10959      11069      11070      11081      11080  
     10949      10950      10961      10960      11070      11071      11082      11081  
     10950      10951      10962      10961      11071      11072      11083      11082  
     10951      10952      10963      10962      11072      11073      11084      11083  
     10952      10953      10964      10963      11073      11074      11085      11084  
     10953      10954      10965      10964      11074      11075      11086      11085  
     10954      10955      10966      10965      11075      11076      11087      11086  
     10955      10956      10967      10966      11076      11077      11088      11087  
     10957      10958      10969      10968      11078      11079      11090      11089  
     10958      10959      10970      10969      11079      11080      11091      11090  
     10959      10960      10971      10970      11080      11081      11092      11091  
     10960      10961      10972      10971      11081      11082      11093      11092  
     10961      10962      10973      10972      11082      11083      11094      11093  
     10962      10963      10974      10973      11083      11084      11095      11094  
     10963      10964      10975      10974      11084      11085      11096      11095  
     10964      10965      10976      10975      11085      11086      11097      11096  
     10965      10966      10977      10976      11086      11087      11098      11097  
     10966      10967      10978      10977      11087      11088      11099      11098  
     10968      10969      10980      10979      11089      11090      11101      11100  
     10969      10970      10981      10980      11090      11091      11102      11101  
     10970      10971      10982      10981      11091      11092      11103      11102  
     10971      10972      10983      10982      11092      11093      11104      11103  
     10972      10973      10984      10983      11093      11094      11105      11104  
     10973      10974      10985      10984      11094      11095      11106      11105  
     10974      10975      10986      10985      11095      11096      11107      11106  
     10975      10976      10987      10986      11096      11097      11108      11107  
     10976      10977      10988      10987      11097      11098      11109      11108  
     10977      10978      10989      10988      11098      11099      11110      11109  
     10979      10980      10991      10990      11100      11101      11112      11111  
     10980      10981      10992      10991      11101      11102      11113      11112  
     10981      10982      10993      10992      11102      11103      11114      11113  
     10982      10983      10994      10993      11103      11104      11115      11114  
     10983      10984      10995      10994      11104      11105      11116      11115  
     10984      10985      10996      10995      11105      11106      11117      11116  
     10985      10986      10997      10996      11106      11107      11118      11117  
     10986      10987      10998      10997      11107      11108      11119      11118  
     10987      10988      10999      10998      11108      11109      11120      11119  
     10988      10989      11000      10999      11109      11110      11121      11120  
     10990      10991      11002      11001      11111      11112      11123      11122  
     10991      10992      11003      11002      11112      11113      11124      11123  
     10992      10993      11004      11003      11113      11114      11125      11124  
     10993      10994      11005      11004      11114      11115      11126      11125  
     10994      10995      11006      11005      11115      11116      11127      11126  
     10995      10996      11007      11006      11116      11117      11128      11127  
     10996      10997      11008      11007      11117      11118      11129      11128  
     10997      10998      11009      11008      11118      11119      11130      11129  
     10998      10999      11010      11009      11119      11120      11131      11130  
     10999      11000      11011      11010      11120      11121      11132      11131  
     11012      11013      11024      11023      11133      11134      11145      11144  
     11013      11014      11025      11024      11134      11135      11146      11145  
     11014      11015      11026      11025      11135      11136      11147      11146  
     11015      11016      11027      11026      11136      11137      11148      11147  
     11016      11017      11028      11027      11137      11138      11149      11148  
     11017      11018      11029      11028      11138      11139      11150      11149  
     11018      11019      11030      11029      11139      11140      11151      11150  
     11019      11020      11031      11030      11140      11141      11152      11151  
     11020      11021      11032      11031      11141      11142      11153      11152  
     11021      11022      11033      11032      11142      11143      11154      11153  
     11023      11024      11035      11034      11144      11145      11156      11155  
     11024      11025      11036      11035      11145      11146      11157      11156  
     11025      11026      11037      11036      11146      11147      11158      11157  
     11026      11027      11038      11037      11147      11148      11159      11158  
     11027      11028      11039      11038      11148      11149      11160      11159  
     11028      11029      11040      11039      11149      11150      11161      11160  
     11029      11030      11041      11040      11150      11151      11162      11161  
     11030      11031      11042      11041      11151      11152      11163      11162  
     11031      11032      11043      11042      11152      11153      11164      11163  
     11032      11033      11044      11043      11153      11154      11165      11164  
     11034      11035      11046      11045      11155      11156      11167      11166  
     11035      11036      11047      11046      11156      11157      11168      11167  
     11036      11037      11048      11047      11157      11158      11169      11168  
     11037      11038      11049      11048      11158      11159      11170      11169  
     11038      11039      11050      11049      11159      11160      11171      11170  
     11039      11040      11051      11050      11160      11161      11172      11171  
     11040      11041      11052      11051      11161      11162      11173      11172  
     11041      11042      11053      11052      11162      11163      11174      11173  
     11042      11043      11054      11053      11163      11164      11175      11174  
     11043      11044      11055      11054      11164      11165      11176      11175  
     11045      11046      11057      11056      11166      11167      11178      11177  
     11046      11047      11058      11057      11167      11168      11179      11178  
     11047      11048      11059      11058      11168      11169      11180      11179  
     11048      11049      11060      11059      11169      11170      11181      11180  
     11049      11050      11061      11060      11170      11171      11182      11181  
     11050      11051      11062      11061      11171      11172      11183      11182  
     11051      11052      11063      11062      11172      11173      11184      11183  
     11052      11053      11064      11063      11173      11174      11185      11184  
     11053      11054      11065      11064      11174      11175      11186      11185  
     11054      11055      11066      11065      11175      11176      11187      11186  
     11056      11057      11068      11067      11177      11178      11189      11188  
     11057      11058      11069      11068      11178      11179      11190      11189  
     11058      11059      11070      11069      11179      11180      11191      11190  
     11059      11060      11071      11070      11180      11181      11192      11191  
     11060      11061      11072      11071      11181      11182      11193      11192  
     11061      11062      11073      11072      11182      11183      11194      11193  
     11062      11063      11074      11073      11183      11184      11195      11194  
     11063      11064      11075      11074      11184      11185      11196      11195  
     11064      11065      11076      11075      11185      11186      11197      11196  
     11065      11066      11077      11076      11186      11187      11198      11197  
     11067      11068      11079      11078      11188      11189      11200      11199  
     11068      11069      11080      11079      11189      11190      11201      11200  
     11069      11070      11081      11080      11190      11191      11202      11201  
     11070      11071      11082      11081      11191      11192      11203      11202  
     11071      11072      11083      11082      11192      11193      11204      11203  
     11072      11073      11084      11083      11193      11194      11205      11204  
     11073      11074      11085      11084      11194      11195      11206      11205  
     11074      11075      11086      11085      11195      11196      11207      11206  
     11075      11076      11087      11086      11196      11197      11208      11207  
     11076      11077      11088      11087      11197      11198      11209      11208  
     11078      11079      11090      11089      11199      11200      11211      11210  
     11079      11080      11091      11090      11200      11201      11212      11211  
     11080      11081      11092      11091      11201      11202      11213      11212  
     11081      11082      11093      11092      11202      11203      11214      11213  
     11082      11083      11094      11093      11203      11204      11215      11214  
     11083      11084      11095      11094      11204      11205      11216      11215  
     11084      11085      11096      11095      11205      11206      11217      11216  
     11085      11086      11097      11096      11206      11207      11218      11217  
     11086      11087      11098      11097      11207      11208      11219      11218  
     11087      11088      11099      11098      11208      11209      11220      11219  
     11089      11090      11101      11100      11210      11211      11222      11221  
     11090      11091      11102      11101      11211      11212      11223      11222  
     11091      11092      11103      11102      11212      11213      11224      11223  
     11092      11093      11104      11103      11213      11214      11225      11224  
     11093      11094      11105      11104      11214      11215      11226      11225  
     11094      11095      11106      11105      11215      11216      11227      11226  
     11095      11096      11107      11106      11216      11217      11228      11227  
     11096      11097      11108      11107      11217      11218      11229      11228  
     11097      11098      11109      11108      11218      11219      11230      11229  
     11098      11099      11110      11109      11219      11220      11231      11230  
     11100      11101      11112      11111      11221      11222      11233      11232  
     11101      11102      11113      11112      11222      11223      11234      11233  
     11102      11103      11114      11113      11223      11224      11235      11234  
     11103      11104      11115      11114      11224      11225      11236      11235  
     11104      11105      11116      11115      11225      11226      11237      11236  
     11105      11106      11117      11116      11226      11227      11238      11237  
     11106      11107      11118      11117      11227      11228      11239      11238  
     11107      11108      11119      11118      11228      11229      11240      11239  
     11108      11109      11120      11119      11229      11230      11241      11240  
     11109      11110      11121      11120      11230      11231      11242      11241  
     11111      11112      11123      11122      11232      11233      11244      11243  
     11112      11113      11124      11123      11233      11234      11245      11244  
     11113      11114      11125      11124      11234      11235      11246      11245  
     11114      11115      11126      11125      11235      11236      11247      11246  
     11115      11116      11127      11126      11236      11237      11248      11247  
     11116      11117      11128      11127      11237      11238      11249      11248  
     11117      11118      11129      11128      11238      11239      11250      11249  
     11118      11119      11130      11129      11239      11240      11251      11250  
     11119      11120      11131      11130      11240      11241      11252      11251  
     11120      11121      11132      11131      11241      11242      11253      11252  
     11133      11134      11145      11144      11254      11255      11266      11265  
     11134      11135      11146      11145      11255      11256      11267      11266  
     11135      11136      11147      11146      11256      11257      11268      11267  
     11136      11137      11148      11147      11257      11258      11269      11268  
     11137      11138      11149      11148      11258      11259      11270      11269  
     11138      11139      11150      11149      11259      11260      11271      11270  
     11139      11140      11151      11150      11260      11261      11272      11271  
     11140      11141      11152      11151      11261      11262      11273      11272  
     11141      11142      11153      11152      11262      11263      11274      11273  
     11142      11143      11154      11153      11263      11264      11275      11274  
     11144      11145      11156      11155      11265      11266      11277      11276  
     11145      11146      11157      11156      11266      11267      11278      11277  
     11146      11147      11158      11157      11267      11268      11279      11278  
     11147      11148      11159      11158      11268      11269      11280      11279  
     11148      11149      11160      11159      11269      11270      11281      11280  
     11149      11150      11161      11160      11270      11271      11282      11281  
     11150      11151      11162      11161      11271      11272      11283      11282  
     11151      11152      11163      11162      11272      11273      11284      11283  
     11152      11153      11164      11163      11273      11274      11285      11284  
     11153      11154      11165      11164      11274      11275      11286      11285  
     11155      11156      11167      11166      11276      11277      11288      11287  
     11156      11157      11168      11167      11277      11278      11289      11288  
     11157      11158      11169      11168      11278      11279      11290      11289  
     11158      11159      11170      11169      11279      11280      11291      11290  
     11159      11160      11171      11170      11280      11281      11292      11291  
     11160      11161      11172      11171      11281      11282      11293      11292  
     11161      11162      11173      11172      11282      11283      11294      11293  
     11162      11163      11174      11173      11283      11284      11295      11294  
     11163      11164      11175      11174      11284      11285      11296      11295  
     11164      11165      11176      11175      11285      11286      11297      11296  
     11166      11167      11178      11177      11287      11288      11299      11298  
     11167      11168      11179      11178      11288      11289      11300      11299  
     11168      11169      11180      11179      11289      11290      11301      11300  
     11169      11170      11181      11180      11290      11291      11302      11301  
     11170      11171      11182      11181      11291      11292      11303      11302  
     11171      11172      11183      11182      11292      11293      11304      11303  
     11172      11173      11184      11183      11293      11294      11305      11304  
     11173      11174      11185      11184      11294      11295      11306      11305  
     11174      11175      11186      11185      11295      11296      11307      11306  
     11175      11176      11187      11186      11296      11297      11308      11307  
     11177      11178      11189      11188      11298      11299      11310      11309  
     11178      11179      11190      11189      11299      11300      11311      11310  
     11179      11180      11191      11190      11300      11301      11312      11311  
     11180      11181      11192      11191      11301      11302      11313      11312  
     11181      11182      11193      11192      11302      11303      11314      11313  
     11182      11183      11194      11193      11303      11304      11315      11314  
     11183      11184      11195      11194      11304      11305      11316      11315  
     11184      11185      11196      11195      11305      11306      11317      11316  
     11185      11186      11197      11196      11306      11307      11318      11317  
     11186      11187      11198      11197      11307      11308      11319      11318  
     11188      11189      11200      11199      11309      11310      11321      11320  
     11189      11190      11201      11200      11310      11311      11322      11321  
     11190      11191      11202      11201      11311      11312      11323      11322  
     11191      11192      11203      11202      11312      11313      11324      11323  
     11192      11193      11204      11203      11313      11314      11325      11324  
     11193      11194      11205      11204      11314      11315      11326      11325  
     11194      11195      11206      11205      11315      11316      11327      11326  
     11195      11196      11207      11206      11316      11317      11328      11327  
     11196      11197      11208      11207      11317      11318      11329      11328  
     11197      11198      11209      11208      11318      11319      11330      11329  
     11199      11200      11211      11210      11320      11321      11332      11331  
     11200      11201      11212      11211      11321      11322      11333      11332  
     11201      11202      11213      11212      11322      11323      11334      11333  
     11202      11203      11214      11213      11323      11324      11335      11334  
     11203      11204      11215      11214      11324      11325      11336      11335  
     11204      11205      11216      11215      11325      11326      11337      11336  
     11205      11206      11217      11216      11326      11327      11338      11337  
     11206      11207      11218      11217      11327      11328      11339      11338  
     11207      11208      11219      11218      11328      11329      11340      11339  
     11208      11209      11220      11219      11329      11330      11341      11340  
     11210      11211      11222      11221      11331      11332      11343      11342  
     11211      11212      11223      11222      11332      11333      11344      11343  
     11212      11213      11224      11223      11333      11334      11345      11344  
     11213      11214      11225      11224      11334      11335      11346      11345  
     11214      11215      11226      11225      11335      11336      11347      11346  
     11215      11216      11227      11226      11336      11337      11348      11347  
     11216      11217      11228      11227      11337      11338      11349      11348  
     11217      11218      11229      11228      11338      11339      11350      11349  
     11218      11219      11230      11229      11339      11340      11351      11350  
     11219      11220      11231      11230      11340      11341      11352      11351  
     11221      11222      11233      11232      11342      11343      11354      11353  
     11222      11223      11234      11233      11343      11344      11355      11354  
     11223      11224      11235      11234      11344      11345      11356      11355  
     11224      11225      11236      11235      11345      11346      11357      11356  
     11225      11226      11237      11236      11346      11347      11358      11357  
     11226      11227      11238      11237      11347      11348      11359      11358  
     11227      11228      11239      11238      11348      11349      11360      11359  
     11228      11229      11240      11239      11349      11350      11361      11360  
     11229      11230      11241      11240      11350      11351      11362      11361  
     11230      11231      11242      11241      11351      11352      11363      11362  
     11232      11233      11244      11243      11353      11354      11365      11364  
     11233      11234      11245      11244      11354      11355      11366      11365  
     11234      11235      11246      11245      11355      11356      11367      11366  
     11235      11236      11247      11246      11356      11357      11368      11367  
     11236      11237      11248      11247      11357      11358      11369      11368  
     11237      11238      11249      11248      11358      11359      11370      11369  
     11238      11239      11250      11249      11359      11360      11371      11370  
     11239      11240      11251      11250      11360      11361      11372      11371  
     11240      11241      11252      11251      11361      11362      11373      11372  
     11241      11242      11253      11252      11362      11363      11374      11373  
     11254      11255      11266      11265      11375      11376      11387      11386  
     11255      11256      11267      11266      11376      11377      11388      11387  
     11256      11257      11268      11267      11377      11378      11389      11388  
     11257      11258      11269      11268      11378      11379      11390      11389  
     11258      11259      11270      11269      11379      11380      11391      11390  
     11259      11260      11271      11270      11380      11381      11392      11391  
     11260      11261      11272      11271      11381      11382      11393      11392  
     11261      11262      11273      11272      11382      11383      11394      11393  
     11262      11263      11274      11273      11383      11384      11395      11394  
     11263      11264      11275      11274      11384      11385      11396      11395  
     11265      11266      11277      11276      11386      11387      11398      11397  
     11266      11267      11278      11277      11387      11388      11399      11398  
     11267      11268      11279      11278      11388      11389      11400      11399  
     11268      11269      11280      11279      11389      11390      11401      11400  
     11269      11270      11281      11280      11390      11391      11402      11401  
     11270      11271      11282      11281      11391      11392      11403      11402  
     11271      11272      11283      11282      11392      11393      11404      11403  
     11272      11273      11284      11283      11393      11394      11405      11404  
     11273      11274      11285      11284      11394      11395      11406      11405  
     11274      11275      11286      11285      11395      11396      11407      11406  
     11276      11277      11288      11287      11397      11398      11409      11408  
     11277      11278      11289      11288      11398      11399      11410      11409  
     11278      11279      11290      11289      11399      11400      11411      11410  
     11279      11280      11291      11290      11400      11401      11412      11411  
     11280      11281      11292      11291      11401      11402      11413      11412  
     11281      11282      11293      11292      11402      11403      11414      11413  
     11282      11283      11294      11293      11403      11404      11415      11414  
     11283      11284      11295      11294      11404      11405      11416      11415  
     11284      11285      11296      11295      11405      11406      11417      11416  
     11285      11286      11297      11296      11406      11407      11418      11417  
     11287      11288      11299      11298      11408      11409      11420      11419  
     11288      11289      11300      11299      11409      11410      11421      11420  
     11289      11290      11301      11300      11410      11411      11422      11421  
     11290      11291      11302      11301      11411      11412      11423      11422  
     11291      11292      11303      11302      11412      11413      11424      11423  
     11292      11293      11304      11303      11413      11414      11425      11424  
     11293      11294      11305      11304      11414      11415      11426      11425  
     11294      11295      11306      11305      11415      11416      11427      11426  
     11295      11296      11307      11306      11416      11417      11428      11427  
     11296      11297      11308      11307      11417      11418      11429      11428  
     11298      11299      11310      11309      11419      11420      11431      11430  
     11299      11300      11311      11310      11420      11421      11432      11431  
     11300      11301      11312      11311      11421      11422      11433      11432  
     11301      11302      11313      11312      11422      11423      11434      11433  
     11302      11303      11314      11313      11423      11424      11435      11434  
     11303      11304      11315      11314      11424      11425      11436      11435  
     11304      11305      11316      11315      11425      11426      11437      11436  
     11305      11306      11317      11316      11426      11427      11438      11437  
     11306      11307      11318      11317      11427      11428      11439      11438  
     11307      11308      11319      11318      11428      11429      11440      11439  
     11309      11310      11321      11320      11430      11431      11442      11441  
     11310      11311      11322      11321      11431      11432      11443      11442  
     11311      11312      11323      11322      11432      11433      11444      11443  
     11312      11313      11324      11323      11433      11434      11445      11444  
     11313      11314      11325      11324      11434      11435      11446      11445  
     11314      11315      11326      11325      11435      11436      11447      11446  
     11315      11316      11327      11326      11436      11437      11448      11447  
     11316      11317      11328      11327      11437      11438      11449      11448  
     11317      11318      11329      11328      11438      11439      11450      11449  
     11318      11319      11330      11329      11439      11440      11451      11450  
     11320      11321      11332      11331      11441      11442      11453      11452  
     11321      11322      11333      11332      11442      11443      11454      11453  
     11322      11323      11334      11333      11443      11444      11455      11454  
     11323      11324      11335      11334      11444      11445      11456      11455  
     11324      11325      11336      11335      11445      11446      11457      11456  
     11325      11326      11337      11336      11446      11447      11458      11457  
     11326      11327      11338      11337      11447      11448      11459      11458  
     11327      11328      11339      11338      11448      11449      11460      11459  
     11328      11329      11340      11339      11449      11450      11461      11460  
     11329      11330      11341      11340      11450      11451      11462      11461  
     11331      11332      11343      11342      11452      11453      11464      11463  
     11332      11333      11344      11343      11453      11454      11465      11464  
     11333      11334      11345      11344      11454      11455      11466      11465  
     11334      11335      11346      11345      11455      11456      11467      11466  
     11335      11336      11347      11346      11456      11457      11468      11467  
     11336      11337      11348      11347      11457      11458      11469      11468  
     11337      11338      11349      11348      11458      11459      11470      11469  
     11338      11339      11350      11349      11459      11460      11471      11470  
     11339      11340      11351      11350      11460      11461      11472      11471  
     11340      11341      11352      11351      11461      11462      11473      11472  
     11342      11343      11354      11353      11463      11464      11475      11474  
     11343      11344      11355      11354      11464      11465      11476      11475  
     11344      11345      11356      11355      11465      11466      11477      11476  
     11345      11346      11357      11356      11466      11467      11478      11477  
     11346      11347      11358      11357      11467      11468      11479      11478  
     11347      11348      11359      11358      11468      11469      11480      11479  
     11348      11349      11360      11359      11469      11470      11481      11480  
     11349      11350      11361      11360      11470      11471      11482      11481  
     11350      11351      11362      11361      11471      11472      11483      11482  
     11351      11352      11363      11362      11472      11473      11484      11483  
     11353      11354      11365      11364      11474      11475      11486      11485  
     11354      11355      11366      11365      11475      11476      11487      11486  
     11355      11356      11367      11366      11476      11477      11488      11487  
     11356      11357      11368      11367      11477      11478      11489      11488  
     11357      11358      11369      11368      11478      11479      11490      11489  
     11358      11359      11370      11369      11479      11480      11491      11490  
     11359      11360      11371      11370      11480      11481      11492      11491  
     11360      11361      11372      11371      11481      11482      11493      11492  
     11361      11362      11373      11372      11482      11483      11494      11493  
     11362      11363      11374      11373      11483      11484      11495      11494  
     11375      11376      11387      11386      11496      11497      11508      11507  
     11376      11377      11388      11387      11497      11498      11509      11508  
     11377      11378      11389      11388      11498      11499      11510      11509  
     11378      11379      11390      11389      11499      11500      11511      11510  
     11379      11380      11391      11390      11500      11501      11512      11511  
     11380      11381      11392      11391      11501      11502      11513      11512  
     11381      11382      11393      11392      11502      11503      11514      11513  
     11382      11383      11394      11393      11503      11504      11515      11514  
     11383      11384      11395      11394      11504      11505      11516      11515  
     11384      11385      11396      11395      11505      11506      11517      11516  
     11386      11387      11398      11397      11507      11508      11519      11518  
     11387      11388      11399      11398      11508      11509      11520      11519  
     11388      11389      11400      11399      11509      11510      11521      11520  
     11389      11390      11401      11400      11510      11511      11522      11521  
     11390      11391      11402      11401      11511      11512      11523      11522  
     11391      11392      11403      11402      11512      11513      11524      11523  
     11392      11393      11404      11403      11513      11514      11525      11524  
     11393      11394      11405      11404      11514      11515      11526      11525  
     11394      11395      11406      11405      11515      11516      11527      11526  
     11395      11396      11407      11406      11516      11517      11528      11527  
     11397      11398      11409      11408      11518      11519      11530      11529  
     11398      11399      11410      11409      11519      11520      11531      11530  
     11399      11400      11411      11410      11520      11521      11532      11531  
     11400      11401      11412      11411      11521      11522      11533      11532  
     11401      11402      11413      11412      11522      11523      11534      11533  
     11402      11403      11414      11413      11523      11524      11535      11534  
     11403      11404      11415      11414      11524      11525      11536      11535  
     11404      11405      11416      11415      11525      11526      11537      11536  
     11405      11406      11417      11416      11526      11527      11538      11537  
     11406      11407      11418      11417      11527      11528      11539      11538  
     11408      11409      11420      11419      11529      11530      11541      11540  
     11409      11410      11421      11420      11530      11531      11542      11541  
     11410      11411      11422      11421      11531      11532      11543      11542  
     11411      11412      11423      11422      11532      11533      11544      11543  
     11412      11413      11424      11423      11533      11534      11545      11544  
     11413      11414      11425      11424      11534      11535      11546      11545  
     11414      11415      11426      11425      11535      11536      11547      11546  
     11415      11416      11427      11426      11536      11537      11548      11547  
     11416      11417      11428      11427      11537      11538      11549      11548  
     11417      11418      11429      11428      11538      11539      11550      11549  
     11419      11420      11431      11430      11540      11541      11552      11551  
     11420      11421      11432      11431      11541      11542      11553      11552  
     11421      11422      11433      11432      11542      11543      11554      11553  
     11422      11423      11434      11433      11543      11544      11555      11554  
     11423      11424      11435      11434      11544      11545      11556      11555  
     11424      11425      11436      11435      11545      11546      11557      11556  
     11425      11426      11437      11436      11546      11547      11558      11557  
     11426      11427      11438      11437      11547      11548      11559      11558  
     11427      11428      11439      11438      11548      11549      11560      11559  
     11428      11429      11440      11439      11549      11550      11561      11560  
     11430      11431      11442      11441      11551      11552      11563      11562  
     11431      11432      11443      11442      11552      11553      11564      11563  
     11432      11433      11444      11443      11553      11554      11565      11564  
     11433      11434      11445      11444      11554      11555      11566      11565  
     11434      11435      11446      11445      11555      11556      11567      11566  
     11435      11436      11447      11446      11556      11557      11568      11567  
     11436      11437      11448      11447      11557      11558      11569      11568  
     11437      11438      11449      11448      11558      11559      11570      11569  
     11438      11439      11450      11449      11559      11560      11571      11570  
     11439      11440      11451      11450      11560      11561      11572      11571  
     11441      11442      11453      11452      11562      11563      11574      11573  
     11442      11443      11454      11453      11563      11564      11575      11574  
     11443      11444      11455      11454      11564      11565      11576      11575  
     11444      11445      11456      11455      11565      11566      11577      11576  
     11445      11446      11457      11456      11566      11567      11578      11577  
     11446      11447      11458      11457      11567      11568      11579      11578  
     11447      11448      11459      11458      11568      11569      11580      11579  
     11448      11449      11460      11459      11569      11570      11581      11580  
     11449      11450      11461      11460      11570      11571      11582      11581  
     11450      11451      11462      11461      11571      11572      11583      11582  
     11452      11453      11464      11463      11573      11574      11585      11584  
     11453      11454      11465      11464      11574      11575      11586      11585  
     11454      11455      11466      11465      11575      11576      11587      11586  
     11455      11456      11467      11466      11576      11577      11588      11587  
     11456      11457      11468      11467      11577      11578      11589      11588  
     11457      11458      11469      11468      11578      11579      11590      11589  
     11458      11459      11470      11469      11579      11580      11591      11590  
     11459      11460      11471      11470      11580      11581      11592      11591  
     11460      11461      11472      11471      11581      11582      11593      11592  
     11461      11462      11473      11472      11582      11583      11594      11593  
     11463      11464      11475      11474      11584      11585      11596      11595  
     11464      11465      11476      11475      11585      11586      11597      11596  
     11465      11466      11477      11476      11586      11587      11598      11597  
     11466      11467      11478      11477      11587      11588      11599      11598  
     11467      11468      11479      11478      11588      11589      11600      11599  
     11468      11469      11480      11479      11589      11590      11601      11600  
     11469      11470      11481      11480      11590      11591      11602      11601  
     11470      11471      11482      11481      11591      11592      11603      11602  
     11471      11472      11483      11482      11592      11593      11604      11603  
     11472      11473      11484      11483      11593      11594      11605      11604  
     11474      11475      11486      11485      11595      11596      11607      11606  
     11475      11476      11487      11486      11596      11597      11608      11607  
     11476      11477      11488      11487      11597      11598      11609      11608  
     11477      11478      11489      11488      11598      11599      11610      11609  
     11478      11479      11490      11489      11599      11600      11611      11610  
     11479      11480      11491      11490      11600      11601      11612      11611  
     11480      11481      11492      11491      11601      11602      11613      11612  
     11481      11482      11493      11492      11602      11603      11614      11613  
     11482      11483      11494      11493      11603      11604      11615      11614  
     11483      11484      11495      11494      11604      11605      11616      11615  
     11496      11497      11508      11507      11617      11618      11629      11628  
     11497      11498      11509      11508      11618      11619      11630      11629  
     11498      11499      11510      11509      11619      11620      11631      11630  
     11499      11500      11511      11510      11620      11621      11632      11631  
     11500      11501      11512      11511      11621      11622      11633      11632  
     11501      11502      11513      11512      11622      11623      11634      11633  
     11502      11503      11514      11513      11623      11624      11635      11634  
     11503      11504      11515      11514      11624      11625      11636      11635  
     11504      11505      11516      11515      11625      11626      11637      11636  
     11505      11506      11517      11516      11626      11627      11638      11637  
     11507      11508      11519      11518      11628      11629      11640      11639  
     11508      11509      11520      11519      11629      11630      11641      11640  
     11509      11510      11521      11520      11630      11631      11642      11641  
     11510      11511      11522      11521      11631      11632      11643      11642  
     11511      11512      11523      11522      11632      11633      11644      11643  
     11512      11513      11524      11523      11633      11634      11645      11644  
     11513      11514      11525      11524      11634      11635      11646      11645  
     11514      11515      11526      11525      11635      11636      11647      11646  
     11515      11516      11527      11526      11636      11637      11648      11647  
     11516      11517      11528      11527      11637      11638      11649      11648  
     11518      11519      11530      11529      11639      11640      11651      11650  
     11519      11520      11531      11530      11640      11641      11652      11651  
     11520      11521      11532      11531      11641      11642      11653      11652  
     11521      11522      11533      11532      11642      11643      11654      11653  
     11522      11523      11534      11533      11643      11644      11655      11654  
     11523      11524      11535      11534      11644      11645      11656      11655  
     11524      11525      11536      11535      11645      11646      11657      11656  
     11525      11526      11537      11536      11646      11647      11658      11657  
     11526      11527      11538      11537      11647      11648      11659      11658  
     11527      11528      11539      11538      11648      11649      11660      11659  
     11529      11530      11541      11540      11650      11651      11662      11661  
     11530      11531      11542      11541      11651      11652      11663      11662  
     11531      11532      11543      11542      11652      11653      11664      11663  
     11532      11533      11544      11543      11653      11654      11665      11664  
     11533      11534      11545      11544      11654      11655      11666      11665  
     11534      11535      11546      11545      11655      11656      11667      11666  
     11535      11536      11547      11546      11656      11657      11668      11667  
     11536      11537      11548      11547      11657      11658      11669      11668  
     11537      11538      11549      11548      11658      11659      11670      11669  
     11538      11539      11550      11549      11659      11660      11671      11670  
     11540      11541      11552      11551      11661      11662      11673      11672  
     11541      11542      11553      11552      11662      11663      11674      11673  
     11542      11543      11554      11553      11663      11664      11675      11674  
     11543      11544      11555      11554      11664      11665      11676      11675  
     11544      11545      11556      11555      11665      11666      11677      11676  
     11545      11546      11557      11556      11666      11667      11678      11677  
     11546      11547      11558      11557      11667      11668      11679      11678  
     11547      11548      11559      11558      11668      11669      11680      11679  
     11548      11549      11560      11559      11669      11670      11681      11680  
     11549      11550      11561      11560      11670      11671      11682      11681  
     11551      11552      11563      11562      11672      11673      11684      11683  
     11552      11553      11564      11563      11673      11674      11685      11684  
     11553      11554      11565      11564      11674      11675      11686      11685  
     11554      11555      11566      11565      11675      11676      11687      11686  
     11555      11556      11567      11566      11676      11677      11688      11687  
     11556      11557      11568      11567      11677      11678      11689      11688  
     11557      11558      11569      11568      11678      11679      11690      11689  
     11558      11559      11570      11569      11679      11680      11691      11690  
     11559      11560      11571      11570      11680      11681      11692      11691  
     11560      11561      11572      11571      11681      11682      11693      11692  
     11562      11563      11574      11573      11683      11684      11695      11694  
     11563      11564      11575      11574      11684      11685      11696      11695  
     11564      11565      11576      11575      11685      11686      11697      11696  
     11565      11566      11577      11576      11686      11687      11698      11697  
     11566      11567      11578      11577      11687      11688      11699      11698  
     11567      11568      11579      11578      11688      11689      11700      11699  
     11568      11569      11580      11579      11689      11690      11701      11700  
     11569      11570      11581      11580      11690      11691      11702      11701  
     11570      11571      11582      11581      11691      11692      11703      11702  
     11571      11572      11583      11582      11692      11693      11704      11703  
     11573      11574      11585      11584      11694      11695      11706      11705  
     11574      11575      11586      11585      11695      11696      11707      11706  
     11575      11576      11587      11586      11696      11697      11708      11707  
     11576      11577      11588      11587      11697      11698      11709      11708  
     11577      11578      11589      11588      11698      11699      11710      11709  
     11578      11579      11590      11589      11699      11700      11711      11710  
     11579      11580      11591      11590      11700      11701      11712      11711  
     11580      11581      11592      11591      11701      11702      11713      11712  
     11581      11582      11593      11592      11702      11703      11714      11713  
     11582      11583      11594      11593      11703      11704      11715      11714  
     11584      11585      11596      11595      11705      11706      11717      11716  
     11585      11586      11597      11596      11706      11707      11718      11717  
     11586      11587      11598      11597      11707      11708      11719      11718  
     11587      11588      11599      11598      11708      11709      11720      11719  
     11588      11589      11600      11599      11709      11710      11721      11720  
     11589      11590      11601      11600      11710      11711      11722      11721  
     11590      11591      11602      11601      11711      11712      11723      11722  
     11591      11592      11603      11602      11712      11713      11724      11723  
     11592      11593      11604      11603      11713      11714      11725      11724  
     11593      11594      11605      11604      11714      11715      11726      11725  
     11595      11596      11607      11606      11716      11717      11728      11727  
     11596      11597      11608      11607      11717      11718      11729      11728  
     11597      11598      11609      11608      11718      11719      11730      11729  
     11598      11599      11610      11609      11719      11720      11731      11730  
     11599      11600      11611      11610      11720      11721      11732      11731  
     11600      11601      11612      11611      11721      11722      11733      11732  
     11601      11602      11613      11612      11722      11723      11734      11733  
     11602      11603      11614      11613      11723      11724      11735      11734  
     11603      11604      11615      11614      11724      11725      11736      11735  
     11604      11605      11616      11615      11725      11726      11737      11736  
     11617      11618      11629      11628      11738      11739      11750      11749  
     11618      11619      11630      11629      11739      11740      11751      11750  
     11619      11620      11631      11630      11740      11741      11752      11751  
     11620      11621      11632      11631      11741      11742      11753      11752  
     11621      11622      11633      11632      11742      11743      11754      11753  
     11622      11623      11634      11633      11743      11744      11755      11754  
     11623      11624      11635      11634      11744      11745      11756      11755  
     11624      11625      11636      11635      11745      11746      11757      11756  
     11625      11626      11637      11636      11746      11747      11758      11757  
     11626      11627      11638      11637      11747      11748      11759      11758  
     11628      11629      11640      11639      11749      11750      11761      11760  
     11629      11630      11641      11640      11750      11751      11762      11761  
     11630      11631      11642      11641      11751      11752      11763      11762  
     11631      11632      11643      11642      11752      11753      11764      11763  
     11632      11633      11644      11643      11753      11754      11765      11764  
     11633      11634      11645      11644      11754      11755      11766      11765  
     11634      11635      11646      11645      11755      11756      11767      11766  
     11635      11636      11647      11646      11756      11757      11768      11767  
     11636      11637      11648      11647      11757      11758      11769      11768  
     11637      11638      11649      11648      11758      11759      11770      11769  
     11639      11640      11651      11650      11760      11761      11772      11771  
     11640      11641      11652      11651      11761      11762      11773      11772  
     11641      11642      11653      11652      11762      11763      11774      11773  
     11642      11643      11654      11653      11763      11764      11775      11774  
     11643      11644      11655      11654      11764      11765      11776      11775  
     11644      11645      11656      11655      11765      11766      11777      11776  
     11645      11646      11657      11656      11766      11767      11778      11777  
     11646      11647      11658      11657      11767      11768      11779      11778  
     11647      11648      11659      11658      11768      11769      11780      11779  
     11648      11649      11660      11659      11769      11770      11781      11780  
     11650      11651      11662      11661      11771      11772      11783      11782  
     11651      11652      11663      11662      11772      11773      11784      11783  
     11652      11653      11664      11663      11773      11774      11785      11784  
     11653      11654      11665      11664      11774      11775      11786      11785  
     11654      11655      11666      11665      11775      11776      11787      11786  
     11655      11656      11667      11666      11776      11777      11788      11787  
     11656      11657      11668      11667      11777      11778      11789      11788  
     11657      11658      11669      11668      11778      11779      11790      11789  
     11658      11659      11670      11669      11779      11780      11791      11790  
     11659      11660      11671      11670      11780      11781      11792      11791  
     11661      11662      11673      11672      11782      11783      11794      11793  
     11662      11663      11674      11673      11783      11784      11795      11794  
     11663      11664      11675      11674      11784      11785      11796      11795  
     11664      11665      11676      11675      11785      11786      11797      11796  
     11665      11666      11677      11676      11786      11787      11798      11797  
     11666      11667      11678      11677      11787      11788      11799      11798  
     11667      11668      11679      11678      11788      11789      11800      11799  
     11668      11669      11680      11679      11789      11790      11801      11800  
     11669      11670      11681      11680      11790      11791      11802      11801  
     11670      11671      11682      11681      11791      11792      11803      11802  
     11672      11673      11684      11683      11793      11794      11805      11804  
     11673      11674      11685      11684      11794      11795      11806      11805  
     11674      11675      11686      11685      11795      11796      11807      11806  
     11675      11676      11687      11686      11796      11797      11808      11807  
     11676      11677      11688      11687      11797      11798      11809      11808  
     11677      11678      11689      11688      11798      11799      11810      11809  
     11678      11679      11690      11689      11799      11800      11811      11810  
     11679      11680      11691      11690      11800      11801      11812      11811  
     11680      11681      11692      11691      11801      11802      11813      11812  
     11681      11682      11693      11692      11802      11803      11814      11813  
     11683      11684      11695      11694      11804      11805      11816      11815  
     11684      11685      11696      11695      11805      11806      11817      11816  
     11685      11686      11697      11696      11806      11807      11818      11817  
     11686      11687      11698      11697      11807      11808      11819      11818  
     11687      11688      11699      11698      11808      11809      11820      11819  
     11688      11689      11700      11699      11809      11810      11821      11820  
     11689      11690      11701      11700      11810      11811      11822      11821  
     11690      11691      11702      11701      11811      11812      11823      11822  
     11691      11692      11703      11702      11812      11813      11824      11823  
     11692      11693      11704      11703      11813      11814      11825      11824  
     11694      11695      11706      11705      11815      11816      11827      11826  
     11695      11696      11707      11706      11816      11817      11828      11827  
     11696      11697      11708      11707      11817      11818      11829      11828  
     11697      11698      11709      11708      11818      11819      11830      11829  
     11698      11699      11710      11709      11819      11820      11831      11830  
     11699      11700      11711      11710      11820      11821      11832      11831  
     11700      11701      11712      11711      11821      11822      11833      11832  
     11701      11702      11713      11712      11822      11823      11834      11833  
     11702      11703      11714      11713      11823      11824      11835      11834  
     11703      11704      11715      11714      11824      11825      11836      11835  
     11705      11706      11717      11716      11826      11827      11838      11837  
     11706      11707      11718      11717      11827      11828      11839      11838  
     11707      11708      11719      11718      11828      11829      11840      11839  
     11708      11709      11720      11719      11829      11830      11841      11840  
     11709      11710      11721      11720      11830      11831      11842      11841  
     11710      11711      11722      11721      11831      11832      11843      11842  
     11711      11712      11723      11722      11832      11833      11844      11843  
     11712      11713      11724      11723      11833      11834      11845      11844  
     11713      11714      11725      11724      11834      11835      11846      11845  
     11714      11715      11726      11725      11835      11836      11847      11846  
     11716      11717      11728      11727      11837      11838      11849      11848  
     11717      11718      11729      11728      11838      11839      11850      11849  
     11718      11719      11730      11729      11839      11840      11851      11850  
     11719      11720      11731      11730      11840      11841      11852      11851  
     11720      11721      11732      11731      11841      11842      11853      11852  
     11721      11722      11733      11732      11842      11843      11854      11853  
     11722      11723      11734      11733      11843      11844      11855      11854  
     11723      11724      11735      11734      11844      11845      11856      11855  
     11724      11725      11736      11735      11845      11846      11857      11856  
     11725      11726      11737      11736      11846      11847      11858      11857  
     11738      11739      11750      11749      11859      11860      11871      11870  
     11739      11740      11751      11750      11860      11861      11872      11871  
     11740      11741      11752      11751      11861      11862      11873      11872  
     11741      11742      11753      11752      11862      11863      11874      11873  
     11742      11743      11754      11753      11863      11864      11875      11874  
     11743      11744      11755      11754      11864      11865      11876      11875  
     11744      11745      11756      11755      11865      11866      11877      11876  
     11745      11746      11757      11756      11866      11867      11878      11877  
     11746      11747      11758      11757      11867      11868      11879      11878  
     11747      11748      11759      11758      11868      11869      11880      11879  
     11749      11750      11761      11760      11870      11871      11882      11881  
     11750      11751      11762      11761      11871      11872      11883      11882  
     11751      11752      11763      11762      11872      11873      11884      11883  
     11752      11753      11764      11763      11873      11874      11885      11884  
     11753      11754      11765      11764      11874      11875      11886      11885  
     11754      11755      11766      11765      11875      11876      11887      11886  
     11755      11756      11767      11766      11876      11877      11888      11887  
     11756      11757      11768      11767      11877      11878      11889      11888  
     11757      11758      11769      11768      11878      11879      11890      11889  
     11758      11759      11770      11769      11879      11880      11891      11890  
     11760      11761      11772      11771      11881      11882      11893      11892  
     11761      11762      11773      11772      11882      11883      11894      11893  
     11762      11763      11774      11773      11883      11884      11895      11894  
     11763      11764      11775      11774      11884      11885      11896      11895  
     11764      11765      11776      11775      11885      11886      11897      11896  
     11765      11766      11777      11776      11886      11887      11898      11897  
     11766      11767      11778      11777      11887      11888      11899      11898  
     11767      11768      11779      11778      11888      11889      11900      11899  
     11768      11769      11780      11779      11889      11890      11901      11900  
     11769      11770      11781      11780      11890      11891      11902      11901  
     11771      11772      11783      11782      11892      11893      11904      11903  
     11772      11773      11784      11783      11893      11894      11905      11904  
     11773      11774      11785      11784      11894      11895      11906      11905  
     11774      11775      11786      11785      11895      11896      11907      11906  
     11775      11776      11787      11786      11896      11897      11908      11907  
     11776      11777      11788      11787      11897      11898      11909      11908  
     11777      11778      11789      11788      11898      11899      11910      11909  
     11778      11779      11790      11789      11899      11900      11911      11910  
     11779      11780      11791      11790      11900      11901      11912      11911  
     11780      11781      11792      11791      11901      11902      11913      11912  
     11782      11783      11794      11793      11903      11904      11915      11914  
     11783      11784      11795      11794      11904      11905      11916      11915  
     11784      11785      11796      11795      11905      11906      11917      11916  
     11785      11786      11797      11796      11906      11907      11918      11917  
     11786      11787      11798      11797      11907      11908      11919      11918  
     11787      11788      11799      11798      11908      11909      11920      11919  
     11788      11789      11800      11799      11909      11910      11921      11920  
     11789      11790      11801      11800      11910      11911      11922      11921  
     11790      11791      11802      11801      11911      11912      11923      11922  
     11791      11792      11803      11802      11912      11913      11924      11923  
     11793      11794      11805      11804      11914      11915      11926      11925  
     11794      11795      11806      11805      11915      11916      11927      11926  
     11795      11796      11807      11806      11916      11917      11928      11927  
     11796      11797      11808      11807      11917      11918      11929      11928  
     11797      11798      11809      11808      11918      11919      11930      11929  
     11798      11799      11810      11809      11919      11920      11931      11930  
     11799      11800      11811      11810      11920      11921      11932      11931  
     11800      11801      11812      11811      11921      11922      11933      11932  
     11801      11802      11813      11812      11922      11923      11934      11933  
     11802      11803      11814      11813      11923      11924      11935      11934  
     11804      11805      11816      11815      11925      11926      11937      11936  
     11805      11806      11817      11816      11926      11927      11938      11937  
     11806      11807      11818      11817      11927      11928      11939      11938  
     11807      11808      11819      11818      11928      11929      11940      11939  
     11808      11809      11820      11819      11929      11930      11941      11940  
     11809      11810      11821      11820      11930      11931      11942      11941  
     11810      11811      11822      11821      11931      11932      11943      11942  
     11811      11812      11823      11822      11932      11933      11944      11943  
     11812      11813      11824      11823      11933      11934      11945      11944  
     11813      11814      11825      11824      11934      11935      11946      11945  
     11815      11816      11827      11826      11936      11937      11948      11947  
     11816      11817      11828      11827      11937      11938      11949      11948  
     11817      11818      11829      11828      11938      11939      11950      11949  
     11818      11819      11830      11829      11939      11940      11951      11950  
     11819      11820      11831      11830      11940      11941      11952      11951  
     11820      11821      11832      11831      11941      11942      11953      11952  
     11821      11822      11833      11832      11942      11943      11954      11953  
     11822      11823      11834      11833      11943      11944      11955      11954  
     11823      11824      11835      11834      11944      11945      11956      11955  
     11824      11825      11836      11835      11945      11946      11957      11956  
     11826      11827      11838      11837      11947      11948      11959      11958  
     11827      11828      11839      11838      11948      11949      11960      11959  
     11828      11829      11840      11839      11949      11950      11961      11960  
     11829      11830      11841      11840      11950      11951      11962      11961  
     11830      11831      11842      11841      11951      11952      11963      11962  
     11831      11832      11843      11842      11952      11953      11964      11963  
     11832      11833      11844      11843      11953      11954      11965      11964  
     11833      11834      11845      11844      11954      11955      11966      11965  
     11834      11835      11846      11845      11955      11956      11967      11966  
     11835      11836      11847      11846      11956      11957      11968      11967  
     11837      11838      11849      11848      11958      11959      11970      11969  
     11838      11839      11850      11849      11959      11960      11971      11970  
     11839      11840      11851      11850      11960      11961      11972      11971  
     11840      11841      11852      11851      11961      11962      11973      11972  
     11841      11842      11853      11852      11962      11963      11974      11973  
     11842      11843      11854      11853      11963      11964      11975      11974  
     11843      11844      11855      11854      11964      11965      11976      11975  
     11844      11845      11856      11855      11965      11966      11977      11976  
     11845      11846      11857      11856      11966      11967      11978      11977  
     11846      11847      11858      11857      11967      11968      11979      11978  
     11859      11860      11871      11870      11980      11981      11992      11991  
     11860      11861      11872      11871      11981      11982      11993      11992  
     11861      11862      11873      11872      11982      11983      11994      11993  
     11862      11863      11874      11873      11983      11984      11995      11994  
     11863      11864      11875      11874      11984      11985      11996      11995  
     11864      11865      11876      11875      11985      11986      11997      11996  
     11865      11866      11877      11876      11986      11987      11998      11997  
     11866      11867      11878      11877      11987      11988      11999      11998  
     11867      11868      11879      11878      11988      11989      12000      11999  
     11868      11869      11880      11879      11989      11990      12001      12000  
     11870      11871      11882      11881      11991      11992      12003      12002  
     11871      11872      11883      11882      11992      11993      12004      12003  
     11872      11873      11884      11883      11993      11994      12005      12004  
     11873      11874      11885      11884      11994      11995      12006      12005  
     11874      11875      11886      11885      11995      11996      12007      12006  
     11875      11876      11887      11886      11996      11997      12008      12007  
     11876      11877      11888      11887      11997      11998      12009      12008  
     11877      11878      11889      11888      11998      11999      12010      12009  
     11878      11879      11890      11889      11999      12000      12011      12010  
     11879      11880      11891      11890      12000      12001      12012      12011  
     11881      11882      11893      11892      12002      12003      12014      12013  
     11882      11883      11894      11893      12003      12004      12015      12014  
     11883      11884      11895      11894      12004      12005      12016      12015  
     11884      11885      11896      11895      12005      12006      12017      12016  
     11885      11886      11897      11896      12006      12007      12018      12017  
     11886      11887      11898      11897      12007      12008      12019      12018  
     11887      11888      11899      11898      12008      12009      12020      12019  
     11888      11889      11900      11899      12009      12010      12021      12020  
     11889      11890      11901      11900      12010      12011      12022      12021  
     11890      11891      11902      11901      12011      12012      12023      12022  
     11892      11893      11904      11903      12013      12014      12025      12024  
     11893      11894      11905      11904      12014      12015      12026      12025  
     11894      11895      11906      11905      12015      12016      12027      12026  
     11895      11896      11907      11906      12016      12017      12028      12027  
     11896      11897      11908      11907      12017      12018      12029      12028  
     11897      11898      11909      11908      12018      12019      12030      12029  
     11898      11899      11910      11909      12019      12020      12031      12030  
     11899      11900      11911      11910      12020      12021      12032      12031  
     11900      11901      11912      11911      12021      12022      12033      12032  
     11901      11902      11913      11912      12022      12023      12034      12033  
     11903      11904      11915      11914      12024      12025      12036      12035  
     11904      11905      11916      11915      12025      12026      12037      12036  
     11905      11906      11917      11916      12026      12027      12038      12037  
     11906      11907      11918      11917      12027      12028      12039      12038  
     11907      11908      11919      11918      12028      12029      12040      12039  
     11908      11909      11920      11919      12029      12030      12041      12040  
     11909      11910      11921      11920      12030      12031      12042      12041  
     11910      11911      11922      11921      12031      12032      12043      12042  
     11911      11912      11923      11922      12032      12033      12044      12043  
     11912      11913      11924      11923      12033      12034      12045      12044  
     11914      11915      11926      11925      12035      12036      12047      12046  
     11915      11916      11927      11926      12036      12037      12048      12047  
     11916      11917      11928      11927      12037      12038      12049      12048  
     11917      11918      11929      11928      12038      12039      12050      12049  
     11918      11919      11930      11929      12039      12040      12051      12050  
     11919      11920      11931      11930      12040      12041      12052      12051  
     11920      11921      11932      11931      12041      12042      12053      12052  
     11921      11922      11933      11932      12042      12043      12054      12053  
     11922      11923      11934      11933      12043      12044      12055      12054  
     11923      11924      11935      11934      12044      12045      12056      12055  
     11925      11926      11937      11936      12046      12047      12058      12057  
     11926      11927      11938      11937      12047      12048      12059      12058  
     11927      11928      11939      11938      12048      12049      12060      12059  
     11928      11929      11940      11939      12049      12050      12061      12060  
     11929      11930      11941      11940      12050      12051      12062      12061  
     11930      11931      11942      11941      12051      12052      12063      12062  
     11931      11932      11943      11942      12052      12053      12064      12063  
     11932      11933      11944      11943      12053      12054      12065      12064  
     11933      11934      11945      11944      12054      12055      12066      12065  
     11934      11935      11946      11945      12055      12056      12067      12066  
     11936      11937      11948      11947      12057      12058      12069      12068  
     11937      11938      11949      11948      12058      12059      12070      12069  
     11938      11939      11950      11949      12059      12060      12071      12070  
     11939      11940      11951      11950      12060      12061      12072      12071  
     11940      11941      11952      11951      12061      12062      12073      12072  
     11941      11942      11953      11952      12062      12063      12074      12073  
     11942      11943      11954      11953      12063      12064      12075      12074  
     11943      11944      11955      11954      12064      12065      12076      12075  
     11944      11945      11956      11955      12065      12066      12077      12076  
     11945      11946      11957      11956      12066      12067      12078      12077  
     11947      11948      11959      11958      12068      12069      12080      12079  
     11948      11949      11960      11959      12069      12070      12081      12080  
     11949      11950      11961      11960      12070      12071      12082      12081  
     11950      11951      11962      11961      12071      12072      12083      12082  
     11951      11952      11963      11962      12072      12073      12084      12083  
     11952      11953      11964      11963      12073      12074      12085      12084  
     11953      11954      11965      11964      12074      12075      12086      12085  
     11954      11955      11966      11965      12075      12076      12087      12086  
     11955      11956      11967      11966      12076      12077      12088      12087  
     11956      11957      11968      11967      12077      12078      12089      12088  
     11958      11959      11970      11969      12079      12080      12091      12090  
     11959      11960      11971      11970      12080      12081      12092      12091  
     11960      11961      11972      11971      12081      12082      12093      12092  
     11961      11962      11973      11972      12082      12083      12094      12093  
     11962      11963      11974      11973      12083      12084      12095      12094  
     11963      11964      11975      11974      12084      12085      12096      12095  
     11964      11965      11976      11975      12085      12086      12097      12096  
     11965      11966      11977      11976      12086      12087      12098      12097  
     11966      11967      11978      11977      12087      12088      12099      12098  
     11967      11968      11979      11978      12088      12089      12100      12099  
     11980      11981      11992      11991      12101      12102      12113      12112  
     11981      11982      11993      11992      12102      12103      12114      12113  
     11982      11983      11994      11993      12103      12104      12115      12114  
     11983      11984      11995      11994      12104      12105      12116      12115  
     11984      11985      11996      11995      12105      12106      12117      12116  
     11985      11986      11997      11996      12106      12107      12118      12117  
     11986      11987      11998      11997      12107      12108      12119      12118  
     11987      11988      11999      11998      12108      12109      12120      12119  
     11988      11989      12000      11999      12109      12110      12121      12120  
     11989      11990      12001      12000      12110      12111      12122      12121  
     11991      11992      12003      12002      12112      12113      12124      12123  
     11992      11993      12004      12003      12113      12114      12125      12124  
     11993      11994      12005      12004      12114      12115      12126      12125  
     11994      11995      12006      12005      12115      12116      12127      12126  
     11995      11996      12007      12006      12116      12117      12128      12127  
     11996      11997      12008      12007      12117      12118      12129      12128  
     11997      11998      12009      12008      12118      12119      12130      12129  
     11998      11999      12010      12009      12119      12120      12131      12130  
     11999      12000      12011      12010      12120      12121      12132      12131  
     12000      12001      12012      12011      12121      12122      12133      12132  
     12002      12003      12014      12013      12123      12124      12135      12134  
     12003      12004      12015      12014      12124      12125      12136      12135  
     12004      12005      12016      12015      12125      12126      12137      12136  
     12005      12006      12017      12016      12126      12127      12138      12137  
     12006      12007      12018      12017      12127      12128      12139      12138  
     12007      12008      12019      12018      12128      12129      12140      12139  
     12008      12009      12020      12019      12129      12130      12141      12140  
     12009      12010      12021      12020      12130      12131      12142      12141  
     12010      12011      12022      12021      12131      12132      12143      12142  
     12011      12012      12023      12022      12132      12133      12144      12143  
     12013      12014      12025      12024      12134      12135      12146      12145  
     12014      12015      12026      12025      12135      12136      12147      12146  
     12015      12016      12027      12026      12136      12137      12148      12147  
     12016      12017      12028      12027      12137      12138      12149      12148  
     12017      12018      12029      12028      12138      12139      12150      12149  
     12018      12019      12030      12029      12139      12140      12151      12150  
     12019      12020      12031      12030      12140      12141      12152      12151  
     12020      12021      12032      12031      12141      12142      12153      12152  
     12021      12022      12033      12032      12142      12143      12154      12153  
     12022      12023      12034      12033      12143      12144      12155      12154  
     12024      12025      12036      12035      12145      12146      12157      12156  
     12025      12026      12037      12036      12146      12147      12158      12157  
     12026      12027      12038      12037      12147      12148      12159      12158  
     12027      12028      12039      12038      12148      12149      12160      12159  
     12028      12029      12040      12039      12149      12150      12161      12160  
     12029      12030      12041      12040      12150      12151      12162      12161  
     12030      12031      12042      12041      12151      12152      12163      12162  
     12031      12032      12043      12042      12152      12153      12164      12163  
     12032      12033      12044      12043      12153      12154      12165      12164  
     12033      12034      12045      12044      12154      12155      12166      12165  
     12035      12036      12047      12046      12156      12157      12168      12167  
     12036      12037      12048      12047      12157      12158      12169      12168  
     12037      12038      12049      12048      12158      12159      12170      12169  
     12038      12039      12050      12049      12159      12160      12171      12170  
     12039      12040      12051      12050      12160      12161      12172      12171  
     12040      12041      12052      12051      12161      12162      12173      12172  
     12041      12042      12053      12052      12162      12163      12174      12173  
     12042      12043      12054      12053      12163      12164      12175      12174  
     12043      12044      12055      12054      12164      12165      12176      12175  
     12044      12045      12056      12055      12165      12166      12177      12176  
     12046      12047      12058      12057      12167      12168      12179      12178  
     12047      12048      12059      12058      12168      12169      12180      12179  
     12048      12049      12060      12059      12169      12170      12181      12180  
     12049      12050      12061      12060      12170      12171      12182      12181  
     12050      12051      12062      12061      12171      12172      12183      12182  
     12051      12052      12063      12062      12172      12173      12184      12183  
     12052      12053      12064      12063      12173      12174      12185      12184  
     12053      12054      12065      12064      12174      12175      12186      12185  
     12054      12055      12066      12065      12175      12176      12187      12186  
     12055      12056      12067      12066      12176      12177      12188      12187  
     12057      12058      12069      12068      12178      12179      12190      12189  
     12058      12059      12070      12069      12179      12180      12191      12190  
     12059      12060      12071      12070      12180      12181      12192      12191  
     12060      12061      12072      12071      12181      12182      12193      12192  
     12061      12062      12073      12072      12182      12183      12194      12193  
     12062      12063      12074      12073      12183      12184      12195      12194  
     12063      12064      12075      12074      12184      12185      12196      12195  
     12064      12065      12076      12075      12185      12186      12197      12196  
     12065      12066      12077      12076      12186      12187      12198      12197  
     12066      12067      12078      12077      12187      12188      12199      12198  
     12068      12069      12080      12079      12189      12190      12201      12200  
     12069      12070      12081      12080      12190      12191      12202      12201  
     12070      12071      12082      12081      12191      12192      12203      12202  
     12071      12072      12083      12082      12192      12193      12204      12203  
     12072      12073      12084      12083      12193      12194      12205      12204  
     12073      12074      12085      12084      12194      12195      12206      12205  
     12074      12075      12086      12085      12195      12196      12207      12206  
     12075      12076      12087      12086      12196      12197      12208      12207  
     12076      12077      12088      12087      12197      12198      12209      12208  
     12077      12078      12089      12088      12198      12199      12210      12209  
     12079      12080      12091      12090      12200      12201      12212      12211  
     12080      12081      12092      12091      12201      12202      12213      12212  
     12081      12082      12093      12092      12202      12203      12214      12213  
     12082      12083      12094      12093      12203      12204      12215      12214  
     12083      12084      12095      12094      12204      12205      12216      12215  
     12084      12085      12096      12095      12205      12206      12217      12216  
     12085      12086      12097      12096      12206      12207      12218      12217  
     12086      12087      12098      12097      12207      12208      12219      12218  
     12087      12088      12099      12098      12208      12209      12220      12219  
     12088      12089      12100      12099      12209      12210      12221      12220  
